%%MatrixMarket matrix coordinate integer general
%
10000 10000 79968
1 2 1
1 3 1
1 4 1
1 5 1
1 6 1
1 7 1
1 8 1
1 9 1
1 10 1
1 12 1
1 14 1
1 16 1
1 19 1
1 20 1
1 27 1
1 30 1
1 31 1
1 34 1
1 45 1
1 52 1
1 58 1
1 61 1
1 63 1
1 65 1
1 69 1
1 74 1
1 88 1
1 102 1
1 105 1
1 107 1
1 117 1
1 165 1
1 208 1
1 219 1
1 227 1
1 233 1
1 256 1
1 291 1
1 298 1
1 301 1
1 305 1
1 314 1
1 336 1
1 357 1
1 374 1
1 397 1
1 408 1
1 431 1
1 447 1
1 499 1
1 515 1
1 523 1
1 531 1
1 546 1
1 553 1
1 583 1
1 587 1
1 591 1
1 640 1
1 655 1
1 678 1
1 686 1
1 698 1
1 701 1
1 722 1
1 727 1
1 735 1
1 746 1
1 793 1
1 809 1
1 832 1
1 847 1
1 872 1
1 893 1
1 913 1
1 917 1
1 926 1
1 937 1
1 941 1
1 971 1
1 995 1
1 1172 1
1 1187 1
1 1201 1
1 1250 1
1 1257 1
1 1283 1
1 1309 1
1 1333 1
1 1357 1
1 1390 1
1 1396 1
1 1440 1
1 1459 1
1 1576 1
1 1587 1
1 1595 1
1 1601 1
1 1683 1
1 1692 1
1 1694 1
1 1702 1
1 1782 1
1 1804 1
1 1831 1
1 1845 1
1 1848 1
1 1849 1
1 1894 1
1 1897 1
1 1908 1
1 1910 1
1 1915 1
1 1942 1
1 1956 1
1 2000 1
1 2014 1
1 2035 1
1 2046 1
1 2051 1
1 2058 1
1 2066 1
1 2090 1
1 2117 1
1 2227 1
1 2315 1
1 2326 1
1 2437 1
1 2461 1
1 2512 1
1 2518 1
1 2556 1
1 2597 1
1 2669 1
1 2673 1
1 2748 1
1 2756 1
1 2757 1
1 2826 1
1 2832 1
1 2879 1
1 2932 1
1 3008 1
1 3084 1
1 3215 1
1 3342 1
1 3368 1
1 3441 1
1 3475 1
1 3572 1
1 3684 1
1 3718 1
1 3830 1
1 3942 1
1 3984 1
1 4048 1
1 4230 1
1 4231 1
1 4268 1
1 4354 1
1 4488 1
1 4535 1
1 4538 1
1 4586 1
1 4640 1
1 4700 1
1 4703 1
1 5250 1
1 5324 1
1 5595 1
1 5669 1
1 5713 1
1 5781 1
1 5822 1
1 5970 1
1 6009 1
1 6114 1
1 6148 1
1 6188 1
1 6284 1
1 6303 1
1 6321 1
1 6375 1
1 6427 1
1 6428 1
1 6450 1
1 6505 1
1 6588 1
1 6612 1
1 6871 1
1 6930 1
1 6973 1
1 7009 1
1 7051 1
1 7201 1
1 7291 1
1 7353 1
1 7428 1
1 7661 1
1 7683 1
1 7774 1
1 7858 1
1 7908 1
1 7960 1
1 7975 1
1 8005 1
1 8017 1
1 8130 1
1 8166 1
1 8169 1
1 8178 1
1 8180 1
1 8258 1
1 8482 1
1 8691 1
1 8721 1
1 8767 1
1 8985 1
1 8987 1
1 9025 1
1 9308 1
1 9352 1
1 9379 1
1 9526 1
1 9539 1
1 9654 1
1 9668 1
1 9822 1
1 9919 1
2 1 1
2 6 1
2 7 1
2 8 1
2 9 1
2 52 1
2 60 1
2 86 1
2 96 1
2 111 1
2 184 1
2 187 1
2 190 1
2 198 1
2 260 1
2 267 1
2 357 1
2 366 1
2 457 1
2 556 1
2 667 1
2 724 1
2 738 1
2 1012 1
2 1027 1
2 1352 1
2 1608 1
2 1693 1
2 1733 1
2 1772 1
2 1872 1
2 2003 1
2 2312 1
2 2485 1
2 2526 1
2 2673 1
2 2682 1
2 3057 1
2 3393 1
2 3607 1
2 3729 1
2 3824 1
2 3975 1
2 4001 1
2 4154 1
2 4371 1
2 4566 1
2 4741 1
2 4917 1
2 4959 1
2 6304 1
2 6400 1
2 7235 1
2 7751 1
2 8240 1
2 8450 1
2 9003 1
2 9036 1
2 9052 1
2 9439 1
2 9516 1
2 9759 1
3 1 1
3 6 1
3 7 1
3 8 1
3 10 1
3 11 1
3 12 1
3 17 1
3 27 1
3 60 1
3 63 1
3 72 1
3 83 1
3 87 1
3 93 1
3 103 1
3 108 1
3 118 1
3 143 1
3 147 1
3 159 1
3 165 1
3 225 1
3 311 1
3 318 1
3 325 1
3 336 1
3 356 1
3 359 1
3 395 1
3 406 1
3 413 1
3 439 1
3 448 1
3 449 1
3 521 1
3 528 1
3 570 1
3 630 1
3 639 1
3 641 1
3 645 1
3 666 1
3 735 1
3 781 1
3 816 1
3 829 1
3 849 1
3 906 1
3 935 1
3 956 1
3 1000 1
3 1088 1
3 1135 1
3 1236 1
3 1241 1
3 1249 1
3 1302 1
3 1327 1
3 1355 1
3 1357 1
3 1408 1
3 1495 1
3 1496 1
3 1502 1
3 1523 1
3 1536 1
3 1583 1
3 1595 1
3 1796 1
3 1831 1
3 1944 1
3 1959 1
3 1993 1
3 2040 1
3 2060 1
3 2061 1
3 2069 1
3 2073 1
3 2085 1
3 2130 1
3 2134 1
3 2182 1
3 2190 1
3 2285 1
3 2394 1
3 2493 1
3 2503 1
3 2683 1
3 2778 1
3 2838 1
3 2959 1
3 2997 1
3 3030 1
3 3063 1
3 3064 1
3 3170 1
3 3212 1
3 3236 1
3 3240 1
3 3263 1
3 3303 1
3 3372 1
3 3503 1
3 3509 1
3 3685 1
3 3741 1
3 3907 1
3 3938 1
3 4112 1
3 4119 1
3 4125 1
3 4129 1
3 4153 1
3 4176 1
3 4287 1
3 4388 1
3 4406 1
3 4534 1
3 4553 1
3 4588 1
3 4649 1
3 4770 1
3 4793 1
3 4885 1
3 4924 1
3 5121 1
3 5195 1
3 5229 1
3 5246 1
3 5297 1
3 5549 1
3 5808 1
3 5823 1
3 5951 1
3 6009 1
3 6079 1
3 6080 1
3 6106 1
3 6176 1
3 6206 1
3 6228 1
3 6382 1
3 6584 1
3 6756 1
3 6770 1
3 6774 1
3 6866 1
3 6909 1
3 7357 1
3 7400 1
3 7487 1
3 7523 1
3 7608 1
3 7750 1
3 7977 1
3 8000 1
3 8001 1
3 8114 1
3 8137 1
3 8230 1
3 8255 1
3 8324 1
3 8366 1
3 8425 1
3 8581 1
3 8613 1
3 8708 1
3 8722 1
3 8787 1
3 8887 1
3 9136 1
3 9219 1
3 9294 1
3 9307 1
3 9643 1
3 9711 1
3 9799 1
3 9831 1
3 9917 1
4 1 1
4 6 1
4 32 1
4 40 1
4 53 1
4 61 1
4 68 1
4 71 1
4 89 1
4 109 1
4 119 1
4 161 1
4 185 1
4 241 1
4 246 1
4 278 1
4 318 1
4 381 1
4 394 1
4 396 1
4 506 1
4 517 1
4 548 1
4 630 1
4 657 1
4 702 1
4 710 1
4 785 1
4 812 1
4 1060 1
4 1087 1
4 1332 1
4 1369 1
4 1869 1
4 1881 1
4 2275 1
4 2517 1
4 2687 1
4 2791 1
4 2849 1
4 2897 1
4 3070 1
4 3306 1
4 3416 1
4 3726 1
4 3918 1
4 4329 1
4 4340 1
4 4871 1
4 4945 1
4 5043 1
4 5073 1
4 5327 1
4 5810 1
4 6044 1
4 6144 1
4 7070 1
4 7410 1
4 7539 1
4 7859 1
4 7945 1
4 8402 1
4 8538 1
4 8619 1
4 8656 1
4 9213 1
4 9387 1
4 9468 1
4 9621 1
4 9811 1
5 1 1
5 8 1
5 10 1
5 13 1
5 16 1
5 17 1
5 18 1
5 23 1
5 31 1
5 37 1
5 38 1
5 54 1
5 63 1
5 66 1
5 68 1
5 77 1
5 95 1
5 98 1
5 119 1
5 126 1
5 131 1
5 133 1
5 143 1
5 151 1
5 170 1
5 186 1
5 193 1
5 200 1
5 218 1
5 221 1
5 242 1
5 253 1
5 261 1
5 270 1
5 298 1
5 304 1
5 309 1
5 345 1
5 372 1
5 396 1
5 416 1
5 466 1
5 473 1
5 494 1
5 534 1
5 536 1
5 617 1
5 659 1
5 667 1
5 679 1
5 687 1
5 717 1
5 756 1
5 777 1
5 796 1
5 806 1
5 824 1
5 863 1
5 876 1
5 915 1
5 920 1
5 987 1
5 1128 1
5 1233 1
5 1242 1
5 1402 1
5 1527 1
5 1540 1
5 1551 1
5 1608 1
5 1697 1
5 1756 1
5 1811 1
5 1894 1
5 1977 1
5 2156 1
5 2191 1
5 2320 1
5 2400 1
5 2414 1
5 2448 1
5 2528 1
5 2664 1
5 2707 1
5 2828 1
5 2834 1
5 2864 1
5 2951 1
5 3011 1
5 3019 1
5 3079 1
5 3104 1
5 3108 1
5 3192 1
5 3331 1
5 3433 1
5 3458 1
5 3462 1
5 3463 1
5 3557 1
5 3669 1
5 3676 1
5 3731 1
5 3745 1
5 3753 1
5 3901 1
5 3949 1
5 4008 1
5 4069 1
5 4092 1
5 4095 1
5 4187 1
5 4203 1
5 4263 1
5 4302 1
5 4349 1
5 4382 1
5 4840 1
5 4964 1
5 4993 1
5 5165 1
5 5208 1
5 5266 1
5 5430 1
5 5664 1
5 5713 1
5 5730 1
5 5735 1
5 5798 1
5 5908 1
5 5967 1
5 6147 1
5 6178 1
5 6466 1
5 6561 1
5 6565 1
5 6762 1
5 6853 1
5 6974 1
5 6980 1
5 7047 1
5 7052 1
5 7228 1
5 7381 1
5 7402 1
5 7540 1
5 7645 1
5 7671 1
5 7696 1
5 7882 1
5 7953 1
5 7955 1
5 8087 1
5 8133 1
5 8162 1
5 8266 1
5 8297 1
5 8321 1
5 8422 1
5 8805 1
5 9044 1
5 9182 1
5 9265 1
5 9275 1
5 9318 1
5 9456 1
5 9601 1
5 9829 1
5 9836 1
6 1 1
6 2 1
6 3 1
6 4 1
6 7 1
6 9 1
6 11 1
6 12 1
6 13 1
6 14 1
6 16 1
6 17 1
6 18 1
6 21 1
6 22 1
6 24 1
6 28 1
6 35 1
6 36 1
6 37 1
6 41 1
6 42 1
6 43 1
6 45 1
6 46 1
6 47 1
6 48 1
6 51 1
6 54 1
6 56 1
6 59 1
6 67 1
6 70 1
6 73 1
6 75 1
6 77 1
6 78 1
6 84 1
6 85 1
6 86 1
6 87 1
6 92 1
6 94 1
6 96 1
6 100 1
6 102 1
6 103 1
6 112 1
6 113 1
6 116 1
6 121 1
6 131 1
6 132 1
6 140 1
6 142 1
6 143 1
6 144 1
6 148 1
6 157 1
6 162 1
6 164 1
6 165 1
6 170 1
6 189 1
6 193 1
6 195 1
6 208 1
6 210 1
6 215 1
6 220 1
6 223 1
6 232 1
6 240 1
6 251 1
6 253 1
6 259 1
6 277 1
6 291 1
6 292 1
6 294 1
6 297 1
6 306 1
6 309 1
6 310 1
6 311 1
6 313 1
6 322 1
6 336 1
6 348 1
6 371 1
6 398 1
6 399 1
6 405 1
6 414 1
6 419 1
6 420 1
6 436 1
6 439 1
6 448 1
6 452 1
6 457 1
6 463 1
6 476 1
6 487 1
6 506 1
6 511 1
6 515 1
6 527 1
6 535 1
6 566 1
6 579 1
6 591 1
6 614 1
6 616 1
6 619 1
6 624 1
6 626 1
6 637 1
6 648 1
6 649 1
6 651 1
6 661 1
6 668 1
6 702 1
6 708 1
6 710 1
6 719 1
6 720 1
6 758 1
6 764 1
6 767 1
6 771 1
6 776 1
6 777 1
6 778 1
6 780 1
6 791 1
6 803 1
6 848 1
6 850 1
6 875 1
6 887 1
6 894 1
6 917 1
6 938 1
6 1025 1
6 1032 1
6 1039 1
6 1070 1
6 1084 1
6 1098 1
6 1113 1
6 1118 1
6 1129 1
6 1132 1
6 1142 1
6 1154 1
6 1158 1
6 1178 1
6 1183 1
6 1213 1
6 1222 1
6 1224 1
6 1238 1
6 1272 1
6 1285 1
6 1292 1
6 1313 1
6 1341 1
6 1353 1
6 1360 1
6 1405 1
6 1421 1
6 1436 1
6 1445 1
6 1467 1
6 1485 1
6 1494 1
6 1548 1
6 1562 1
6 1611 1
6 1654 1
6 1703 1
6 1737 1
6 1763 1
6 1801 1
6 1820 1
6 1878 1
6 1890 1
6 1899 1
6 1904 1
6 1919 1
6 1931 1
6 1941 1
6 1961 1
6 1970 1
6 1980 1
6 2004 1
6 2040 1
6 2047 1
6 2068 1
6 2074 1
6 2085 1
6 2122 1
6 2137 1
6 2149 1
6 2155 1
6 2197 1
6 2210 1
6 2300 1
6 2305 1
6 2316 1
6 2327 1
6 2342 1
6 2390 1
6 2394 1
6 2460 1
6 2492 1
6 2497 1
6 2507 1
6 2527 1
6 2558 1
6 2586 1
6 2594 1
6 2666 1
6 2701 1
6 2706 1
6 2715 1
6 2723 1
6 2829 1
6 2847 1
6 2879 1
6 2882 1
6 3003 1
6 3066 1
6 3134 1
6 3146 1
6 3164 1
6 3177 1
6 3181 1
6 3184 1
6 3209 1
6 3257 1
6 3262 1
6 3277 1
6 3309 1
6 3362 1
6 3388 1
6 3431 1
6 3441 1
6 3445 1
6 3450 1
6 3467 1
6 3508 1
6 3531 1
6 3564 1
6 3584 1
6 3593 1
6 3720 1
6 3817 1
6 3887 1
6 3902 1
6 3978 1
6 4025 1
6 4038 1
6 4083 1
6 4087 1
6 4094 1
6 4097 1
6 4102 1
6 4126 1
6 4147 1
6 4153 1
6 4158 1
6 4189 1
6 4266 1
6 4416 1
6 4437 1
6 4541 1
6 4566 1
6 4590 1
6 4609 1
6 4634 1
6 4641 1
6 4651 1
6 4787 1
6 4812 1
6 4842 1
6 4874 1
6 4882 1
6 4913 1
6 4984 1
6 5046 1
6 5054 1
6 5075 1
6 5103 1
6 5171 1
6 5214 1
6 5228 1
6 5236 1
6 5366 1
6 5378 1
6 5383 1
6 5393 1
6 5414 1
6 5464 1
6 5510 1
6 5517 1
6 5548 1
6 5588 1
6 5634 1
6 5678 1
6 5695 1
6 5713 1
6 5866 1
6 5872 1
6 5922 1
6 5923 1
6 5968 1
6 6005 1
6 6042 1
6 6137 1
6 6146 1
6 6275 1
6 6314 1
6 6333 1
6 6407 1
6 6417 1
6 6435 1
6 6476 1
6 6485 1
6 6495 1
6 6531 1
6 6563 1
6 6571 1
6 6622 1
6 6650 1
6 6663 1
6 6673 1
6 6682 1
6 6823 1
6 6827 1
6 6860 1
6 6950 1
6 6992 1
6 7049 1
6 7072 1
6 7119 1
6 7155 1
6 7169 1
6 7206 1
6 7304 1
6 7366 1
6 7427 1
6 7456 1
6 7491 1
6 7510 1
6 7570 1
6 7572 1
6 7587 1
6 7599 1
6 7665 1
6 7873 1
6 7910 1
6 7986 1
6 8005 1
6 8020 1
6 8044 1
6 8060 1
6 8124 1
6 8131 1
6 8178 1
6 8212 1
6 8221 1
6 8251 1
6 8256 1
6 8319 1
6 8348 1
6 8349 1
6 8463 1
6 8488 1
6 8562 1
6 8566 1
6 8600 1
6 8660 1
6 8683 1
6 8686 1
6 8716 1
6 8734 1
6 8735 1
6 8804 1
6 8815 1
6 8862 1
6 8871 1
6 8956 1
6 8965 1
6 8998 1
6 9028 1
6 9084 1
6 9139 1
6 9156 1
6 9221 1
6 9263 1
6 9281 1
6 9342 1
6 9428 1
6 9471 1
6 9649 1
6 9718 1
6 9745 1
6 9756 1
6 9845 1
6 9876 1
6 9887 1
7 1 1
7 2 1
7 3 1
7 6 1
7 15 1
7 21 1
7 28 1
7 36 1
7 43 1
7 63 1
7 78 1
7 79 1
7 86 1
7 110 1
7 111 1
7 120 1
7 132 1
7 191 1
7 197 1
7 204 1
7 241 1
7 251 1
7 256 1
7 352 1
7 387 1
7 424 1
7 438 1
7 483 1
7 490 1
7 498 1
7 557 1
7 579 1
7 597 1
7 598 1
7 660 1
7 796 1
7 816 1
7 869 1
7 882 1
7 916 1
7 975 1
7 1035 1
7 1060 1
7 1072 1
7 1097 1
7 1103 1
7 1116 1
7 1129 1
7 1152 1
7 1183 1
7 1239 1
7 1383 1
7 1417 1
7 1471 1
7 1562 1
7 1658 1
7 1730 1
7 1768 1
7 1771 1
7 1914 1
7 1963 1
7 2007 1
7 2064 1
7 2224 1
7 2267 1
7 2477 1
7 2637 1
7 2697 1
7 2728 1
7 2767 1
7 2785 1
7 2823 1
7 2845 1
7 2898 1
7 2972 1
7 3092 1
7 3130 1
7 3144 1
7 3151 1
7 3157 1
7 3200 1
7 3340 1
7 3505 1
7 3753 1
7 3777 1
7 3934 1
7 3998 1
7 4205 1
7 4365 1
7 4410 1
7 4633 1
7 4680 1
7 4766 1
7 4844 1
7 4850 1
7 4854 1
7 4947 1
7 5099 1
7 5140 1
7 5168 1
7 5849 1
7 5981 1
7 5990 1
7 6108 1
7 6183 1
7 6213 1
7 6321 1
7 6569 1
7 6603 1
7 6707 1
7 6787 1
7 6798 1
7 7109 1
7 7207 1
7 7244 1
7 7422 1
7 7454 1
7 7492 1
7 7834 1
7 7868 1
7 8081 1
7 8109 1
7 8234 1
7 8318 1
7 8415 1
7 8711 1
7 8961 1
7 9055 1
7 9430 1
7 9452 1
7 9627 1
8 1 1
8 2 1
8 3 1
8 5 1
8 9 1
8 11 1
8 12 1
8 17 1
8 19 1
8 21 1
8 22 1
8 23 1
8 25 1
8 29 1
8 50 1
8 52 1
8 69 1
8 71 1
8 79 1
8 81 1
8 88 1
8 117 1
8 127 1
8 134 1
8 191 1
8 194 1
8 224 1
8 262 1
8 276 1
8 283 1
8 299 1
8 314 1
8 326 1
8 417 1
8 448 1
8 469 1
8 557 1
8 618 1
8 622 1
8 641 1
8 646 1
8 647 1
8 657 1
8 705 1
8 707 1
8 734 1
8 853 1
8 891 1
8 924 1
8 981 1
8 1018 1
8 1045 1
8 1121 1
8 1192 1
8 1247 1
8 1380 1
8 1397 1
8 1432 1
8 1497 1
8 1511 1
8 1516 1
8 1541 1
8 1590 1
8 1653 1
8 1796 1
8 1798 1
8 1874 1
8 1957 1
8 2051 1
8 2141 1
8 2167 1
8 2225 1
8 2239 1
8 2273 1
8 2324 1
8 2545 1
8 2548 1
8 2583 1
8 2746 1
8 2754 1
8 2888 1
8 2976 1
8 3011 1
8 3027 1
8 3130 1
8 3338 1
8 3369 1
8 3376 1
8 3454 1
8 3522 1
8 3540 1
8 3716 1
8 3874 1
8 3913 1
8 3923 1
8 4148 1
8 4240 1
8 4325 1
8 4377 1
8 4429 1
8 4557 1
8 4602 1
8 4604 1
8 4615 1
8 4721 1
8 4777 1
8 4795 1
8 4819 1
8 4943 1
8 5060 1
8 5192 1
8 5234 1
8 5245 1
8 5288 1
8 5647 1
8 5931 1
8 6007 1
8 6317 1
8 6341 1
8 6534 1
8 6543 1
8 6813 1
8 7011 1
8 7156 1
8 7419 1
8 7768 1
8 7947 1
8 7973 1
8 7997 1
8 8246 1
8 8284 1
8 8347 1
8 8376 1
8 8397 1
8 8416 1
8 8417 1
8 8545 1
8 8554 1
8 8762 1
8 8778 1
8 8851 1
8 9007 1
8 9259 1
8 9302 1
8 9407 1
8 9578 1
8 9602 1
8 9631 1
8 9638 1
8 9801 1
9 1 1
9 2 1
9 6 1
9 8 1
9 10 1
9 13 1
9 14 1
9 26 1
9 49 1
9 55 1
9 98 1
9 114 1
9 223 1
9 271 1
9 275 1
9 327 1
9 337 1
9 378 1
9 392 1
9 478 1
9 495 1
9 646 1
9 678 1
9 764 1
9 892 1
9 1090 1
9 1114 1
9 1127 1
9 1164 1
9 1174 1
9 1368 1
9 1440 1
9 1483 1
9 1507 1
9 1510 1
9 1530 1
9 1533 1
9 1655 1
9 1665 1
9 1799 1
9 1810 1
9 1932 1
9 2051 1
9 2079 1
9 2298 1
9 2301 1
9 2656 1
9 2720 1
9 2827 1
9 2836 1
9 3167 1
9 3191 1
9 3243 1
9 3280 1
9 3603 1
9 3652 1
9 3674 1
9 3684 1
9 4159 1
9 4585 1
9 4804 1
9 4906 1
9 5291 1
9 5305 1
9 5384 1
9 5467 1
9 5750 1
9 6009 1
9 6011 1
9 6018 1
9 6100 1
9 6645 1
9 6653 1
9 6793 1
9 6798 1
9 6872 1
9 7061 1
9 7476 1
9 7825 1
9 8206 1
9 8368 1
9 8406 1
9 8504 1
9 8578 1
9 8645 1
9 8748 1
9 8810 1
9 8852 1
9 9073 1
9 9395 1
9 9460 1
9 9665 1
9 9903 1
10 1 1
10 3 1
10 5 1
10 9 1
10 11 1
10 15 1
10 18 1
10 24 1
10 25 1
10 49 1
10 55 1
10 65 1
10 78 1
10 89 1
10 90 1
10 94 1
10 114 1
10 129 1
10 132 1
10 139 1
10 141 1
10 147 1
10 151 1
10 152 1
10 162 1
10 164 1
10 182 1
10 199 1
10 243 1
10 252 1
10 261 1
10 279 1
10 284 1
10 293 1
10 307 1
10 349 1
10 358 1
10 360 1
10 361 1
10 403 1
10 410 1
10 411 1
10 449 1
10 471 1
10 552 1
10 554 1
10 572 1
10 582 1
10 583 1
10 622 1
10 647 1
10 653 1
10 658 1
10 688 1
10 708 1
10 787 1
10 791 1
10 811 1
10 866 1
10 913 1
10 929 1
10 948 1
10 957 1
10 992 1
10 1005 1
10 1030 1
10 1065 1
10 1081 1
10 1083 1
10 1104 1
10 1185 1
10 1218 1
10 1271 1
10 1300 1
10 1309 1
10 1310 1
10 1395 1
10 1419 1
10 1423 1
10 1452 1
10 1468 1
10 1610 1
10 1627 1
10 1717 1
10 1757 1
10 1805 1
10 1859 1
10 1960 1
10 2054 1
10 2089 1
10 2090 1
10 2106 1
10 2146 1
10 2186 1
10 2204 1
10 2237 1
10 2251 1
10 2419 1
10 2494 1
10 2546 1
10 2559 1
10 2656 1
10 2685 1
10 2703 1
10 2730 1
10 2816 1
10 2888 1
10 3086 1
10 3178 1
10 3343 1
10 3426 1
10 3495 1
10 3504 1
10 3530 1
10 3549 1
10 3634 1
10 3703 1
10 3719 1
10 3766 1
10 3803 1
10 3941 1
10 3981 1
10 4070 1
10 4397 1
10 4415 1
10 4457 1
10 4623 1
10 4684 1
10 4768 1
10 4845 1
10 4849 1
10 4936 1
10 4946 1
10 4951 1
10 5105 1
10 5129 1
10 5133 1
10 5149 1
10 5420 1
10 5480 1
10 5642 1
10 5840 1
10 6123 1
10 6155 1
10 6161 1
10 6209 1
10 6244 1
10 6275 1
10 6324 1
10 6367 1
10 6424 1
10 6815 1
10 6860 1
10 6932 1
10 6948 1
10 6979 1
10 7002 1
10 7420 1
10 7515 1
10 7793 1
10 7915 1
10 7920 1
10 8016 1
10 8081 1
10 8127 1
10 8172 1
10 8464 1
10 8528 1
10 8534 1
10 8575 1
10 8609 1
10 8622 1
10 8924 1
10 8935 1
10 9028 1
10 9187 1
10 9195 1
10 9264 1
10 9335 1
10 9348 1
10 9350 1
10 9365 1
10 9447 1
10 9858 1
10 9863 1
10 9881 1
10 9908 1
11 3 1
11 6 1
11 8 1
11 10 1
11 13 1
11 18 1
11 21 1
11 26 1
11 30 1
11 34 1
11 51 1
11 53 1
11 57 1
11 64 1
11 72 1
11 104 1
11 123 1
11 130 1
11 148 1
11 167 1
11 196 1
11 213 1
11 223 1
11 237 1
11 273 1
11 290 1
11 292 1
11 298 1
11 320 1
11 330 1
11 331 1
11 343 1
11 385 1
11 391 1
11 397 1
11 429 1
11 430 1
11 481 1
11 486 1
11 487 1
11 503 1
11 573 1
11 653 1
11 666 1
11 685 1
11 689 1
11 693 1
11 705 1
11 707 1
11 734 1
11 739 1
11 783 1
11 784 1
11 812 1
11 824 1
11 895 1
11 1006 1
11 1009 1
11 1011 1
11 1030 1
11 1047 1
11 1110 1
11 1200 1
11 1251 1
11 1311 1
11 1312 1
11 1337 1
11 1417 1
11 1427 1
11 1452 1
11 1529 1
11 1674 1
11 1677 1
11 1710 1
11 1739 1
11 1769 1
11 1792 1
11 1832 1
11 1916 1
11 1924 1
11 1926 1
11 1972 1
11 2134 1
11 2135 1
11 2206 1
11 2207 1
11 2212 1
11 2259 1
11 2335 1
11 2435 1
11 2510 1
11 2598 1
11 2687 1
11 2709 1
11 2713 1
11 2723 1
11 2991 1
11 3096 1
11 3149 1
11 3412 1
11 3443 1
11 3655 1
11 3948 1
11 3997 1
11 4057 1
11 4225 1
11 4416 1
11 4447 1
11 4462 1
11 4474 1
11 4491 1
11 4525 1
11 4614 1
11 4778 1
11 4797 1
11 4801 1
11 4819 1
11 4849 1
11 4868 1
11 4896 1
11 4901 1
11 4922 1
11 4986 1
11 5148 1
11 5447 1
11 5497 1
11 5513 1
11 5593 1
11 5725 1
11 5727 1
11 5765 1
11 5794 1
11 5932 1
11 6298 1
11 6783 1
11 6789 1
11 6895 1
11 6939 1
11 7107 1
11 7179 1
11 7183 1
11 7210 1
11 7279 1
11 7714 1
11 7775 1
11 7850 1
11 8433 1
11 8518 1
11 8753 1
11 8796 1
11 8841 1
11 8960 1
11 8963 1
11 8988 1
11 9252 1
11 9309 1
11 9353 1
11 9398 1
11 9484 1
11 9702 1
11 9914 1
11 9996 1
12 1 1
12 3 1
12 6 1
12 8 1
12 20 1
12 25 1
12 29 1
12 39 1
12 40 1
12 46 1
12 48 1
12 50 1
12 52 1
12 58 1
12 67 1
12 70 1
12 73 1
12 91 1
12 121 1
12 156 1
12 230 1
12 252 1
12 271 1
12 293 1
12 356 1
12 367 1
12 409 1
12 442 1
12 446 1
12 491 1
12 567 1
12 571 1
12 572 1
12 586 1
12 596 1
12 637 1
12 658 1
12 690 1
12 692 1
12 726 1
12 754 1
12 762 1
12 790 1
12 817 1
12 820 1
12 869 1
12 902 1
12 1032 1
12 1064 1
12 1094 1
12 1119 1
12 1191 1
12 1260 1
12 1308 1
12 1320 1
12 1385 1
12 1439 1
12 1510 1
12 1512 1
12 1541 1
12 1576 1
12 1706 1
12 1723 1
12 1763 1
12 1777 1
12 1804 1
12 1887 1
12 1924 1
12 1956 1
12 2037 1
12 2166 1
12 2346 1
12 2401 1
12 2415 1
12 2418 1
12 2421 1
12 2628 1
12 2736 1
12 2752 1
12 2760 1
12 2789 1
12 2986 1
12 3059 1
12 3061 1
12 3069 1
12 3268 1
12 3313 1
12 3335 1
12 3452 1
12 3539 1
12 3747 1
12 3850 1
12 3918 1
12 3961 1
12 4064 1
12 4118 1
12 4240 1
12 4280 1
12 4357 1
12 4531 1
12 4537 1
12 4743 1
12 5011 1
12 5014 1
12 5032 1
12 5485 1
12 5529 1
12 5847 1
12 5863 1
12 6078 1
12 6080 1
12 6184 1
12 6243 1
12 6259 1
12 6570 1
12 6765 1
12 6829 1
12 6870 1
12 6912 1
12 6952 1
12 6973 1
12 7220 1
12 7264 1
12 7292 1
12 7333 1
12 7444 1
12 7449 1
12 7580 1
12 7761 1
12 7952 1
12 8069 1
12 8238 1
12 8447 1
12 8496 1
12 8619 1
12 8704 1
12 8736 1
12 8763 1
12 8930 1
12 8966 1
12 8976 1
12 9100 1
12 9156 1
12 9360 1
12 9583 1
13 5 1
13 6 1
13 9 1
13 11 1
13 14 1
13 15 1
13 19 1
13 20 1
13 22 1
13 25 1
13 26 1
13 29 1
13 37 1
13 46 1
13 69 1
13 74 1
13 80 1
13 84 1
13 97 1
13 110 1
13 116 1
13 120 1
13 122 1
13 130 1
13 134 1
13 141 1
13 160 1
13 171 1
13 174 1
13 178 1
13 194 1
13 195 1
13 211 1
13 228 1
13 238 1
13 254 1
13 259 1
13 266 1
13 313 1
13 330 1
13 340 1
13 366 1
13 446 1
13 456 1
13 464 1
13 465 1
13 474 1
13 498 1
13 524 1
13 530 1
13 549 1
13 600 1
13 636 1
13 637 1
13 661 1
13 678 1
13 741 1
13 744 1
13 748 1
13 762 1
13 776 1
13 822 1
13 828 1
13 860 1
13 862 1
13 886 1
13 928 1
13 1015 1
13 1030 1
13 1044 1
13 1081 1
13 1207 1
13 1217 1
13 1251 1
13 1291 1
13 1293 1
13 1321 1
13 1351 1
13 1362 1
13 1390 1
13 1414 1
13 1429 1
13 1437 1
13 1512 1
13 1575 1
13 1578 1
13 1634 1
13 1657 1
13 1672 1
13 1703 1
13 1739 1
13 1756 1
13 1795 1
13 1854 1
13 1856 1
13 1983 1
13 2030 1
13 2036 1
13 2044 1
13 2052 1
13 2061 1
13 2083 1
13 2127 1
13 2137 1
13 2160 1
13 2178 1
13 2243 1
13 2304 1
13 2373 1
13 2393 1
13 2462 1
13 2467 1
13 2513 1
13 2542 1
13 2600 1
13 2726 1
13 2877 1
13 2881 1
13 2913 1
13 2932 1
13 2943 1
13 2955 1
13 2965 1
13 2996 1
13 2999 1
13 3176 1
13 3213 1
13 3238 1
13 3349 1
13 3412 1
13 3419 1
13 3497 1
13 3763 1
13 3940 1
13 3958 1
13 4006 1
13 4110 1
13 4196 1
13 4227 1
13 4233 1
13 4247 1
13 4255 1
13 4303 1
13 4415 1
13 4442 1
13 4530 1
13 4549 1
13 4661 1
13 4672 1
13 4686 1
13 4717 1
13 4752 1
13 4757 1
13 4785 1
13 4976 1
13 4980 1
13 4986 1
13 5005 1
13 5047 1
13 5048 1
13 5092 1
13 5128 1
13 5166 1
13 5215 1
13 5328 1
13 5347 1
13 5498 1
13 5503 1
13 5546 1
13 5735 1
13 6001 1
13 6047 1
13 6056 1
13 6078 1
13 6160 1
13 6218 1
13 6223 1
13 6413 1
13 6473 1
13 6503 1
13 6560 1
13 6602 1
13 6628 1
13 6658 1
13 6663 1
13 6784 1
13 7063 1
13 7205 1
13 7429 1
13 7542 1
13 7750 1
13 7780 1
13 8094 1
13 8107 1
13 8153 1
13 8870 1
13 8945 1
13 9048 1
13 9150 1
13 9224 1
13 9321 1
13 9365 1
13 9413 1
13 9452 1
13 9466 1
13 9486 1
13 9641 1
13 9723 1
13 9782 1
13 9868 1
13 9893 1
13 9946 1
13 9954 1
13 9965 1
13 9996 1
14 1 1
14 6 1
14 9 1
14 13 1
14 15 1
14 16 1
14 23 1
14 26 1
14 38 1
14 39 1
14 42 1
14 44 1
14 49 1
14 54 1
14 59 1
14 67 1
14 77 1
14 79 1
14 80 1
14 118 1
14 124 1
14 136 1
14 140 1
14 144 1
14 145 1
14 161 1
14 166 1
14 179 1
14 190 1
14 218 1
14 219 1
14 220 1
14 236 1
14 264 1
14 269 1
14 275 1
14 299 1
14 383 1
14 442 1
14 509 1
14 538 1
14 550 1
14 573 1
14 588 1
14 621 1
14 711 1
14 712 1
14 768 1
14 843 1
14 882 1
14 942 1
14 944 1
14 963 1
14 977 1
14 1017 1
14 1028 1
14 1066 1
14 1120 1
14 1154 1
14 1208 1
14 1223 1
14 1337 1
14 1351 1
14 1364 1
14 1374 1
14 1422 1
14 1527 1
14 1535 1
14 1539 1
14 1599 1
14 1601 1
14 1651 1
14 1676 1
14 1686 1
14 1710 1
14 1722 1
14 1724 1
14 1793 1
14 1914 1
14 1975 1
14 2029 1
14 2039 1
14 2143 1
14 2164 1
14 2347 1
14 2353 1
14 2401 1
14 2475 1
14 2485 1
14 2530 1
14 2578 1
14 2626 1
14 2688 1
14 2710 1
14 2721 1
14 2733 1
14 2734 1
14 2746 1
14 2757 1
14 2780 1
14 2895 1
14 2899 1
14 2989 1
14 2990 1
14 3111 1
14 3223 1
14 3256 1
14 3274 1
14 3290 1
14 3401 1
14 3581 1
14 3600 1
14 3640 1
14 3675 1
14 3686 1
14 3735 1
14 3740 1
14 3812 1
14 3870 1
14 3909 1
14 3911 1
14 3935 1
14 3946 1
14 4022 1
14 4158 1
14 4193 1
14 4311 1
14 4328 1
14 4405 1
14 4430 1
14 4539 1
14 4590 1
14 4649 1
14 4746 1
14 5115 1
14 5125 1
14 5128 1
14 5182 1
14 5230 1
14 5359 1
14 5513 1
14 5525 1
14 5528 1
14 5596 1
14 5707 1
14 5758 1
14 5898 1
14 5983 1
14 6067 1
14 6074 1
14 6326 1
14 6343 1
14 6425 1
14 6438 1
14 6482 1
14 6729 1
14 6801 1
14 6817 1
14 6957 1
14 6996 1
14 7006 1
14 7085 1
14 7104 1
14 7150 1
14 7190 1
14 7197 1
14 7262 1
14 7280 1
14 7460 1
14 7515 1
14 7538 1
14 7682 1
14 7776 1
14 7832 1
14 7841 1
14 7844 1
14 7845 1
14 8118 1
14 8352 1
14 8457 1
14 8469 1
14 8662 1
14 8693 1
14 8765 1
14 8768 1
14 8923 1
14 9047 1
14 9181 1
14 9235 1
14 9475 1
14 9666 1
14 9740 1
14 9767 1
14 9771 1
14 9867 1
14 9958 1
15 7 1
15 10 1
15 13 1
15 14 1
15 22 1
15 31 1
15 84 1
15 138 1
15 180 1
15 311 1
15 359 1
15 376 1
15 416 1
15 448 1
15 517 1
15 551 1
15 571 1
15 638 1
15 699 1
15 782 1
15 796 1
15 810 1
15 830 1
15 838 1
15 852 1
15 867 1
15 874 1
15 961 1
15 1159 1
15 1217 1
15 1301 1
15 1448 1
15 1458 1
15 1574 1
15 1704 1
15 1710 1
15 1753 1
15 1881 1
15 1960 1
15 1968 1
15 2091 1
15 2131 1
15 2816 1
15 2885 1
15 3407 1
15 3782 1
15 3991 1
15 4257 1
15 4392 1
15 4446 1
15 4576 1
15 4883 1
15 5227 1
15 6031 1
15 6880 1
15 7041 1
15 7491 1
15 7600 1
15 7732 1
15 7850 1
15 7887 1
15 8053 1
15 8335 1
15 8336 1
15 8607 1
15 8657 1
15 9434 1
15 9892 1
16 1 1
16 5 1
16 6 1
16 14 1
16 19 1
16 38 1
16 41 1
16 44 1
16 46 1
16 47 1
16 50 1
16 53 1
16 57 1
16 64 1
16 85 1
16 103 1
16 111 1
16 184 1
16 238 1
16 273 1
16 340 1
16 389 1
16 407 1
16 446 1
16 458 1
16 477 1
16 505 1
16 519 1
16 555 1
16 561 1
16 567 1
16 671 1
16 770 1
16 772 1
16 878 1
16 975 1
16 1013 1
16 1029 1
16 1043 1
16 1144 1
16 1152 1
16 1183 1
16 1201 1
16 1252 1
16 1264 1
16 1286 1
16 1427 1
16 1447 1
16 1585 1
16 1591 1
16 1711 1
16 1942 1
16 2070 1
16 2103 1
16 2179 1
16 2204 1
16 2248 1
16 2462 1
16 2529 1
16 2737 1
16 3039 1
16 3295 1
16 3333 1
16 3486 1
16 3531 1
16 3682 1
16 3706 1
16 3758 1
16 3870 1
16 3917 1
16 3922 1
16 3931 1
16 4062 1
16 4081 1
16 4141 1
16 4357 1
16 4417 1
16 4505 1
16 4554 1
16 4838 1
16 4841 1
16 4863 1
16 4949 1
16 5070 1
16 5193 1
16 5248 1
16 5440 1
16 5508 1
16 5599 1
16 5741 1
16 5790 1
16 5964 1
16 6072 1
16 6292 1
16 6366 1
16 6808 1
16 7352 1
16 7488 1
16 7602 1
16 7649 1
16 7651 1
16 7719 1
16 8082 1
16 8165 1
16 8304 1
16 8410 1
16 8625 1
16 8693 1
16 8984 1
16 9021 1
16 9095 1
16 9098 1
16 9423 1
16 9498 1
16 9791 1
16 9916 1
16 9967 1
17 3 1
17 5 1
17 6 1
17 8 1
17 28 1
17 33 1
17 34 1
17 41 1
17 45 1
17 67 1
17 78 1
17 80 1
17 92 1
17 101 1
17 106 1
17 107 1
17 117 1
17 135 1
17 137 1
17 158 1
17 160 1
17 163 1
17 171 1
17 176 1
17 178 1
17 179 1
17 185 1
17 210 1
17 232 1
17 264 1
17 277 1
17 282 1
17 286 1
17 304 1
17 325 1
17 328 1
17 412 1
17 441 1
17 447 1
17 483 1
17 484 1
17 509 1
17 549 1
17 590 1
17 619 1
17 694 1
17 697 1
17 713 1
17 743 1
17 760 1
17 771 1
17 823 1
17 834 1
17 965 1
17 1016 1
17 1111 1
17 1112 1
17 1134 1
17 1213 1
17 1231 1
17 1267 1
17 1273 1
17 1280 1
17 1309 1
17 1345 1
17 1520 1
17 1600 1
17 1662 1
17 1696 1
17 1715 1
17 1761 1
17 1772 1
17 1854 1
17 1911 1
17 2055 1
17 2084 1
17 2138 1
17 2167 1
17 2294 1
17 2306 1
17 2477 1
17 2563 1
17 2571 1
17 2630 1
17 2720 1
17 2851 1
17 3005 1
17 3022 1
17 3066 1
17 3222 1
17 3274 1
17 3351 1
17 3387 1
17 3789 1
17 3796 1
17 3925 1
17 4005 1
17 4048 1
17 4166 1
17 4224 1
17 4354 1
17 4549 1
17 4559 1
17 4592 1
17 4789 1
17 5042 1
17 5045 1
17 5173 1
17 5228 1
17 5249 1
17 5283 1
17 5518 1
17 5546 1
17 5611 1
17 5841 1
17 5878 1
17 6044 1
17 6063 1
17 6297 1
17 6425 1
17 6621 1
17 6709 1
17 6997 1
17 7045 1
17 7286 1
17 7389 1
17 7540 1
17 7614 1
17 7666 1
17 7808 1
17 7836 1
17 7946 1
17 7953 1
17 8030 1
17 8191 1
17 8342 1
17 8414 1
17 8440 1
17 8564 1
17 8625 1
17 8647 1
17 8705 1
17 8715 1
17 8814 1
17 8873 1
17 8898 1
17 8929 1
17 8993 1
17 9014 1
17 9034 1
17 9254 1
17 9364 1
17 9405 1
17 9509 1
17 9687 1
17 9754 1
17 9774 1
17 9775 1
17 9872 1
17 9943 1
18 5 1
18 6 1
18 10 1
18 11 1
18 27 1
18 155 1
18 183 1
18 3503 1
18 9934 1
19 1 1
19 8 1
19 13 1
19 16 1
19 20 1
19 23 1
19 32 1
19 45 1
19 53 1
19 57 1
19 85 1
19 99 1
19 131 1
19 134 1
19 135 1
19 137 1
19 160 1
19 195 1
19 204 1
19 242 1
19 247 1
19 274 1
19 280 1
19 305 1
19 314 1
19 329 1
19 339 1
19 340 1
19 342 1
19 373 1
19 436 1
19 444 1
19 459 1
19 474 1
19 500 1
19 501 1
19 525 1
19 538 1
19 558 1
19 584 1
19 611 1
19 635 1
19 679 1
19 713 1
19 725 1
19 748 1
19 751 1
19 759 1
19 816 1
19 903 1
19 926 1
19 980 1
19 1039 1
19 1283 1
19 1335 1
19 1430 1
19 1554 1
19 1602 1
19 1619 1
19 1669 1
19 1732 1
19 1859 1
19 2018 1
19 2058 1
19 2072 1
19 2118 1
19 2257 1
19 2370 1
19 2392 1
19 2421 1
19 2563 1
19 2624 1
19 2710 1
19 2722 1
19 2793 1
19 2942 1
19 2998 1
19 3003 1
19 3167 1
19 3293 1
19 3306 1
19 3381 1
19 3421 1
19 3542 1
19 3564 1
19 3795 1
19 3820 1
19 3963 1
19 3972 1
19 4083 1
19 4220 1
19 4308 1
19 4352 1
19 4373 1
19 4408 1
19 4419 1
19 4430 1
19 4435 1
19 4709 1
19 4823 1
19 4837 1
19 4864 1
19 4893 1
19 4922 1
19 4943 1
19 4950 1
19 5538 1
19 5563 1
19 5665 1
19 5742 1
19 6007 1
19 6283 1
19 6362 1
19 6430 1
19 6478 1
19 6565 1
19 6914 1
19 7003 1
19 7147 1
19 7221 1
19 7323 1
19 7397 1
19 7589 1
19 7702 1
19 7861 1
19 7885 1
19 8148 1
19 8230 1
19 8407 1
19 8495 1
19 8611 1
19 9044 1
19 9051 1
19 9071 1
19 9106 1
19 9111 1
19 9254 1
19 9283 1
19 9322 1
19 9431 1
19 9461 1
19 9614 1
19 9662 1
19 9946 1
19 9959 1
20 1 1
20 12 1
20 13 1
20 19 1
20 27 1
20 30 1
20 34 1
20 36 1
20 58 1
20 64 1
20 87 1
20 100 1
20 101 1
20 107 1
20 113 1
20 114 1
20 123 1
20 133 1
20 145 1
20 166 1
20 197 1
20 225 1
20 258 1
20 352 1
20 387 1
20 402 1
20 472 1
20 482 1
20 506 1
20 625 1
20 699 1
20 842 1
20 976 1
20 1116 1
20 1131 1
20 1203 1
20 1237 1
20 1246 1
20 1247 1
20 1296 1
20 1455 1
20 1489 1
20 1493 1
20 1546 1
20 1587 1
20 1614 1
20 1668 1
20 1674 1
20 1677 1
20 1713 1
20 1732 1
20 1791 1
20 1936 1
20 1976 1
20 2032 1
20 2316 1
20 2364 1
20 2519 1
20 2649 1
20 3127 1
20 3482 1
20 3549 1
20 3642 1
20 3649 1
20 3651 1
20 3688 1
20 3792 1
20 3949 1
20 3962 1
20 4032 1
20 4374 1
20 4526 1
20 4640 1
20 4901 1
20 5480 1
20 5487 1
20 5800 1
20 6144 1
20 6173 1
20 6410 1
20 6994 1
20 7021 1
20 7294 1
20 7505 1
20 7543 1
20 7618 1
20 7629 1
20 7769 1
20 8207 1
20 8387 1
20 8474 1
20 8560 1
20 8618 1
20 8850 1
20 9374 1
20 9490 1
20 9846 1
20 9950 1
21 6 1
21 7 1
21 8 1
21 11 1
21 24 1
21 28 1
21 32 1
21 35 1
21 57 1
21 58 1
21 105 1
21 106 1
21 113 1
21 146 1
21 152 1
21 166 1
21 168 1
21 212 1
21 291 1
21 340 1
21 345 1
21 359 1
21 386 1
21 413 1
21 451 1
21 458 1
21 589 1
21 595 1
21 794 1
21 838 1
21 868 1
21 940 1
21 1035 1
21 1083 1
21 1111 1
21 1257 1
21 1259 1
21 1379 1
21 1455 1
21 1601 1
21 1670 1
21 1902 1
21 2020 1
21 2050 1
21 2065 1
21 2205 1
21 2221 1
21 2249 1
21 2288 1
21 2345 1
21 2475 1
21 2712 1
21 2754 1
21 2823 1
21 2841 1
21 3040 1
21 3258 1
21 3456 1
21 3531 1
21 3616 1
21 3915 1
21 3953 1
21 4058 1
21 4173 1
21 4527 1
21 4550 1
21 4570 1
21 4734 1
21 4866 1
21 5026 1
21 5098 1
21 5223 1
21 5351 1
21 5400 1
21 5510 1
21 5927 1
21 6269 1
21 6835 1
21 7492 1
21 7675 1
21 7801 1
21 8508 1
21 8585 1
21 8611 1
21 9094 1
21 9524 1
21 9932 1
21 9961 1
22 6 1
22 8 1
22 13 1
22 15 1
22 29 1
22 35 1
22 39 1
22 50 1
22 62 1
22 81 1
22 92 1
22 112 1
22 113 1
22 159 1
22 201 1
22 208 1
22 288 1
22 347 1
22 422 1
22 434 1
22 449 1
22 538 1
22 606 1
22 631 1
22 662 1
22 676 1
22 839 1
22 990 1
22 1119 1
22 1147 1
22 1334 1
22 1376 1
22 1482 1
22 1491 1
22 1530 1
22 1690 1
22 1700 1
22 1771 1
22 1778 1
22 1932 1
22 2454 1
22 2459 1
22 3049 1
22 3134 1
22 3140 1
22 3402 1
22 3420 1
22 3791 1
22 4020 1
22 4093 1
22 4136 1
22 4217 1
22 4271 1
22 4447 1
22 4509 1
22 4780 1
22 4972 1
22 5471 1
22 6025 1
22 6076 1
22 6108 1
22 6231 1
22 6487 1
22 6499 1
22 6563 1
22 6787 1
22 6822 1
22 7046 1
22 7601 1
22 7611 1
22 7794 1
22 8181 1
22 8201 1
22 8228 1
22 8242 1
22 8347 1
22 8849 1
22 9356 1
22 9734 1
22 9802 1
22 9998 1
23 5 1
23 8 1
23 14 1
23 19 1
23 24 1
23 32 1
23 33 1
23 37 1
23 39 1
23 56 1
23 65 1
23 156 1
23 222 1
23 255 1
23 257 1
23 332 1
23 379 1
23 384 1
23 400 1
23 419 1
23 461 1
23 617 1
23 744 1
23 831 1
23 951 1
23 1151 1
23 1188 1
23 1221 1
23 1266 1
23 1407 1
23 1418 1
23 1450 1
23 1575 1
23 1884 1
23 1902 1
23 1985 1
23 2263 1
23 2293 1
23 2899 1
23 2998 1
23 3175 1
23 3234 1
23 3303 1
23 3447 1
23 3663 1
23 3750 1
23 3906 1
23 4030 1
23 4225 1
23 4522 1
23 4603 1
23 4700 1
23 4793 1
23 5301 1
23 5792 1
23 6328 1
23 6539 1
23 6653 1
23 7012 1
23 7028 1
23 7183 1
23 7961 1
23 8064 1
23 8632 1
23 8732 1
23 8834 1
23 8928 1
23 8938 1
23 9206 1
23 9319 1
23 9391 1
23 9614 1
23 9935 1
24 6 1
24 10 1
24 21 1
24 23 1
24 35 1
24 42 1
24 64 1
24 80 1
24 104 1
24 105 1
24 123 1
24 129 1
24 140 1
24 180 1
24 181 1
24 207 1
24 220 1
24 265 1
24 328 1
24 332 1
24 333 1
24 355 1
24 407 1
24 442 1
24 508 1
24 514 1
24 598 1
24 627 1
24 631 1
24 718 1
24 843 1
24 946 1
24 948 1
24 1009 1
24 1084 1
24 1142 1
24 1203 1
24 1314 1
24 1551 1
24 1556 1
24 1560 1
24 1608 1
24 1617 1
24 1845 1
24 1997 1
24 2074 1
24 2104 1
24 2120 1
24 2195 1
24 2256 1
24 2261 1
24 2423 1
24 2719 1
24 2770 1
24 3077 1
24 3161 1
24 3222 1
24 3474 1
24 3562 1
24 3677 1
24 3730 1
24 3809 1
24 3840 1
24 4203 1
24 4253 1
24 4272 1
24 4392 1
24 4671 1
24 4777 1
24 4852 1
24 4864 1
24 4991 1
24 5044 1
24 5166 1
24 5269 1
24 5906 1
24 6091 1
24 6301 1
24 6441 1
24 6546 1
24 6654 1
24 6798 1
24 7193 1
24 7729 1
24 8408 1
24 8417 1
24 8421 1
24 9458 1
24 9720 1
24 9815 1
24 9852 1
25 8 1
25 10 1
25 12 1
25 13 1
25 51 1
25 55 1
25 119 1
25 125 1
25 135 1
25 146 1
25 157 1
25 169 1
25 346 1
25 348 1
25 434 1
25 438 1
25 603 1
25 786 1
25 912 1
25 1002 1
25 1143 1
25 1264 1
25 1406 1
25 1442 1
25 1531 1
25 1535 1
25 1759 1
25 2042 1
25 2101 1
25 2562 1
25 2653 1
25 2709 1
25 2858 1
25 2861 1
25 2966 1
25 3037 1
25 3224 1
25 3583 1
25 3812 1
25 4268 1
25 4273 1
25 4359 1
25 5022 1
25 5220 1
25 5757 1
25 5842 1
25 5993 1
25 6209 1
25 6235 1
25 6412 1
25 6623 1
26 9 1
26 11 1
26 13 1
26 14 1
26 30 1
26 36 1
26 40 1
26 41 1
26 42 1
26 44 1
26 55 1
26 81 1
26 90 1
26 99 1
26 149 1
26 158 1
26 163 1
26 175 1
26 205 1
26 233 1
26 250 1
26 259 1
26 260 1
26 267 1
26 289 1
26 338 1
26 344 1
26 358 1
26 402 1
26 410 1
26 427 1
26 466 1
26 481 1
26 520 1
26 614 1
26 676 1
26 691 1
26 870 1
26 890 1
26 1024 1
26 1028 1
26 1103 1
26 1109 1
26 1215 1
26 1470 1
26 1513 1
26 1586 1
26 1601 1
26 1918 1
26 1986 1
26 1995 1
26 2131 1
26 2169 1
26 2180 1
26 2247 1
26 2325 1
26 2358 1
26 2359 1
26 2373 1
26 2453 1
26 2498 1
26 2513 1
26 2618 1
26 2639 1
26 2744 1
26 2808 1
26 2846 1
26 2849 1
26 2853 1
26 2875 1
26 2958 1
26 3035 1
26 3208 1
26 3275 1
26 3344 1
26 3396 1
26 3607 1
26 3800 1
26 3869 1
26 3916 1
26 3947 1
26 4161 1
26 4165 1
26 4315 1
26 4325 1
26 4531 1
26 4697 1
26 4762 1
26 4767 1
26 4822 1
26 4969 1
26 5075 1
26 5581 1
26 5774 1
26 5783 1
26 5799 1
26 5852 1
26 6208 1
26 6306 1
26 6414 1
26 6490 1
26 6586 1
26 6587 1
26 6619 1
26 6658 1
26 7914 1
26 8107 1
26 8157 1
26 8319 1
26 8429 1
26 8442 1
26 8622 1
26 8713 1
26 9008 1
26 9074 1
26 9203 1
26 9519 1
27 1 1
27 3 1
27 18 1
27 20 1
27 31 1
27 54 1
27 137 1
27 150 1
27 171 1
27 219 1
27 226 1
27 270 1
27 281 1
27 298 1
27 411 1
27 455 1
27 493 1
27 536 1
27 576 1
27 613 1
27 632 1
27 656 1
27 660 1
27 767 1
27 780 1
27 1191 1
27 1403 1
27 1438 1
27 1553 1
27 1562 1
27 1850 1
27 1911 1
27 1984 1
27 2128 1
27 2246 1
27 2451 1
27 2512 1
27 2534 1
27 2599 1
27 2663 1
27 2710 1
27 2711 1
27 2756 1
27 2801 1
27 2957 1
27 3114 1
27 3151 1
27 3290 1
27 3361 1
27 3585 1
27 4252 1
27 4365 1
27 4453 1
27 4517 1
27 4528 1
27 4831 1
27 5029 1
27 5188 1
27 5251 1
27 5347 1
27 5470 1
27 5725 1
27 5943 1
27 6332 1
27 6470 1
27 6567 1
27 6729 1
27 6779 1
27 7346 1
27 7655 1
27 7766 1
27 8102 1
27 8337 1
27 8377 1
27 8976 1
27 9524 1
28 6 1
28 7 1
28 17 1
28 21 1
28 38 1
28 44 1
28 66 1
28 110 1
28 153 1
28 157 1
28 159 1
28 178 1
28 222 1
28 233 1
28 256 1
28 262 1
28 317 1
28 334 1
28 376 1
28 394 1
28 400 1
28 471 1
28 596 1
28 740 1
28 804 1
28 839 1
28 1013 1
28 1034 1
28 1230 1
28 1326 1
28 1450 1
28 1685 1
28 1703 1
28 1892 1
28 1915 1
28 1952 1
28 2077 1
28 2169 1
28 2242 1
28 2294 1
28 2445 1
28 2505 1
28 2509 1
28 2568 1
28 2660 1
28 2891 1
28 2896 1
28 2924 1
28 2936 1
28 2968 1
28 3001 1
28 3006 1
28 3028 1
28 3081 1
28 3136 1
28 3373 1
28 3452 1
28 3488 1
28 3763 1
28 3917 1
28 3927 1
28 4070 1
28 4099 1
28 4160 1
28 4491 1
28 4619 1
28 4866 1
28 4915 1
28 5310 1
28 5354 1
28 5397 1
28 5405 1
28 5579 1
28 5942 1
28 6222 1
28 6289 1
28 6725 1
28 6887 1
28 6919 1
28 6963 1
28 7008 1
28 7143 1
28 7374 1
28 7410 1
28 7558 1
28 7871 1
28 7876 1
28 8122 1
28 8177 1
28 8188 1
28 8226 1
28 8412 1
28 8417 1
28 8690 1
28 9349 1
28 9631 1
28 9675 1
28 9807 1
29 8 1
29 12 1
29 13 1
29 22 1
29 33 1
29 47 1
29 48 1
29 60 1
29 107 1
29 251 1
29 269 1
29 292 1
29 404 1
29 420 1
29 421 1
29 433 1
29 450 1
29 455 1
29 484 1
29 489 1
29 576 1
29 620 1
29 695 1
29 732 1
29 1048 1
29 1054 1
29 1185 1
29 1304 1
29 1394 1
29 1500 1
29 1504 1
29 1597 1
29 1783 1
29 1851 1
29 2008 1
29 2136 1
29 2197 1
29 2216 1
29 2219 1
29 2377 1
29 2601 1
29 2635 1
29 2918 1
29 3004 1
29 3265 1
29 3744 1
29 3801 1
29 3859 1
29 3866 1
29 4181 1
29 4284 1
29 4473 1
29 4578 1
29 4926 1
29 5101 1
29 5769 1
29 5770 1
29 6774 1
29 6813 1
29 6829 1
29 7035 1
29 7256 1
29 7272 1
29 7518 1
29 7981 1
29 8108 1
29 8253 1
29 8475 1
29 8589 1
29 8603 1
29 8969 1
29 9328 1
29 9369 1
29 9488 1
30 1 1
30 11 1
30 20 1
30 26 1
30 62 1
30 74 1
30 93 1
30 95 1
30 100 1
30 115 1
30 127 1
30 136 1
30 177 1
30 180 1
30 183 1
30 209 1
30 248 1
30 319 1
30 353 1
30 404 1
30 503 1
30 530 1
30 585 1
30 599 1
30 668 1
30 809 1
30 881 1
30 976 1
30 1002 1
30 1003 1
30 1007 1
30 1039 1
30 1130 1
30 1197 1
30 1240 1
30 1349 1
30 1400 1
30 1499 1
30 1774 1
30 1846 1
30 2370 1
30 2462 1
30 2480 1
30 2495 1
30 2608 1
30 2623 1
30 2830 1
30 3365 1
30 3416 1
30 3576 1
30 3691 1
30 3760 1
30 3788 1
30 3794 1
30 4144 1
30 4443 1
30 4490 1
30 4606 1
30 4620 1
30 4635 1
30 4667 1
30 4794 1
30 4798 1
30 5078 1
30 5098 1
30 5333 1
30 5476 1
30 5773 1
30 6099 1
30 6421 1
30 6564 1
30 6611 1
30 6614 1
30 6674 1
30 6859 1
30 7081 1
30 7091 1
30 7094 1
30 7249 1
30 7597 1
30 7687 1
30 7832 1
30 8451 1
30 8611 1
30 9093 1
30 9124 1
30 9413 1
30 9513 1
30 9745 1
31 1 1
31 5 1
31 15 1
31 27 1
31 33 1
31 48 1
31 118 1
31 127 1
31 155 1
31 169 1
31 177 1
31 229 1
31 232 1
31 255 1
31 263 1
31 289 1
31 309 1
31 331 1
31 361 1
31 389 1
31 392 1
31 393 1
31 418 1
31 484 1
31 504 1
31 512 1
31 513 1
31 587 1
31 676 1
31 746 1
31 845 1
31 851 1
31 978 1
31 1035 1
31 1068 1
31 1146 1
31 1193 1
31 1202 1
31 1265 1
31 1510 1
31 1608 1
31 1633 1
31 1636 1
31 1655 1
31 1755 1
31 1791 1
31 1854 1
31 1858 1
31 1949 1
31 1988 1
31 2466 1
31 2476 1
31 2545 1
31 3504 1
31 3508 1
31 3681 1
31 3856 1
31 3995 1
31 4176 1
31 4256 1
31 4323 1
31 4555 1
31 4612 1
31 4627 1
31 4967 1
31 5046 1
31 5064 1
31 5285 1
31 5322 1
31 5402 1
31 5438 1
31 5638 1
31 5737 1
31 5788 1
31 5961 1
31 6076 1
31 6415 1
31 6520 1
31 6852 1
31 6897 1
31 6941 1
31 6971 1
31 7151 1
31 7199 1
31 7333 1
31 7414 1
31 7461 1
31 7623 1
31 7914 1
31 7934 1
31 7935 1
31 8180 1
31 8260 1
31 8430 1
31 8488 1
31 8569 1
31 8681 1
31 8854 1
31 9027 1
31 9418 1
31 9444 1
31 9600 1
31 9612 1
31 9695 1
31 9700 1
31 9752 1
31 9875 1
32 4 1
32 19 1
32 21 1
32 23 1
32 60 1
32 71 1
32 75 1
32 89 1
32 164 1
32 165 1
32 174 1
32 230 1
32 294 1
32 351 1
32 414 1
32 757 1
32 986 1
32 1027 1
32 1116 1
32 1199 1
32 1311 1
32 1797 1
32 1863 1
32 2067 1
32 2212 1
32 2329 1
32 2501 1
32 2703 1
32 2709 1
32 2811 1
32 3200 1
32 4177 1
32 4440 1
32 4524 1
32 4608 1
32 4927 1
32 5038 1
32 5194 1
32 5363 1
32 5851 1
32 6231 1
32 6282 1
32 6738 1
32 6811 1
32 6961 1
32 7909 1
32 7924 1
32 8313 1
32 8875 1
32 9409 1
32 9532 1
32 9673 1
33 17 1
33 23 1
33 29 1
33 31 1
33 43 1
33 66 1
33 73 1
33 83 1
33 307 1
33 487 1
33 591 1
33 597 1
33 821 1
33 826 1
33 880 1
33 935 1
33 995 1
33 1133 1
33 1141 1
33 1219 1
33 1403 1
33 1543 1
33 1609 1
33 1823 1
33 1889 1
33 1930 1
33 1992 1
33 2189 1
33 2412 1
33 2448 1
33 2526 1
33 2777 1
33 3138 1
33 3672 1
33 3807 1
33 3886 1
33 4327 1
33 4414 1
33 4442 1
33 4663 1
33 4823 1
33 4913 1
33 4927 1
33 5402 1
33 5437 1
33 5497 1
33 5674 1
33 5970 1
33 6094 1
33 6135 1
33 6229 1
33 6814 1
33 7194 1
33 7265 1
33 7431 1
33 7652 1
33 7662 1
33 9163 1
33 9214 1
33 9559 1
33 9730 1
33 9746 1
34 1 1
34 11 1
34 17 1
34 20 1
34 56 1
34 61 1
34 76 1
34 91 1
34 101 1
34 115 1
34 177 1
34 185 1
34 217 1
34 239 1
34 288 1
34 411 1
34 481 1
34 518 1
34 551 1
34 634 1
34 665 1
34 697 1
34 725 1
34 768 1
34 783 1
34 828 1
34 880 1
34 913 1
34 928 1
34 980 1
34 1006 1
34 1039 1
34 1290 1
34 1401 1
34 1423 1
34 1523 1
34 1561 1
34 1711 1
34 1812 1
34 1862 1
34 1955 1
34 2028 1
34 2137 1
34 2321 1
34 2362 1
34 2427 1
34 2659 1
34 3065 1
34 3141 1
34 3395 1
34 3456 1
34 3530 1
34 3871 1
34 4032 1
34 4132 1
34 4423 1
34 4476 1
34 4518 1
34 4591 1
34 4736 1
34 5038 1
34 5350 1
34 5411 1
34 5562 1
34 5572 1
34 5636 1
34 5864 1
34 6018 1
34 6472 1
34 6572 1
34 6793 1
34 6867 1
34 6947 1
34 6949 1
34 7042 1
34 7169 1
34 7295 1
34 7310 1
34 7566 1
34 7738 1
34 7761 1
34 7842 1
34 7906 1
34 7969 1
34 8085 1
34 8372 1
34 8379 1
34 8552 1
34 8873 1
34 9324 1
34 9397 1
34 9695 1
35 6 1
35 21 1
35 22 1
35 24 1
35 70 1
35 83 1
35 245 1
35 673 1
35 1536 1
35 1815 1
35 4865 1
35 4888 1
35 6022 1
35 7311 1
35 7878 1
35 9821 1
36 6 1
36 7 1
36 20 1
36 26 1
36 121 1
36 128 1
36 147 1
36 173 1
36 208 1
36 344 1
36 361 1
36 380 1
36 399 1
36 462 1
36 564 1
36 748 1
36 944 1
36 1047 1
36 1197 1
36 1198 1
36 1324 1
36 1506 1
36 1954 1
36 3326 1
36 3356 1
36 3536 1
36 3618 1
36 3635 1
36 3787 1
36 4403 1
36 4503 1
36 4539 1
36 4788 1
36 5256 1
36 5512 1
36 5808 1
36 5827 1
36 5867 1
36 6038 1
36 6053 1
36 6252 1
36 6576 1
36 6892 1
36 6938 1
36 7009 1
36 7522 1
36 7620 1
36 7682 1
36 7817 1
36 8414 1
36 9400 1
36 9460 1
36 9566 1
36 9632 1
36 9673 1
36 9807 1
36 9856 1
36 9990 1
37 5 1
37 6 1
37 13 1
37 23 1
37 40 1
37 59 1
37 92 1
37 97 1
37 123 1
37 136 1
37 141 1
37 146 1
37 148 1
37 156 1
37 173 1
37 224 1
37 260 1
37 303 1
37 316 1
37 376 1
37 430 1
37 447 1
37 505 1
37 512 1
37 531 1
37 634 1
37 825 1
37 1026 1
37 1279 1
37 1284 1
37 1303 1
37 1368 1
37 1579 1
37 1610 1
37 1627 1
37 2225 1
37 2373 1
37 2416 1
37 2446 1
37 2464 1
37 2552 1
37 2693 1
37 2697 1
37 2827 1
37 2852 1
37 2862 1
37 3083 1
37 3159 1
37 3252 1
37 3270 1
37 3297 1
37 3389 1
37 3406 1
37 3432 1
37 3697 1
37 3734 1
37 3862 1
37 3993 1
37 4297 1
37 4326 1
37 4475 1
37 4691 1
37 5116 1
37 5356 1
37 5905 1
37 6227 1
37 6254 1
37 6289 1
37 6314 1
37 6491 1
37 6583 1
37 6884 1
37 7107 1
37 7293 1
37 7681 1
37 7762 1
37 8128 1
37 8200 1
37 8503 1
37 8802 1
37 9158 1
37 9344 1
37 9372 1
37 9373 1
37 9825 1
37 9941 1
37 9980 1
38 5 1
38 14 1
38 16 1
38 28 1
38 43 1
38 125 1
38 312 1
38 316 1
38 363 1
38 380 1
38 430 1
38 544 1
38 554 1
38 577 1
38 811 1
38 897 1
38 914 1
38 964 1
38 1096 1
38 1099 1
38 1289 1
38 1881 1
38 2223 1
38 2689 1
38 2882 1
38 2965 1
38 3040 1
38 3085 1
38 3662 1
38 3711 1
38 3736 1
38 3919 1
38 4024 1
38 4256 1
38 4381 1
38 4494 1
38 4545 1
38 4903 1
38 4949 1
38 5243 1
38 5536 1
38 5575 1
38 5589 1
38 5595 1
38 5809 1
38 5821 1
38 5838 1
38 5910 1
38 6038 1
38 6177 1
38 6279 1
38 6290 1
38 6452 1
38 7057 1
38 7178 1
38 8040 1
38 8304 1
38 9394 1
38 9477 1
39 12 1
39 14 1
39 22 1
39 23 1
39 71 1
39 100 1
39 149 1
39 160 1
39 170 1
39 175 1
39 207 1
39 210 1
39 341 1
39 354 1
39 391 1
39 413 1
39 450 1
39 463 1
39 472 1
39 530 1
39 558 1
39 628 1
39 659 1
39 719 1
39 814 1
39 824 1
39 883 1
39 899 1
39 937 1
39 1076 1
39 1329 1
39 1508 1
39 1625 1
39 1654 1
39 1682 1
39 1692 1
39 1779 1
39 2100 1
39 2130 1
39 2194 1
39 2323 1
39 2514 1
39 2617 1
39 3107 1
39 3158 1
39 3349 1
39 3462 1
39 3521 1
39 3577 1
39 3914 1
39 4321 1
39 4443 1
39 4451 1
39 4520 1
39 4624 1
39 4667 1
39 4746 1
39 4761 1
39 5056 1
39 5279 1
39 5641 1
39 5650 1
39 5713 1
39 5834 1
39 5841 1
39 6101 1
39 6346 1
39 6482 1
39 6689 1
39 6704 1
39 6763 1
39 6783 1
39 7269 1
39 8031 1
39 8174 1
39 9038 1
39 9336 1
39 9750 1
39 9811 1
40 4 1
40 12 1
40 26 1
40 37 1
40 47 1
40 76 1
40 222 1
40 370 1
40 375 1
40 652 1
40 681 1
40 858 1
40 1043 1
40 1059 1
40 1207 1
40 1382 1
40 1969 1
40 2310 1
40 3415 1
40 3440 1
40 4073 1
40 4673 1
40 5740 1
40 6490 1
40 6641 1
40 7098 1
40 7123 1
40 8539 1
40 8667 1
40 8750 1
40 9318 1
40 9602 1
40 9711 1
40 9954 1
41 6 1
41 16 1
41 17 1
41 26 1
41 70 1
41 105 1
41 333 1
41 498 1
41 615 1
41 700 1
41 859 1
41 867 1
41 965 1
41 967 1
41 1064 1
41 1245 1
41 1321 1
41 1453 1
41 1538 1
41 1663 1
41 1699 1
41 2060 1
41 2284 1
41 2895 1
41 3259 1
41 3302 1
41 4058 1
41 4251 1
41 4298 1
41 4546 1
41 4587 1
41 4676 1
41 4934 1
41 4960 1
41 5043 1
41 5640 1
41 5954 1
41 6181 1
41 6805 1
41 7187 1
41 7392 1
41 7830 1
41 7937 1
41 9246 1
41 9249 1
41 9402 1
41 9452 1
41 9883 1
42 6 1
42 14 1
42 24 1
42 26 1
42 72 1
42 90 1
42 98 1
42 114 1
42 115 1
42 193 1
42 226 1
42 244 1
42 346 1
42 404 1
42 493 1
42 647 1
42 698 1
42 804 1
42 826 1
42 867 1
42 883 1
42 1016 1
42 1035 1
42 1216 1
42 1228 1
42 1306 1
42 1363 1
42 1369 1
42 1870 1
42 2025 1
42 2319 1
42 2433 1
42 2484 1
42 2540 1
42 2542 1
42 2817 1
42 3093 1
42 3630 1
42 4112 1
42 4224 1
42 4418 1
42 4869 1
42 5066 1
42 5068 1
42 5090 1
42 5171 1
42 5586 1
42 5953 1
42 6142 1
42 6150 1
42 6216 1
42 6220 1
42 7274 1
42 7448 1
42 7649 1
42 8630 1
42 8785 1
42 9849 1
42 9931 1
43 6 1
43 7 1
43 33 1
43 38 1
43 93 1
43 106 1
43 121 1
43 129 1
43 270 1
43 334 1
43 748 1
43 864 1
43 1269 1
43 1454 1
43 1577 1
43 1623 1
43 1652 1
43 1833 1
43 1999 1
43 2034 1
43 2107 1
43 2154 1
43 2366 1
43 2510 1
43 2575 1
43 2593 1
43 2610 1
43 2615 1
43 2644 1
43 2775 1
43 3038 1
43 3694 1
43 3740 1
43 3811 1
43 4614 1
43 4627 1
43 5175 1
43 5329 1
43 5645 1
43 5781 1
43 5789 1
43 5990 1
43 6103 1
43 6179 1
43 6344 1
43 6786 1
43 7122 1
43 7124 1
43 7145 1
43 7352 1
43 8119 1
43 8579 1
43 8715 1
43 8742 1
43 8828 1
43 9650 1
43 9674 1
43 9790 1
44 14 1
44 16 1
44 26 1
44 28 1
44 68 1
44 97 1
44 440 1
44 908 1
44 1220 1
44 1834 1
44 2233 1
44 3569 1
44 3870 1
44 4350 1
44 4865 1
44 7337 1
44 7744 1
44 7852 1
44 9047 1
45 1 1
45 6 1
45 17 1
45 19 1
45 115 1
45 202 1
45 232 1
45 239 1
45 287 1
45 311 1
45 332 1
45 375 1
45 500 1
45 543 1
45 593 1
45 652 1
45 670 1
45 861 1
45 965 1
45 999 1
45 1058 1
45 1175 1
45 1200 1
45 1878 1
45 1948 1
45 1965 1
45 1974 1
45 2059 1
45 2352 1
45 2396 1
45 2644 1
45 2661 1
45 2803 1
45 2810 1
45 2838 1
45 2847 1
45 2984 1
45 3538 1
45 3974 1
45 4167 1
45 4207 1
45 4457 1
45 4652 1
45 4738 1
45 5212 1
45 5427 1
45 5445 1
45 5501 1
45 5558 1
45 5594 1
45 5613 1
45 5940 1
45 5963 1
45 6116 1
45 6185 1
45 6511 1
45 6557 1
45 6662 1
45 7008 1
45 7303 1
45 7480 1
45 7509 1
45 7796 1
45 8087 1
45 8296 1
45 8411 1
45 9084 1
45 9457 1
45 9465 1
45 9466 1
45 9511 1
45 9583 1
45 9821 1
46 6 1
46 12 1
46 13 1
46 16 1
46 75 1
46 95 1
46 124 1
46 128 1
46 187 1
46 222 1
46 227 1
46 417 1
46 554 1
46 596 1
46 750 1
46 773 1
46 930 1
46 1059 1
46 1435 1
46 1737 1
46 1880 1
46 2000 1
46 2164 1
46 2458 1
46 2531 1
46 2722 1
46 2739 1
46 2755 1
46 3126 1
46 3254 1
46 3757 1
46 4934 1
46 5054 1
46 5911 1
46 6006 1
46 6337 1
46 6391 1
46 6921 1
46 7230 1
46 8014 1
46 8066 1
46 8120 1
46 9416 1
46 9851 1
46 9940 1
47 6 1
47 16 1
47 29 1
47 40 1
47 85 1
47 125 1
47 189 1
47 228 1
47 300 1
47 309 1
47 316 1
47 393 1
47 580 1
47 589 1
47 1102 1
47 1194 1
47 1338 1
47 1760 1
47 2176 1
47 2611 1
47 2805 1
47 2854 1
47 2941 1
47 2980 1
47 3095 1
47 3098 1
47 3103 1
47 3171 1
47 3684 1
47 3693 1
47 3808 1
47 3844 1
47 3991 1
47 4054 1
47 4082 1
47 4240 1
47 4491 1
47 6069 1
47 6191 1
47 6439 1
47 6642 1
47 7120 1
47 7128 1
47 7438 1
47 7526 1
47 7586 1
47 7653 1
47 7727 1
47 8159 1
47 8175 1
47 8421 1
47 8870 1
47 9321 1
47 9343 1
47 9637 1
47 9835 1
48 6 1
48 12 1
48 29 1
48 31 1
48 49 1
48 83 1
48 122 1
48 187 1
48 226 1
48 286 1
48 308 1
48 321 1
48 351 1
48 354 1
48 355 1
48 443 1
48 528 1
48 529 1
48 560 1
48 563 1
48 649 1
48 693 1
48 709 1
48 765 1
48 869 1
48 898 1
48 920 1
48 976 1
48 1012 1
48 1181 1
48 1265 1
48 1519 1
48 1697 1
48 1734 1
48 1884 1
48 1956 1
48 2007 1
48 2070 1
48 2128 1
48 2298 1
48 2761 1
48 3805 1
48 3848 1
48 3875 1
48 4121 1
48 4348 1
48 4409 1
48 4528 1
48 4693 1
48 4918 1
48 5497 1
48 5717 1
48 6044 1
48 6064 1
48 6442 1
48 6649 1
48 7016 1
48 7026 1
48 7031 1
48 7186 1
48 7208 1
48 7481 1
48 7507 1
48 7926 1
48 8087 1
48 8440 1
48 8602 1
48 8817 1
48 8986 1
48 9023 1
48 9482 1
49 9 1
49 10 1
49 14 1
49 48 1
49 51 1
49 62 1
49 69 1
49 75 1
49 96 1
49 111 1
49 119 1
49 200 1
49 216 1
49 243 1
49 296 1
49 325 1
49 363 1
49 420 1
49 480 1
49 482 1
49 556 1
49 672 1
49 753 1
49 846 1
49 848 1
49 850 1
49 913 1
49 1050 1
49 1114 1
49 1158 1
49 1164 1
49 1177 1
49 1375 1
49 1376 1
49 1402 1
49 1481 1
49 1521 1
49 1707 1
49 1762 1
49 1773 1
49 1807 1
49 1864 1
49 1900 1
49 2006 1
49 2010 1
49 2139 1
49 2390 1
49 2413 1
49 2496 1
49 2595 1
49 2600 1
49 2712 1
49 2880 1
49 2903 1
49 3029 1
49 3203 1
49 3349 1
49 3403 1
49 3557 1
49 3686 1
49 3894 1
49 3977 1
49 4016 1
49 4498 1
49 4780 1
49 4867 1
49 5430 1
49 5493 1
49 5571 1
49 5902 1
49 5933 1
49 6036 1
49 6141 1
49 6167 1
49 6547 1
49 7063 1
49 7192 1
49 7486 1
49 7545 1
49 7621 1
49 7727 1
49 7827 1
49 8148 1
49 8456 1
49 8702 1
49 8844 1
49 9497 1
50 8 1
50 12 1
50 16 1
50 22 1
50 1013 1
50 1053 1
50 1472 1
50 2084 1
50 2187 1
50 3599 1
50 4736 1
50 4947 1
50 6217 1
50 6792 1
50 9528 1
51 6 1
51 11 1
51 25 1
51 49 1
51 56 1
51 59 1
51 81 1
51 82 1
51 91 1
51 186 1
51 249 1
51 511 1
51 542 1
51 632 1
51 656 1
51 759 1
51 791 1
51 839 1
51 1144 1
51 1153 1
51 1372 1
51 1392 1
51 2255 1
51 2398 1
51 2587 1
51 2602 1
51 3064 1
51 3104 1
51 3202 1
51 3673 1
51 3758 1
51 3882 1
51 4468 1
51 4799 1
51 5085 1
51 5098 1
51 5263 1
51 5325 1
51 5639 1
51 6211 1
51 6875 1
51 7775 1
51 7804 1
51 7983 1
51 8057 1
51 8138 1
51 8265 1
51 8544 1
51 8679 1
51 8808 1
51 9168 1
51 9324 1
51 9382 1
52 1 1
52 2 1
52 8 1
52 12 1
52 73 1
52 209 1
52 382 1
52 428 1
52 543 1
52 742 1
52 841 1
52 863 1
52 1216 1
52 1650 1
52 1868 1
52 2037 1
52 2396 1
52 2453 1
52 2598 1
52 2777 1
52 3572 1
52 3995 1
52 4102 1
52 4352 1
52 4448 1
52 4579 1
52 5083 1
52 5712 1
52 6352 1
52 6698 1
52 6810 1
52 6864 1
52 6977 1
52 7215 1
52 7297 1
52 7359 1
52 7437 1
52 7477 1
52 7781 1
52 8134 1
52 9121 1
52 9176 1
52 9920 1
52 9940 1
53 4 1
53 11 1
53 16 1
53 19 1
53 61 1
53 124 1
53 168 1
53 697 1
53 1191 1
53 1263 1
53 1828 1
53 1854 1
53 3162 1
53 3169 1
53 4534 1
53 5442 1
53 6410 1
53 6816 1
53 7286 1
53 7481 1
53 7580 1
53 8073 1
53 8186 1
54 5 1
54 6 1
54 14 1
54 27 1
54 66 1
54 145 1
54 295 1
54 581 1
54 589 1
54 813 1
54 855 1
54 958 1
54 981 1
54 1056 1
54 1061 1
54 1180 1
54 1398 1
54 1847 1
54 1923 1
54 1964 1
54 2113 1
54 2652 1
54 2808 1
54 3422 1
54 3491 1
54 3501 1
54 3562 1
54 4072 1
54 4280 1
54 4318 1
54 5233 1
54 5345 1
54 5514 1
54 5549 1
54 5771 1
54 5846 1
54 5979 1
54 7054 1
54 7313 1
54 7342 1
54 8192 1
54 9287 1
55 9 1
55 10 1
55 25 1
55 26 1
55 96 1
55 108 1
55 128 1
55 138 1
55 171 1
55 192 1
55 207 1
55 323 1
55 359 1
55 473 1
55 526 1
55 578 1
55 584 1
55 609 1
55 625 1
55 751 1
55 818 1
55 906 1
55 946 1
55 980 1
55 1104 1
55 1147 1
55 1212 1
55 1262 1
55 1408 1
55 1545 1
55 1640 1
55 1819 1
55 1841 1
55 1909 1
55 1917 1
55 2095 1
55 2655 1
55 2916 1
55 2944 1
55 3196 1
55 3273 1
55 3491 1
55 3798 1
55 3879 1
55 4289 1
55 4802 1
55 4851 1
55 5503 1
55 5957 1
55 6574 1
55 6908 1
55 7534 1
55 7736 1
55 7783 1
55 8303 1
55 8690 1
55 8881 1
55 9178 1
55 9361 1
55 9489 1
55 9647 1
56 6 1
56 23 1
56 34 1
56 51 1
56 99 1
56 109 1
56 151 1
56 195 1
56 196 1
56 228 1
56 284 1
56 320 1
56 335 1
56 392 1
56 403 1
56 462 1
56 560 1
56 582 1
56 607 1
56 655 1
56 677 1
56 735 1
56 755 1
56 764 1
56 794 1
56 901 1
56 988 1
56 1057 1
56 1075 1
56 1112 1
56 1126 1
56 1266 1
56 1499 1
56 1550 1
56 1607 1
56 1663 1
56 1726 1
56 1944 1
56 1973 1
56 1993 1
56 2011 1
56 2182 1
56 2402 1
56 2629 1
56 2764 1
56 3058 1
56 3104 1
56 3109 1
56 3236 1
56 3272 1
56 3458 1
56 3544 1
56 3576 1
56 3703 1
56 3781 1
56 3913 1
56 4033 1
56 4266 1
56 4518 1
56 4647 1
56 4791 1
56 4818 1
56 4888 1
56 4996 1
56 5257 1
56 5304 1
56 5376 1
56 5441 1
56 5473 1
56 6075 1
56 7417 1
56 7575 1
56 7637 1
56 7966 1
56 8106 1
56 8652 1
56 8728 1
56 9784 1
57 11 1
57 16 1
57 19 1
57 21 1
57 62 1
57 72 1
57 74 1
57 76 1
57 79 1
57 87 1
57 109 1
57 139 1
57 178 1
57 216 1
57 246 1
57 385 1
57 391 1
57 409 1
57 424 1
57 732 1
57 836 1
57 858 1
57 887 1
57 909 1
57 988 1
57 997 1
57 1220 1
57 1243 1
57 1257 1
57 1393 1
57 1413 1
57 1444 1
57 1566 1
57 1637 1
57 1714 1
57 1720 1
57 1910 1
57 2022 1
57 2119 1
57 2580 1
57 2629 1
57 2768 1
57 2891 1
57 3010 1
57 3268 1
57 4262 1
57 4270 1
57 4614 1
57 4691 1
57 4983 1
57 5289 1
57 5357 1
57 5652 1
57 5780 1
57 5834 1
57 5903 1
57 6270 1
57 6683 1
57 6735 1
57 6910 1
57 6929 1
57 7354 1
57 7558 1
57 7920 1
57 8281 1
57 8371 1
57 8472 1
57 8597 1
57 8658 1
57 8811 1
57 8872 1
57 9014 1
57 9092 1
57 9208 1
57 9295 1
57 9592 1
58 1 1
58 12 1
58 20 1
58 21 1
58 65 1
58 84 1
58 90 1
58 106 1
58 132 1
58 154 1
58 188 1
58 223 1
58 282 1
58 337 1
58 369 1
58 488 1
58 501 1
58 561 1
58 782 1
58 1091 1
58 1372 1
58 1392 1
58 1400 1
58 1573 1
58 1903 1
58 2027 1
58 2317 1
58 2389 1
58 2603 1
58 2636 1
58 2666 1
58 2837 1
58 3000 1
58 3292 1
58 3376 1
58 3415 1
58 3534 1
58 3634 1
58 3771 1
58 3929 1
58 3967 1
58 3977 1
58 4016 1
58 4153 1
58 4314 1
58 4502 1
58 4681 1
58 4812 1
58 5081 1
58 5110 1
58 5143 1
58 5526 1
58 5679 1
58 5746 1
58 5752 1
58 6595 1
58 6740 1
58 6863 1
58 6968 1
58 7031 1
58 7185 1
58 7583 1
58 7706 1
58 7888 1
58 7949 1
58 8148 1
58 8558 1
58 8581 1
58 8685 1
58 8709 1
58 9123 1
58 9227 1
58 9874 1
59 6 1
59 14 1
59 37 1
59 51 1
59 99 1
59 146 1
59 210 1
59 220 1
59 339 1
59 616 1
59 1462 1
59 2136 1
59 2428 1
59 3127 1
59 3816 1
59 4259 1
59 4496 1
59 4747 1
59 5568 1
59 6490 1
59 6616 1
59 8558 1
59 8651 1
59 8731 1
59 8758 1
59 9208 1
60 2 1
60 3 1
60 29 1
60 32 1
60 68 1
60 104 1
60 122 1
60 159 1
60 175 1
60 190 1
60 204 1
60 236 1
60 252 1
60 295 1
60 375 1
60 497 1
60 532 1
60 534 1
60 902 1
60 918 1
60 986 1
60 989 1
60 1041 1
60 1073 1
60 1464 1
60 1678 1
60 1748 1
60 1828 1
60 2179 1
60 2274 1
60 2323 1
60 3305 1
60 3345 1
60 3708 1
60 3765 1
60 3826 1
60 4096 1
60 4208 1
60 4431 1
60 4459 1
60 4589 1
60 4880 1
60 5029 1
60 5181 1
60 6107 1
60 6134 1
60 6447 1
60 6593 1
60 7063 1
60 7642 1
60 7729 1
60 8355 1
60 8428 1
60 8634 1
60 9334 1
60 9783 1
61 1 1
61 4 1
61 34 1
61 53 1
61 189 1
61 203 1
61 209 1
61 294 1
61 665 1
61 700 1
61 880 1
61 1095 1
61 1210 1
61 1299 1
61 1470 1
61 2174 1
61 2726 1
61 3432 1
61 4743 1
61 5481 1
61 5858 1
61 5891 1
61 6145 1
61 7051 1
61 7052 1
61 7476 1
61 7780 1
61 7971 1
61 9383 1
61 9651 1
61 9847 1
62 22 1
62 30 1
62 49 1
62 57 1
62 247 1
62 279 1
62 477 1
62 559 1
62 988 1
62 1509 1
62 1565 1
62 1644 1
62 1946 1
62 2122 1
62 2209 1
62 2391 1
62 2764 1
62 3393 1
62 5193 1
62 5458 1
62 5545 1
62 6282 1
62 6394 1
62 6397 1
62 8295 1
62 8408 1
62 8480 1
62 9063 1
62 9248 1
62 9792 1
63 1 1
63 3 1
63 5 1
63 7 1
63 86 1
63 91 1
63 120 1
63 214 1
63 224 1
63 226 1
63 231 1
63 242 1
63 296 1
63 361 1
63 401 1
63 428 1
63 466 1
63 611 1
63 682 1
63 709 1
63 819 1
63 833 1
63 861 1
63 931 1
63 972 1
63 987 1
63 1014 1
63 1015 1
63 1081 1
63 1204 1
63 1214 1
63 1481 1
63 1512 1
63 1555 1
63 1641 1
63 1802 1
63 1832 1
63 1922 1
63 1929 1
63 2190 1
63 2428 1
63 2437 1
63 2547 1
63 3101 1
63 3105 1
63 3332 1
63 3462 1
63 3620 1
63 4047 1
63 4200 1
63 4296 1
63 4482 1
63 4569 1
63 4814 1
63 4974 1
63 5101 1
63 5156 1
63 5293 1
63 5334 1
63 5356 1
63 5494 1
63 5529 1
63 5603 1
63 5779 1
63 5870 1
63 6021 1
63 6439 1
63 6699 1
63 7253 1
63 7851 1
63 8473 1
63 8579 1
63 8612 1
63 8675 1
63 8995 1
63 9151 1
63 9509 1
63 9755 1
63 9805 1
64 11 1
64 16 1
64 20 1
64 24 1
64 225 1
64 258 1
64 464 1
64 467 1
64 682 1
64 703 1
64 737 1
64 761 1
64 1006 1
64 1040 1
64 1057 1
64 1110 1
64 1289 1
64 2173 1
64 2192 1
64 2302 1
64 2509 1
64 2672 1
64 2815 1
64 2916 1
64 3340 1
64 3421 1
64 3447 1
64 3662 1
64 4015 1
64 4017 1
64 4166 1
64 4444 1
64 4657 1
64 4666 1
64 5030 1
64 5451 1
64 5493 1
64 5532 1
64 5701 1
64 5719 1
64 6252 1
64 6422 1
64 6606 1
64 6716 1
64 6772 1
64 7127 1
64 7263 1
64 7603 1
64 7669 1
64 8122 1
64 8213 1
64 9480 1
64 9649 1
64 9757 1
65 1 1
65 10 1
65 23 1
65 58 1
65 94 1
65 95 1
65 109 1
65 155 1
65 156 1
65 238 1
65 254 1
65 272 1
65 276 1
65 296 1
65 306 1
65 323 1
65 342 1
65 370 1
65 378 1
65 421 1
65 433 1
65 451 1
65 467 1
65 601 1
65 660 1
65 696 1
65 703 1
65 716 1
65 835 1
65 925 1
65 929 1
65 1008 1
65 1126 1
65 1206 1
65 1212 1
65 1426 1
65 1430 1
65 1460 1
65 1511 1
65 1517 1
65 1619 1
65 1638 1
65 2019 1
65 2050 1
65 2189 1
65 2230 1
65 2334 1
65 2618 1
65 2776 1
65 2787 1
65 3016 1
65 3043 1
65 3112 1
65 3209 1
65 3438 1
65 3476 1
65 3524 1
65 3812 1
65 3826 1
65 3849 1
65 3857 1
65 4029 1
65 4730 1
65 4857 1
65 4984 1
65 5010 1
65 5202 1
65 5241 1
65 5266 1
65 5361 1
65 5393 1
65 5465 1
65 5505 1
65 5714 1
65 5761 1
65 6068 1
65 6103 1
65 6129 1
65 6266 1
65 6359 1
65 6656 1
65 6809 1
65 6839 1
65 6991 1
65 7122 1
65 7204 1
65 7430 1
65 7646 1
65 7681 1
65 7986 1
65 8000 1
65 8523 1
65 8599 1
65 8746 1
65 8798 1
65 9082 1
65 9104 1
65 9142 1
65 9179 1
65 9230 1
65 9584 1
66 5 1
66 28 1
66 33 1
66 54 1
66 150 1
66 318 1
66 423 1
66 462 1
66 476 1
66 495 1
66 507 1
66 592 1
66 672 1
66 700 1
66 701 1
66 741 1
66 754 1
66 769 1
66 871 1
66 910 1
66 1061 1
66 1069 1
66 1074 1
66 1247 1
66 1345 1
66 1410 1
66 1586 1
66 1670 1
66 1758 1
66 1770 1
66 2244 1
66 2421 1
66 2878 1
66 3292 1
66 3401 1
66 3448 1
66 3617 1
66 3663 1
66 3870 1
66 3871 1
66 4049 1
66 4182 1
66 4328 1
66 4759 1
66 4952 1
66 5057 1
66 5209 1
66 5379 1
66 5559 1
66 5947 1
66 6171 1
66 6241 1
66 6327 1
66 7779 1
66 7814 1
66 7994 1
66 8429 1
66 8557 1
66 9746 1
66 9771 1
66 9853 1
67 6 1
67 12 1
67 14 1
67 17 1
67 292 1
67 345 1
67 426 1
67 443 1
67 469 1
67 492 1
67 511 1
67 515 1
67 530 1
67 641 1
67 752 1
67 1382 1
67 1554 1
67 1582 1
67 1656 1
67 1893 1
67 2016 1
67 2223 1
67 2331 1
67 2756 1
67 2927 1
67 3545 1
67 3569 1
67 4015 1
67 4076 1
67 4636 1
67 5088 1
67 5203 1
67 5498 1
67 5636 1
67 5992 1
67 5995 1
67 6349 1
67 6385 1
67 6544 1
67 7416 1
67 7544 1
67 8301 1
67 9737 1
67 9832 1
67 9991 1
68 4 1
68 5 1
68 44 1
68 60 1
68 102 1
68 162 1
68 166 1
68 261 1
68 266 1
68 460 1
68 606 1
68 607 1
68 750 1
68 1058 1
68 1083 1
68 1217 1
68 1358 1
68 1548 1
68 1564 1
68 1700 1
68 1786 1
68 1904 1
68 2358 1
68 2429 1
68 3143 1
68 3788 1
68 4326 1
68 4411 1
68 5302 1
68 5384 1
68 5617 1
68 7964 1
68 8432 1
68 8776 1
68 9137 1
68 9541 1
68 9572 1
68 9596 1
69 1 1
69 8 1
69 13 1
69 49 1
69 76 1
69 408 1
69 556 1
69 694 1
69 728 1
69 972 1
69 1175 1
69 1196 1
69 1314 1
69 1439 1
69 1957 1
69 2669 1
69 4165 1
69 4716 1
69 5205 1
69 5328 1
69 5860 1
69 6347 1
69 7170 1
69 7987 1
69 8306 1
69 9301 1
70 6 1
70 12 1
70 35 1
70 41 1
70 88 1
70 103 1
70 133 1
70 143 1
70 181 1
70 186 1
70 273 1
70 351 1
70 467 1
70 526 1
70 825 1
70 840 1
70 851 1
70 1046 1
70 1171 1
70 1624 1
70 1952 1
70 2034 1
70 3234 1
70 3239 1
70 3799 1
70 4053 1
70 4301 1
70 4413 1
70 4926 1
70 4989 1
70 5001 1
70 5047 1
70 5256 1
70 5355 1
70 5521 1
70 6036 1
70 6092 1
70 7134 1
70 7511 1
70 7591 1
70 7731 1
70 8418 1
70 8931 1
70 9433 1
70 9776 1
71 4 1
71 8 1
71 32 1
71 39 1
71 154 1
71 594 1
71 808 1
71 910 1
71 1283 1
71 1457 1
71 1616 1
71 1647 1
71 1861 1
71 1967 1
71 1979 1
71 2393 1
71 2717 1
71 2981 1
71 3227 1
71 3409 1
71 3682 1
71 3768 1
71 4360 1
71 4993 1
71 5469 1
71 5911 1
71 6360 1
71 6576 1
71 6631 1
71 6655 1
71 7480 1
71 7742 1
71 7860 1
71 8310 1
71 9012 1
71 9708 1
71 9871 1
72 3 1
72 11 1
72 42 1
72 57 1
72 152 1
72 253 1
72 262 1
72 312 1
72 314 1
72 384 1
72 449 1
72 700 1
72 757 1
72 822 1
72 898 1
72 1009 1
72 1125 1
72 1538 1
72 1568 1
72 1805 1
72 1884 1
72 1912 1
72 1918 1
72 2000 1
72 2015 1
72 2399 1
72 2688 1
72 2740 1
72 3015 1
72 4184 1
72 4840 1
72 4985 1
72 5115 1
72 5315 1
72 5828 1
72 6424 1
72 6899 1
72 6903 1
72 6921 1
72 6955 1
72 7304 1
72 7329 1
72 7473 1
72 7745 1
72 7939 1
72 8294 1
72 8364 1
72 8385 1
72 8509 1
72 8893 1
72 8956 1
72 9866 1
73 6 1
73 12 1
73 33 1
73 52 1
73 82 1
73 98 1
73 155 1
73 176 1
73 623 1
73 1128 1
73 1318 1
73 1398 1
73 1663 1
73 2585 1
73 3128 1
73 3429 1
73 3535 1
73 4543 1
73 4732 1
73 6247 1
73 6594 1
73 6791 1
73 7893 1
73 8045 1
73 8079 1
73 8129 1
73 8160 1
73 9056 1
73 9521 1
73 9707 1
74 1 1
74 13 1
74 30 1
74 57 1
74 82 1
74 139 1
74 244 1
74 279 1
74 364 1
74 437 1
74 553 1
74 779 1
74 834 1
74 899 1
74 1071 1
74 1167 1
74 1316 1
74 1356 1
74 1424 1
74 1651 1
74 1863 1
74 2161 1
74 2272 1
74 2419 1
74 2472 1
74 2607 1
74 3039 1
74 3164 1
74 3703 1
74 3825 1
74 4077 1
74 4084 1
74 4969 1
74 5007 1
74 6164 1
74 6226 1
74 6287 1
74 6309 1
74 6887 1
74 7319 1
74 7405 1
74 7450 1
74 8902 1
74 9170 1
74 9270 1
74 9876 1
74 9995 1
75 6 1
75 32 1
75 46 1
75 49 1
75 77 1
75 118 1
75 845 1
75 904 1
75 1495 1
75 1981 1
75 2081 1
75 2339 1
75 3039 1
75 3080 1
75 3151 1
75 3348 1
75 4407 1
75 4778 1
75 5117 1
75 8485 1
75 9921 1
76 34 1
76 40 1
76 57 1
76 69 1
76 197 1
76 249 1
76 265 1
76 321 1
76 373 1
76 535 1
76 537 1
76 563 1
76 621 1
76 636 1
76 909 1
76 1157 1
76 1161 1
76 1244 1
76 1645 1
76 1646 1
76 2045 1
76 2056 1
76 2407 1
76 2579 1
76 2770 1
76 3197 1
76 3754 1
76 3793 1
76 3866 1
76 4008 1
76 4582 1
76 4645 1
76 4648 1
76 4863 1
76 5187 1
76 5455 1
76 5622 1
76 5774 1
76 6012 1
76 6079 1
76 6408 1
76 6568 1
76 7208 1
76 7274 1
76 7290 1
76 7379 1
76 7532 1
76 8065 1
76 8069 1
76 8086 1
76 8208 1
76 8396 1
76 8642 1
76 8984 1
76 9005 1
76 9181 1
76 9394 1
76 9475 1
77 5 1
77 6 1
77 14 1
77 75 1
77 549 1
77 649 1
77 844 1
77 1383 1
77 1628 1
77 1952 1
77 2020 1
77 2359 1
77 3405 1
77 3493 1
77 3801 1
77 4058 1
77 4122 1
77 4332 1
77 4407 1
77 4558 1
77 4698 1
77 5078 1
77 6792 1
77 7133 1
77 7606 1
77 7937 1
77 7993 1
77 8344 1
78 6 1
78 7 1
78 10 1
78 17 1
78 102 1
78 108 1
78 110 1
78 187 1
78 219 1
78 252 1
78 260 1
78 303 1
78 312 1
78 313 1
78 326 1
78 356 1
78 377 1
78 476 1
78 504 1
78 527 1
78 737 1
78 832 1
78 838 1
78 1015 1
78 1042 1
78 1239 1
78 1348 1
78 1603 1
78 1709 1
78 2115 1
78 2148 1
78 2222 1
78 2290 1
78 2923 1
78 3152 1
78 3323 1
78 3413 1
78 3764 1
78 3825 1
78 3987 1
78 4152 1
78 4494 1
78 4534 1
78 4654 1
78 4801 1
78 4976 1
78 5279 1
78 5394 1
78 5892 1
78 5949 1
78 6153 1
78 7220 1
78 7454 1
78 7596 1
78 7877 1
78 8176 1
78 8766 1
78 9054 1
78 9416 1
78 9746 1
78 9793 1
78 9882 1
78 9956 1
79 7 1
79 8 1
79 14 1
79 57 1
79 82 1
79 93 1
79 122 1
79 243 1
79 250 1
79 268 1
79 276 1
79 286 1
79 445 1
79 517 1
79 743 1
79 983 1
79 1187 1
79 2258 1
79 2513 1
79 3374 1
79 4182 1
79 4482 1
79 4682 1
79 5312 1
79 5881 1
79 6019 1
79 6687 1
79 6882 1
79 7074 1
79 7929 1
79 7981 1
79 8442 1
79 8565 1
79 8706 1
79 8777 1
79 9495 1
79 9594 1
80 13 1
80 14 1
80 17 1
80 24 1
80 97 1
80 151 1
80 167 1
80 174 1
80 300 1
80 424 1
80 885 1
80 1157 1
80 1261 1
80 1301 1
80 1703 1
80 1752 1
80 1879 1
80 1922 1
80 1993 1
80 2019 1
80 2033 1
80 2085 1
80 2377 1
80 2622 1
80 2809 1
80 2967 1
80 3632 1
80 3690 1
80 3728 1
80 3853 1
80 4005 1
80 4467 1
80 4775 1
80 5249 1
80 5409 1
80 6458 1
80 6678 1
80 6916 1
80 7453 1
80 7469 1
80 7780 1
80 9648 1
81 8 1
81 22 1
81 26 1
81 51 1
81 89 1
81 112 1
81 117 1
81 139 1
81 211 1
81 335 1
81 432 1
81 669 1
81 675 1
81 692 1
81 713 1
81 747 1
81 775 1
81 798 1
81 865 1
81 927 1
81 973 1
81 978 1
81 1024 1
81 1036 1
81 1090 1
81 1125 1
81 1133 1
81 1140 1
81 1159 1
81 1179 1
81 1221 1
81 1278 1
81 1442 1
81 1491 1
81 1528 1
81 1631 1
81 1685 1
81 1740 1
81 1761 1
81 1794 1
81 1872 1
81 1916 1
81 1962 1
81 1994 1
81 2084 1
81 2214 1
81 2262 1
81 2291 1
81 2384 1
81 2457 1
81 2565 1
81 2722 1
81 2960 1
81 2967 1
81 2992 1
81 3111 1
81 3289 1
81 3617 1
81 3720 1
81 4061 1
81 4160 1
81 4349 1
81 4408 1
81 4654 1
81 4686 1
81 5388 1
81 5861 1
81 5961 1
81 6183 1
81 6426 1
81 6568 1
81 6621 1
81 6933 1
81 6940 1
81 7384 1
81 7524 1
81 7657 1
81 7747 1
81 7961 1
81 7966 1
81 8243 1
81 9046 1
81 9330 1
81 9356 1
81 9376 1
81 9697 1
82 51 1
82 73 1
82 74 1
82 79 1
82 231 1
82 406 1
82 458 1
82 614 1
82 815 1
82 1801 1
82 2270 1
82 2887 1
82 4137 1
82 4380 1
82 4959 1
82 6451 1
82 7201 1
82 7314 1
82 7844 1
82 7896 1
82 8661 1
82 8756 1
83 3 1
83 33 1
83 35 1
83 48 1
83 104 1
83 193 1
83 198 1
83 305 1
83 320 1
83 331 1
83 388 1
83 396 1
83 456 1
83 492 1
83 664 1
83 784 1
83 855 1
83 900 1
83 925 1
83 1238 1
83 1313 1
83 1569 1
83 1711 1
83 1733 1
83 1746 1
83 2118 1
83 2445 1
83 2543 1
83 2609 1
83 2637 1
83 2711 1
83 2734 1
83 3556 1
83 3774 1
83 3866 1
83 3993 1
83 4023 1
83 4237 1
83 4520 1
83 4584 1
83 4740 1
83 4825 1
83 5676 1
83 5847 1
83 6195 1
83 6271 1
83 6334 1
83 6951 1
83 7062 1
83 7627 1
83 7649 1
83 8077 1
83 8100 1
83 9072 1
83 9096 1
83 9532 1
83 9883 1
84 6 1
84 13 1
84 15 1
84 58 1
84 101 1
84 152 1
84 154 1
84 183 1
84 191 1
84 310 1
84 422 1
84 432 1
84 441 1
84 496 1
84 541 1
84 565 1
84 653 1
84 848 1
84 857 1
84 905 1
84 1059 1
84 1064 1
84 1428 1
84 1647 1
84 1772 1
84 1791 1
84 1928 1
84 1985 1
84 2365 1
84 2418 1
84 2486 1
84 2565 1
84 2743 1
84 2783 1
84 3161 1
84 3362 1
84 3610 1
84 3689 1
84 3734 1
84 3767 1
84 3900 1
84 4198 1
84 4444 1
84 4513 1
84 4514 1
84 4829 1
84 5264 1
84 5268 1
84 5712 1
84 6987 1
84 7094 1
84 7869 1
84 9142 1
84 9366 1
85 6 1
85 16 1
85 19 1
85 47 1
85 126 1
85 148 1
85 172 1
85 299 1
85 322 1
85 377 1
85 392 1
85 401 1
85 488 1
85 507 1
85 510 1
85 513 1
85 857 1
85 907 1
85 1348 1
85 1376 1
85 1585 1
85 1721 1
85 2495 1
85 2656 1
85 3237 1
85 3318 1
85 3520 1
85 3698 1
85 3855 1
85 4455 1
85 4536 1
85 4878 1
85 5267 1
85 5269 1
85 5592 1
85 5889 1
85 5984 1
85 6536 1
85 6680 1
85 7067 1
85 7886 1
85 9324 1
85 9556 1
86 2 1
86 6 1
86 7 1
86 63 1
86 88 1
86 167 1
86 192 1
86 217 1
86 610 1
86 670 1
86 775 1
86 906 1
86 926 1
86 996 1
86 1150 1
86 1371 1
86 1749 1
86 1967 1
86 2210 1
86 2375 1
86 2519 1
86 3007 1
86 3489 1
86 3529 1
86 4043 1
86 4233 1
86 4343 1
86 4384 1
86 4798 1
86 5501 1
86 6170 1
86 6293 1
86 6565 1
86 6902 1
86 7560 1
86 7641 1
86 8365 1
86 8859 1
86 9145 1
86 9183 1
86 9635 1
86 9875 1
86 9997 1
87 3 1
87 6 1
87 20 1
87 57 1
87 463 1
87 507 1
87 604 1
87 779 1
87 795 1
87 885 1
87 1943 1
87 2113 1
87 2318 1
87 2333 1
87 2408 1
87 3241 1
87 3276 1
87 5415 1
87 6236 1
87 6768 1
87 7041 1
87 8139 1
87 8369 1
87 8467 1
87 8646 1
87 9455 1
87 9770 1
88 1 1
88 8 1
88 70 1
88 86 1
88 301 1
88 516 1
88 1033 1
88 1505 1
88 1872 1
88 2815 1
88 3142 1
88 3635 1
88 4125 1
88 4408 1
88 4596 1
88 4711 1
88 5287 1
88 5408 1
88 5672 1
88 8210 1
88 9018 1
88 9395 1
89 4 1
89 10 1
89 32 1
89 81 1
89 94 1
89 130 1
89 141 1
89 203 1
89 217 1
89 274 1
89 281 1
89 334 1
89 419 1
89 468 1
89 485 1
89 501 1
89 990 1
89 1049 1
89 1075 1
89 1391 1
89 1525 1
89 2247 1
89 2533 1
89 2567 1
89 2835 1
89 2946 1
89 3100 1
89 3204 1
89 3513 1
89 3686 1
89 3895 1
89 3985 1
89 4563 1
89 4827 1
89 5125 1
89 5874 1
89 6124 1
89 6185 1
89 6330 1
89 6770 1
89 6889 1
89 6997 1
89 7181 1
89 7323 1
89 7498 1
89 7912 1
89 7988 1
89 8754 1
89 9199 1
89 9867 1
90 10 1
90 26 1
90 42 1
90 58 1
90 672 1
90 875 1
90 1447 1
90 1979 1
90 3063 1
90 3456 1
90 3696 1
90 4305 1
90 5064 1
90 5838 1
90 6165 1
90 6637 1
90 6888 1
90 7543 1
90 7813 1
90 7819 1
90 8495 1
90 9615 1
91 12 1
91 34 1
91 51 1
91 63 1
91 116 1
91 259 1
91 274 1
91 331 1
91 349 1
91 382 1
91 401 1
91 497 1
91 499 1
91 633 1
91 691 1
91 789 1
91 863 1
91 1048 1
91 1100 1
91 1227 1
91 1298 1
91 1303 1
91 1934 1
91 2101 1
91 2125 1
91 2244 1
91 2478 1
91 2668 1
91 3018 1
91 3259 1
91 3298 1
91 4019 1
91 4271 1
91 4504 1
91 4557 1
91 4655 1
91 4791 1
91 5248 1
91 5559 1
91 5587 1
91 5802 1
91 6221 1
91 6488 1
91 6881 1
91 7280 1
91 7423 1
91 7996 1
91 8236 1
91 8330 1
91 8700 1
91 8786 1
91 8788 1
91 9399 1
91 9534 1
91 9544 1
92 6 1
92 17 1
92 22 1
92 37 1
92 192 1
92 214 1
92 339 1
92 483 1
92 537 1
92 601 1
92 631 1
92 708 1
92 889 1
92 955 1
92 2113 1
92 2400 1
92 2479 1
92 2853 1
92 3512 1
92 3776 1
92 4021 1
92 6333 1
92 8062 1
92 9590 1
93 3 1
93 30 1
93 43 1
93 79 1
93 120 1
93 136 1
93 227 1
93 247 1
93 282 1
93 317 1
93 360 1
93 568 1
93 618 1
93 623 1
93 792 1
93 971 1
93 1142 1
93 1535 1
93 1630 1
93 1752 1
93 2504 1
93 2686 1
93 3399 1
93 3438 1
93 3538 1
93 3608 1
93 3786 1
93 4331 1
93 4363 1
93 4460 1
93 4579 1
93 5154 1
93 5291 1
93 5660 1
93 5966 1
93 6108 1
93 6253 1
93 6556 1
93 7189 1
93 7696 1
93 8049 1
93 8077 1
93 8161 1
93 8293 1
93 8584 1
93 9091 1
93 9109 1
94 6 1
94 10 1
94 65 1
94 89 1
94 131 1
94 137 1
94 140 1
94 269 1
94 488 1
94 729 1
94 761 1
94 874 1
94 1015 1
94 1712 1
94 1818 1
94 2322 1
94 2354 1
94 2824 1
94 4101 1
94 5526 1
94 6369 1
94 7095 1
94 7834 1
94 8443 1
94 8645 1
94 9139 1
95 5 1
95 30 1
95 46 1
95 65 1
95 128 1
95 236 1
95 357 1
95 368 1
95 382 1
95 397 1
95 443 1
95 522 1
95 549 1
95 557 1
95 604 1
95 952 1
95 969 1
95 994 1
95 1209 1
95 1256 1
95 1339 1
95 1607 1
95 1617 1
95 1622 1
95 1747 1
95 1786 1
95 1858 1
95 1896 1
95 2005 1
95 2046 1
95 2152 1
95 2219 1
95 2264 1
95 2267 1
95 2431 1
95 2542 1
95 2570 1
95 2607 1
95 2620 1
95 2713 1
95 3174 1
95 3232 1
95 3291 1
95 3371 1
95 3490 1
95 3523 1
95 3556 1
95 4010 1
95 4062 1
95 4206 1
95 4317 1
95 4470 1
95 4879 1
95 5092 1
95 5146 1
95 5849 1
95 5977 1
95 6201 1
95 6248 1
95 6315 1
95 6487 1
95 6539 1
95 6693 1
95 6799 1
95 6918 1
95 7099 1
95 7257 1
95 7299 1
95 7303 1
95 7475 1
95 7487 1
95 7615 1
95 7660 1
95 8004 1
95 8085 1
95 8142 1
95 8226 1
95 8373 1
95 8401 1
95 8529 1
95 8634 1
95 9628 1
95 9674 1
95 9992 1
96 2 1
96 6 1
96 49 1
96 55 1
96 126 1
96 153 1
96 154 1
96 212 1
96 250 1
96 289 1
96 306 1
96 378 1
96 389 1
96 423 1
96 533 1
96 888 1
96 1353 1
96 1494 1
96 1732 1
96 1817 1
96 2159 1
96 2405 1
96 2771 1
96 3013 1
96 3052 1
96 3088 1
96 3138 1
96 3157 1
96 3885 1
96 4144 1
96 4545 1
96 4632 1
96 4640 1
96 5246 1
96 5292 1
96 5359 1
96 5362 1
96 5697 1
96 5707 1
96 5901 1
96 5919 1
96 6113 1
96 6147 1
96 6736 1
96 6796 1
96 6969 1
96 7213 1
96 7551 1
96 8647 1
96 8739 1
96 8821 1
96 9406 1
97 13 1
97 37 1
97 44 1
97 80 1
97 108 1
97 125 1
97 150 1
97 158 1
97 169 1
97 173 1
97 183 1
97 235 1
97 277 1
97 318 1
97 395 1
97 450 1
97 496 1
97 502 1
97 569 1
97 711 1
97 933 1
97 1093 1
97 1145 1
97 1161 1
97 1324 1
97 1367 1
97 1456 1
97 1502 1
97 1681 1
97 1692 1
97 1820 1
97 2422 1
97 2557 1
97 2631 1
97 3108 1
97 3250 1
97 3304 1
97 3383 1
97 3654 1
97 3836 1
97 4027 1
97 4245 1
97 4319 1
97 4518 1
97 4576 1
97 4683 1
97 4724 1
97 5113 1
97 5208 1
97 5288 1
97 5613 1
97 5952 1
97 6099 1
97 6264 1
97 6388 1
97 6466 1
97 6494 1
97 6634 1
97 6925 1
97 6983 1
97 7289 1
97 7572 1
97 8129 1
97 8342 1
97 8397 1
97 8516 1
97 8862 1
97 8928 1
97 9076 1
97 9242 1
97 9508 1
97 9687 1
97 9916 1
98 5 1
98 9 1
98 42 1
98 73 1
98 112 1
98 285 1
98 353 1
98 399 1
98 437 1
98 471 1
98 548 1
98 609 1
98 635 1
98 714 1
98 799 1
98 915 1
98 1054 1
98 1150 1
98 1279 1
98 1299 1
98 1347 1
98 1360 1
98 1834 1
98 1847 1
98 2083 1
98 2280 1
98 2339 1
98 2557 1
98 2687 1
98 2781 1
98 2946 1
98 2986 1
98 3018 1
98 3430 1
98 3706 1
98 3841 1
98 3887 1
98 4181 1
98 4297 1
98 4486 1
98 4509 1
98 4719 1
98 4971 1
98 5095 1
98 5418 1
98 5482 1
98 5529 1
98 5677 1
98 5869 1
98 6194 1
98 6206 1
98 6332 1
98 6444 1
98 6467 1
98 6849 1
98 6887 1
98 7884 1
98 8059 1
98 8950 1
98 9136 1
98 9162 1
98 9861 1
98 9962 1
99 19 1
99 26 1
99 56 1
99 59 1
99 138 1
99 202 1
99 234 1
99 367 1
99 368 1
99 415 1
99 592 1
99 801 1
99 879 1
99 1991 1
99 2138 1
99 2528 1
99 2796 1
99 2905 1
99 2929 1
99 3641 1
99 4037 1
99 5756 1
99 5980 1
99 6231 1
99 6334 1
99 7294 1
99 7407 1
100 6 1
100 20 1
100 30 1
100 39 1
100 310 1
100 950 1
100 1115 1
100 1371 1
100 1976 1
100 2024 1
100 2458 1
100 2475 1
100 3084 1
100 3268 1
100 4112 1
100 4628 1
100 4849 1
100 8235 1
100 9939 1
101 17 1
101 20 1
101 34 1
101 84 1
101 116 1
101 157 1
101 303 1
101 344 1
101 365 1
101 406 1
101 474 1
101 760 1
101 785 1
101 1003 1
101 1021 1
101 1067 1
101 1103 1
101 1165 1
101 1368 1
101 2549 1
101 2768 1
101 3019 1
101 3240 1
101 3806 1
101 3929 1
101 4008 1
101 4194 1
101 4427 1
101 4550 1
101 4714 1
101 4851 1
101 4962 1
101 5034 1
101 5138 1
101 5213 1
101 5364 1
101 5949 1
101 6959 1
101 9382 1
101 9553 1
102 1 1
102 6 1
102 68 1
102 78 1
102 206 1
102 513 1
102 540 1
102 771 1
102 859 1
102 922 1
102 1071 1
102 1312 1
102 1435 1
102 1618 1
102 1681 1
102 1905 1
102 2170 1
102 2640 1
102 2783 1
102 2992 1
102 3294 1
102 3809 1
102 3834 1
102 3957 1
102 4592 1
102 5426 1
102 5520 1
102 5878 1
102 7550 1
102 7681 1
102 8202 1
102 8359 1
102 8435 1
102 8465 1
102 9628 1
102 9999 1
103 3 1
103 6 1
103 16 1
103 70 1
103 173 1
103 280 1
103 500 1
103 827 1
103 935 1
103 1071 1
103 1099 1
103 1132 1
103 1227 1
103 1614 1
103 2519 1
103 3209 1
103 3630 1
103 3661 1
103 3664 1
103 4558 1
103 6017 1
103 6729 1
103 6810 1
103 7734 1
103 7753 1
103 9389 1
104 11 1
104 24 1
104 60 1
104 83 1
104 145 1
104 161 1
104 203 1
104 245 1
104 304 1
104 485 1
104 834 1
104 861 1
104 903 1
104 966 1
104 1155 1
104 1178 1
104 1244 1
104 1353 1
104 1867 1
104 1938 1
104 1979 1
104 1986 1
104 2227 1
104 2447 1
104 2553 1
104 2990 1
104 3714 1
104 4360 1
104 4447 1
104 4478 1
104 4646 1
104 5570 1
104 6024 1
104 6542 1
104 6617 1
104 6759 1
104 7251 1
104 7540 1
104 7601 1
104 7690 1
104 7741 1
104 7756 1
104 8270 1
104 8812 1
104 9621 1
104 9953 1
105 1 1
105 21 1
105 24 1
105 41 1
105 130 1
105 172 1
105 216 1
105 244 1
105 305 1
105 607 1
105 608 1
105 639 1
105 717 1
105 799 1
105 1002 1
105 1021 1
105 1469 1
105 1496 1
105 1589 1
105 2332 1
105 2505 1
105 2517 1
105 2570 1
105 2718 1
105 2905 1
105 3092 1
105 3224 1
105 3303 1
105 3920 1
105 3943 1
105 4034 1
105 4148 1
105 4220 1
105 4304 1
105 4950 1
105 5337 1
105 5703 1
105 5920 1
105 5952 1
105 6154 1
105 6514 1
105 8348 1
105 8901 1
105 8917 1
105 9428 1
105 9787 1
105 9901 1
106 17 1
106 21 1
106 43 1
106 58 1
106 124 1
106 583 1
106 619 1
106 820 1
106 985 1
106 1275 1
106 1344 1
106 2551 1
106 3163 1
106 3301 1
106 3479 1
106 3529 1
106 3573 1
106 3653 1
106 3702 1
106 3975 1
106 4016 1
106 5156 1
106 5307 1
106 5638 1
106 7150 1
106 7588 1
106 7886 1
106 9507 1
106 9542 1
106 9777 1
107 1 1
107 17 1
107 20 1
107 29 1
107 182 1
107 185 1
107 241 1
107 255 1
107 364 1
107 379 1
107 454 1
107 1160 1
107 1322 1
107 1520 1
107 1675 1
107 1851 1
107 1941 1
107 2282 1
107 3001 1
107 3148 1
107 3742 1
107 3827 1
107 4446 1
107 4559 1
107 4902 1
107 5346 1
107 6894 1
107 7152 1
107 7901 1
107 8222 1
107 8315 1
107 9547 1
108 3 1
108 55 1
108 78 1
108 97 1
108 127 1
108 205 1
108 464 1
108 479 1
108 514 1
108 1259 1
108 1525 1
108 1864 1
108 2336 1
108 2395 1
108 2636 1
108 4374 1
108 5180 1
108 7392 1
109 4 1
109 56 1
109 57 1
109 65 1
109 475 1
109 768 1
109 1162 1
109 1240 1
109 1921 1
109 3217 1
109 3223 1
109 4424 1
109 4632 1
109 5149 1
109 5725 1
109 6589 1
109 6807 1
109 8070 1
109 8438 1
109 8588 1
109 8676 1
109 8794 1
110 7 1
110 13 1
110 28 1
110 78 1
110 177 1
110 199 1
110 216 1
110 310 1
110 412 1
110 452 1
110 693 1
110 953 1
110 2088 1
110 2647 1
110 2660 1
110 3260 1
110 3455 1
110 3553 1
110 4039 1
110 4090 1
110 4581 1
110 4651 1
110 5778 1
110 5786 1
110 6097 1
110 7243 1
110 7267 1
110 7446 1
110 8855 1
110 9097 1
111 2 1
111 7 1
111 16 1
111 49 1
111 181 1
111 242 1
111 328 1
111 475 1
111 521 1
111 1443 1
111 2777 1
111 3249 1
111 3804 1
111 6817 1
111 7163 1
112 6 1
112 22 1
112 81 1
112 98 1
112 142 1
112 188 1
112 202 1
112 369 1
112 373 1
112 379 1
112 450 1
112 583 1
112 689 1
112 769 1
112 847 1
112 943 1
112 992 1
112 1072 1
112 1129 1
112 1268 1
112 1342 1
112 2133 1
112 2681 1
112 2804 1
112 3204 1
112 3220 1
112 3482 1
112 3595 1
112 3657 1
112 3879 1
112 4633 1
112 4930 1
112 4953 1
112 5029 1
112 5410 1
112 5710 1
112 6578 1
112 7030 1
112 7371 1
112 7696 1
112 8177 1
112 8257 1
112 8829 1
112 9029 1
112 9041 1
112 9107 1
112 9159 1
112 9435 1
112 9588 1
113 6 1
113 20 1
113 21 1
113 22 1
113 134 1
113 209 1
113 211 1
113 215 1
113 568 1
113 721 1
113 860 1
113 1026 1
113 1267 1
113 1679 1
113 1787 1
113 1938 1
113 1961 1
113 2990 1
113 3368 1
113 4315 1
113 4786 1
113 6923 1
113 9483 1
114 9 1
114 10 1
114 20 1
114 42 1
114 206 1
114 213 1
114 218 1
114 690 1
114 897 1
114 1139 1
114 1451 1
114 1489 1
114 1632 1
114 1638 1
114 1694 1
114 2115 1
114 2226 1
114 2258 1
114 2263 1
114 2712 1
114 3839 1
114 4152 1
114 4340 1
114 5336 1
114 5484 1
114 5576 1
114 5733 1
114 6485 1
114 7032 1
114 7650 1
115 30 1
115 34 1
115 42 1
115 45 1
115 129 1
115 144 1
115 174 1
115 241 1
115 264 1
115 394 1
115 439 1
115 509 1
115 680 1
115 745 1
115 750 1
115 763 1
115 1145 1
115 1149 1
115 1163 1
115 1257 1
115 1318 1
115 1334 1
115 1402 1
115 1687 1
115 1980 1
115 2019 1
115 2286 1
115 2345 1
115 2549 1
115 2632 1
115 2820 1
115 2896 1
115 3154 1
115 3979 1
115 4028 1
115 4379 1
115 4668 1
115 4710 1
115 4724 1
115 5354 1
115 5410 1
115 5424 1
115 5480 1
115 5496 1
115 5619 1
115 5661 1
115 5735 1
115 5761 1
115 5815 1
115 5946 1
115 6087 1
115 6180 1
115 6257 1
115 6319 1
115 6340 1
115 6525 1
115 6534 1
115 6756 1
115 6956 1
115 6971 1
115 7469 1
115 7500 1
115 7745 1
115 7821 1
115 7848 1
115 8391 1
115 8505 1
115 9067 1
115 9313 1
115 9484 1
115 9559 1
116 6 1
116 13 1
116 91 1
116 101 1
116 198 1
116 221 1
116 264 1
116 441 1
116 489 1
116 622 1
116 642 1
116 662 1
116 901 1
116 2265 1
116 2568 1
116 2577 1
116 2671 1
116 3068 1
116 3145 1
116 3624 1
116 5391 1
116 5740 1
116 6313 1
116 6330 1
116 6409 1
116 6542 1
116 6718 1
116 7814 1
116 7872 1
116 7911 1
116 8009 1
116 8526 1
116 8662 1
116 9951 1
117 1 1
117 8 1
117 17 1
117 81 1
117 199 1
117 247 1
117 248 1
117 266 1
117 304 1
117 355 1
117 358 1
117 362 1
117 457 1
117 478 1
117 491 1
117 521 1
117 599 1
117 611 1
117 689 1
117 779 1
117 788 1
117 794 1
117 900 1
117 964 1
117 1031 1
117 1123 1
117 1442 1
117 1493 1
117 1498 1
117 1550 1
117 1557 1
117 1655 1
117 1729 1
117 1955 1
117 2458 1
117 2559 1
117 2573 1
117 2855 1
117 2906 1
117 2910 1
117 3128 1
117 4333 1
117 4335 1
117 4523 1
117 5053 1
117 6010 1
117 6224 1
117 6278 1
117 6377 1
117 6396 1
117 6511 1
117 6629 1
117 6643 1
117 6959 1
117 7227 1
117 7301 1
117 7549 1
117 7670 1
117 7997 1
117 8193 1
117 8811 1
117 8846 1
117 8858 1
117 9106 1
117 9266 1
117 9768 1
117 9898 1
118 3 1
118 14 1
118 31 1
118 75 1
118 138 1
118 142 1
118 153 1
118 221 1
118 235 1
118 246 1
118 248 1
118 523 1
118 565 1
118 616 1
118 724 1
118 725 1
118 873 1
118 940 1
118 949 1
118 1184 1
118 1299 1
118 1438 1
118 1445 1
118 1605 1
118 1826 1
118 2073 1
118 2547 1
118 2557 1
118 2608 1
118 3141 1
118 3404 1
118 3460 1
118 4012 1
118 4391 1
118 4584 1
118 4599 1
118 4837 1
118 5129 1
118 5256 1
118 5555 1
118 5624 1
118 5658 1
118 6320 1
118 6327 1
118 6402 1
118 6525 1
118 6698 1
118 7021 1
118 7036 1
118 7356 1
118 7503 1
118 7626 1
118 7631 1
118 7969 1
118 8339 1
118 8568 1
118 9084 1
118 9120 1
118 9732 1
118 9824 1
119 4 1
119 5 1
119 25 1
119 49 1
119 144 1
119 237 1
119 258 1
119 515 1
119 529 1
119 614 1
119 655 1
119 666 1
119 831 1
119 866 1
119 945 1
119 1173 1
119 1299 1
119 1411 1
119 1476 1
119 1921 1
119 2114 1
119 2214 1
119 3133 1
119 3846 1
119 4222 1
119 4235 1
119 4780 1
119 4995 1
119 5049 1
119 5061 1
119 5670 1
119 6360 1
119 6943 1
119 9669 1
119 9719 1
120 7 1
120 13 1
120 63 1
120 93 1
120 184 1
120 239 1
120 244 1
120 245 1
120 277 1
120 432 1
120 493 1
120 590 1
120 624 1
120 645 1
120 843 1
120 902 1
120 982 1
120 999 1
120 1022 1
120 1028 1
120 1475 1
120 1484 1
120 1506 1
120 1521 1
120 1528 1
120 1544 1
120 1708 1
120 1920 1
120 1922 1
120 1978 1
120 2213 1
120 2242 1
120 2375 1
120 2517 1
120 2572 1
120 2620 1
120 2643 1
120 2884 1
120 3175 1
120 3457 1
120 3591 1
120 3723 1
120 3756 1
120 4122 1
120 4148 1
120 4177 1
120 4229 1
120 4348 1
120 4432 1
120 4782 1
120 4998 1
120 5072 1
120 5136 1
120 5170 1
120 5263 1
120 5604 1
120 5639 1
120 5664 1
120 5684 1
120 5792 1
120 5938 1
120 6030 1
120 6046 1
120 6106 1
120 6279 1
120 6328 1
120 6481 1
120 6703 1
120 6755 1
120 6897 1
120 7142 1
120 7973 1
120 8216 1
120 8518 1
120 8713 1
120 8722 1
120 8810 1
120 8813 1
120 8967 1
120 9434 1
120 9581 1
120 9844 1
120 9905 1
121 6 1
121 12 1
121 36 1
121 43 1
121 167 1
121 172 1
121 267 1
121 285 1
121 287 1
121 469 1
121 470 1
121 561 1
121 564 1
121 607 1
121 736 1
121 742 1
121 803 1
121 918 1
121 923 1
121 964 1
121 968 1
121 1077 1
121 1113 1
121 1190 1
121 1278 1
121 1287 1
121 1452 1
121 1472 1
121 1534 1
121 1657 1
121 1673 1
121 2675 1
121 2991 1
121 3000 1
121 3021 1
121 3085 1
121 3666 1
121 3986 1
121 4051 1
121 4065 1
121 4082 1
121 4120 1
121 4175 1
121 4708 1
121 5082 1
121 5929 1
121 6174 1
121 6236 1
121 6495 1
121 7533 1
121 7630 1
121 7720 1
121 7789 1
121 8170 1
121 8431 1
121 8607 1
121 8803 1
121 9101 1
121 9262 1
122 13 1
122 48 1
122 60 1
122 79 1
122 149 1
122 163 1
122 164 1
122 182 1
122 188 1
122 229 1
122 268 1
122 271 1
122 317 1
122 470 1
122 605 1
122 629 1
122 654 1
122 914 1
122 1087 1
122 1187 1
122 1287 1
122 1405 1
122 1492 1
122 1545 1
122 1840 1
122 2280 1
122 2292 1
122 2548 1
122 2639 1
122 2785 1
122 3534 1
122 3660 1
122 4254 1
122 5116 1
122 5419 1
122 6950 1
122 6995 1
122 7433 1
122 7793 1
122 8409 1
122 8559 1
122 8710 1
122 9465 1
122 9828 1
123 11 1
123 20 1
123 24 1
123 37 1
123 150 1
123 172 1
123 189 1
123 197 1
123 205 1
123 380 1
123 418 1
123 455 1
123 551 1
123 573 1
123 726 1
123 800 1
123 869 1
123 956 1
123 991 1
123 1109 1
123 1251 1
123 1451 1
123 1467 1
123 1651 1
123 1867 1
123 1943 1
123 2077 1
123 2945 1
123 3241 1
123 3650 1
123 3710 1
123 3715 1
123 4633 1
123 4707 1
123 4916 1
123 4959 1
123 5164 1
123 5591 1
123 5986 1
123 7118 1
123 8712 1
123 8851 1
123 8869 1
124 14 1
124 46 1
124 53 1
124 106 1
124 371 1
124 372 1
124 477 1
124 642 1
124 762 1
124 922 1
124 946 1
124 1102 1
124 1123 1
124 1433 1
124 1505 1
124 1526 1
124 1634 1
124 1639 1
124 1750 1
124 1910 1
124 1967 1
124 2037 1
124 2168 1
124 2247 1
124 2515 1
124 3257 1
124 4310 1
124 5273 1
124 5468 1
124 5908 1
124 6147 1
124 7330 1
124 7431 1
124 7670 1
124 7758 1
124 8031 1
124 8309 1
124 8334 1
124 8364 1
124 8859 1
124 8914 1
124 9113 1
124 9995 1
125 25 1
125 38 1
125 47 1
125 97 1
125 126 1
125 162 1
125 374 1
125 382 1
125 488 1
125 632 1
125 811 1
125 897 1
125 1409 1
125 1574 1
125 1639 1
125 2396 1
125 2444 1
125 2684 1
125 3552 1
125 3575 1
125 3602 1
125 3828 1
125 4192 1
125 4878 1
125 5042 1
125 5258 1
125 5489 1
125 5659 1
125 6640 1
125 6800 1
125 7176 1
125 8147 1
125 8424 1
125 9363 1
126 5 1
126 85 1
126 96 1
126 125 1
126 254 1
126 283 1
126 629 1
126 774 1
126 2452 1
126 2996 1
126 3718 1
126 5234 1
126 6527 1
126 7399 1
127 8 1
127 30 1
127 31 1
127 108 1
127 339 1
127 435 1
127 668 1
127 712 1
127 905 1
127 1110 1
127 1490 1
127 1576 1
127 1584 1
127 2180 1
127 2266 1
127 2455 1
127 2464 1
127 2834 1
127 3158 1
127 3247 1
127 3347 1
127 3643 1
127 3927 1
127 4128 1
127 4594 1
127 4815 1
127 5206 1
127 5360 1
127 5495 1
127 6225 1
127 6722 1
127 7504 1
127 7617 1
127 7755 1
127 8394 1
128 36 1
128 46 1
128 55 1
128 95 1
128 429 1
128 527 1
128 763 1
128 998 1
128 1355 1
128 2250 1
128 2920 1
128 3206 1
128 3868 1
128 3971 1
128 4226 1
128 4914 1
128 5251 1
128 7086 1
129 10 1
129 24 1
129 43 1
129 115 1
129 135 1
129 2148 1
129 2167 1
129 2577 1
129 2579 1
129 4143 1
129 5967 1
130 11 1
130 13 1
130 89 1
130 105 1
130 434 1
130 644 1
130 3582 1
130 4064 1
130 5379 1
130 5774 1
130 6250 1
130 7622 1
130 8537 1
130 8570 1
130 9634 1
131 5 1
131 6 1
131 19 1
131 94 1
131 168 1
131 229 1
131 236 1
131 248 1
131 317 1
131 346 1
131 584 1
131 1059 1
131 1226 1
131 1315 1
131 1419 1
131 1420 1
131 1653 1
131 1883 1
131 1961 1
131 2083 1
131 2991 1
131 3624 1
131 3710 1
131 3816 1
131 5343 1
131 5655 1
131 5871 1
131 8341 1
131 8423 1
131 9863 1
132 6 1
132 7 1
132 10 1
132 58 1
132 133 1
132 147 1
132 240 1
132 254 1
132 358 1
132 375 1
132 576 1
132 591 1
132 626 1
132 627 1
132 723 1
132 933 1
132 1007 1
132 1014 1
132 1193 1
132 1436 1
132 1463 1
132 1699 1
132 1744 1
132 1828 1
132 3088 1
132 3122 1
132 3251 1
132 3638 1
132 3831 1
132 3959 1
132 4403 1
132 4452 1
132 4577 1
132 4624 1
132 4630 1
132 4800 1
132 5140 1
132 5191 1
132 5394 1
132 6459 1
132 6843 1
132 7304 1
132 7380 1
132 7769 1
132 7924 1
132 7995 1
132 8113 1
132 8398 1
132 8776 1
133 5 1
133 20 1
133 70 1
133 132 1
133 142 1
133 202 1
133 285 1
133 388 1
133 510 1
133 519 1
133 612 1
133 1128 1
133 1131 1
133 1783 1
133 1962 1
133 3142 1
133 3147 1
133 3273 1
133 3739 1
133 5197 1
133 5585 1
133 5867 1
133 6538 1
133 7014 1
133 7265 1
133 9390 1
133 9476 1
133 9894 1
134 8 1
134 13 1
134 19 1
134 113 1
134 237 1
134 258 1
134 271 1
134 350 1
134 379 1
134 546 1
134 569 1
134 687 1
134 696 1
134 933 1
134 1101 1
134 1148 1
134 1197 1
134 1388 1
134 1440 1
134 1448 1
134 1451 1
134 1579 1
134 1663 1
134 1691 1
134 1794 1
134 1843 1
134 1968 1
134 2063 1
134 2114 1
134 2121 1
134 2395 1
134 2442 1
134 2573 1
134 3179 1
134 3211 1
134 3371 1
134 3558 1
134 3616 1
134 3701 1
134 4191 1
134 4290 1
134 4316 1
134 4387 1
134 4689 1
134 4690 1
134 5010 1
134 5252 1
134 5278 1
134 5780 1
134 5867 1
134 6015 1
134 6085 1
134 6208 1
134 6456 1
134 6520 1
134 6546 1
134 6929 1
134 7118 1
134 7867 1
134 8253 1
134 8438 1
134 9002 1
134 9205 1
134 9597 1
134 9681 1
134 9723 1
134 9854 1
135 17 1
135 19 1
135 25 1
135 129 1
135 213 1
135 586 1
135 640 1
135 644 1
135 696 1
135 719 1
135 747 1
135 821 1
135 973 1
135 1192 1
135 1232 1
135 1378 1
135 1406 1
135 1463 1
135 1695 1
135 1741 1
135 1815 1
135 1992 1
135 2196 1
135 2483 1
135 2503 1
135 2925 1
135 3011 1
135 3063 1
135 3817 1
135 3823 1
135 4105 1
135 4722 1
135 5464 1
135 5542 1
135 5601 1
135 6204 1
135 6608 1
135 6633 1
135 7499 1
135 8311 1
135 9819 1
136 14 1
136 30 1
136 37 1
136 93 1
136 192 1
136 1049 1
136 1362 1
136 1540 1
136 1604 1
136 2669 1
136 3785 1
136 4047 1
136 4617 1
136 4689 1
136 5022 1
136 6263 1
136 6302 1
136 6388 1
136 6469 1
136 6565 1
136 6608 1
136 6856 1
136 6919 1
136 7278 1
136 8543 1
136 9346 1
136 9476 1
137 17 1
137 19 1
137 27 1
137 94 1
137 149 1
137 251 1
137 341 1
137 345 1
137 346 1
137 462 1
137 505 1
137 648 1
137 797 1
137 999 1
137 1266 1
137 1387 1
137 1578 1
137 2195 1
137 3523 1
137 4291 1
137 4744 1
137 4835 1
137 5095 1
137 5112 1
137 5657 1
137 6041 1
137 6059 1
137 7735 1
137 8414 1
137 8659 1
137 8779 1
137 8806 1
137 9241 1
137 9508 1
137 9526 1
138 15 1
138 55 1
138 99 1
138 118 1
138 179 1
138 233 1
138 284 1
138 307 1
138 343 1
138 397 1
138 440 1
138 485 1
138 692 1
138 704 1
138 795 1
138 1280 1
138 1618 1
138 1656 1
138 1767 1
138 2046 1
138 2280 1
138 2334 1
138 2431 1
138 2559 1
138 3090 1
138 3208 1
138 3246 1
138 3732 1
138 4090 1
138 4428 1
138 4715 1
138 4884 1
138 4958 1
138 5065 1
138 5217 1
138 5469 1
138 5612 1
138 6316 1
138 6330 1
138 6395 1
138 6435 1
138 6573 1
138 6677 1
138 6972 1
138 7027 1
138 7071 1
138 7355 1
138 7368 1
138 7390 1
138 7930 1
138 8542 1
138 9314 1
138 9686 1
138 9856 1
139 10 1
139 57 1
139 74 1
139 81 1
139 169 1
139 180 1
139 200 1
139 262 1
139 330 1
139 338 1
139 445 1
139 469 1
139 624 1
139 682 1
139 760 1
139 1053 1
139 1523 1
139 1625 1
139 2279 1
139 2315 1
139 2355 1
139 2550 1
139 2818 1
139 2831 1
139 3408 1
139 4071 1
139 4476 1
139 4908 1
139 5051 1
139 5179 1
139 6121 1
139 6122 1
139 6850 1
139 7852 1
139 8153 1
139 8255 1
139 8843 1
139 9024 1
139 9496 1
139 9763 1
139 9946 1
139 9950 1
140 6 1
140 14 1
140 24 1
140 94 1
140 200 1
140 407 1
140 496 1
140 537 1
140 556 1
140 810 1
140 1004 1
140 1019 1
140 1083 1
140 1162 1
140 1174 1
140 1348 1
140 1485 1
140 1660 1
140 1712 1
140 2093 1
140 2253 1
140 2360 1
140 2368 1
140 2662 1
140 3001 1
140 3786 1
140 4150 1
140 4189 1
140 4760 1
140 5081 1
140 5146 1
140 6025 1
140 6172 1
140 7249 1
140 7374 1
140 7475 1
140 8598 1
140 8600 1
140 9998 1
141 10 1
141 13 1
141 37 1
141 89 1
141 290 1
141 479 1
141 527 1
141 569 1
141 630 1
141 1002 1
141 1034 1
141 1296 1
141 2066 1
141 2431 1
141 2473 1
141 2703 1
141 2831 1
141 3601 1
141 5491 1
141 5553 1
141 6570 1
141 9776 1
142 6 1
142 112 1
142 118 1
142 133 1
142 176 1
142 240 1
142 294 1
142 400 1
142 508 1
142 519 1
142 553 1
142 582 1
142 608 1
142 670 1
142 673 1
142 690 1
142 738 1
142 770 1
142 841 1
142 935 1
142 1020 1
142 1097 1
142 1152 1
142 1223 1
142 1271 1
142 1286 1
142 1383 1
142 1399 1
142 1489 1
142 1513 1
142 1609 1
142 1702 1
142 1757 1
142 1799 1
142 1837 1
142 2094 1
142 2132 1
142 2154 1
142 2215 1
142 2255 1
142 2366 1
142 2514 1
142 2613 1
142 2802 1
142 2919 1
142 2995 1
142 3094 1
142 3205 1
142 3207 1
142 3219 1
142 3267 1
142 3476 1
142 3481 1
142 3658 1
142 3731 1
142 4810 1
142 4903 1
142 5113 1
142 5564 1
142 5705 1
142 5968 1
142 6063 1
142 6279 1
142 6386 1
142 6449 1
142 6571 1
142 7407 1
142 7475 1
142 7478 1
142 7655 1
142 7709 1
142 7716 1
142 8412 1
142 8479 1
142 8677 1
142 8731 1
142 8829 1
142 8928 1
142 9096 1
142 9724 1
143 3 1
143 5 1
143 6 1
143 70 1
143 395 1
143 495 1
143 636 1
143 705 1
143 729 1
143 888 1
143 1063 1
143 1218 1
143 1306 1
143 1871 1
143 1937 1
143 2237 1
143 2525 1
143 2686 1
143 3656 1
143 3684 1
143 4249 1
143 4276 1
143 5217 1
143 5252 1
143 5259 1
143 5435 1
143 5473 1
143 5776 1
143 5928 1
143 5943 1
143 6235 1
143 6622 1
143 7330 1
143 7761 1
143 8292 1
143 8483 1
143 9726 1
144 6 1
144 14 1
144 115 1
144 119 1
144 369 1
144 526 1
144 659 1
144 959 1
144 967 1
144 1370 1
144 1387 1
144 2919 1
144 3054 1
144 6493 1
144 6498 1
144 6564 1
144 9286 1
145 14 1
145 20 1
145 54 1
145 104 1
145 196 1
145 212 1
145 747 1
145 816 1
145 888 1
145 955 1
145 2057 1
145 2276 1
145 2343 1
145 2368 1
145 2427 1
145 3062 1
145 4267 1
145 4845 1
145 4881 1
145 5082 1
145 5250 1
145 5752 1
145 8170 1
145 8211 1
145 8321 1
145 8506 1
145 8736 1
145 9087 1
145 9621 1
145 9787 1
145 9915 1
146 21 1
146 25 1
146 37 1
146 59 1
146 186 1
146 206 1
146 541 1
146 558 1
146 1235 1
146 1369 1
146 1564 1
146 2398 1
146 2892 1
146 3174 1
146 3824 1
146 5172 1
146 6379 1
146 7832 1
146 9246 1
147 3 1
147 10 1
147 36 1
147 132 1
147 184 1
147 190 1
147 203 1
147 204 1
147 256 1
147 278 1
147 366 1
147 516 1
147 518 1
147 560 1
147 599 1
147 711 1
147 876 1
147 974 1
147 1101 1
147 1631 1
147 1827 1
147 1897 1
147 1910 1
147 2141 1
147 2472 1
147 2543 1
147 2793 1
147 2974 1
147 3657 1
147 4079 1
147 4339 1
147 4401 1
147 4479 1
147 4773 1
147 4938 1
147 5135 1
147 5316 1
147 5385 1
147 6048 1
147 7168 1
147 8460 1
147 8840 1
147 9718 1
147 9973 1
148 6 1
148 11 1
148 37 1
148 85 1
148 196 1
148 290 1
148 362 1
148 708 1
148 802 1
148 1036 1
148 1122 1
148 1428 1
148 1486 1
148 1778 1
148 1852 1
148 2044 1
148 2611 1
148 2741 1
148 2874 1
148 3116 1
148 3713 1
148 4782 1
148 5504 1
148 5960 1
148 5981 1
148 6312 1
148 7215 1
148 7619 1
148 7623 1
148 8646 1
148 8761 1
148 9409 1
148 9927 1
149 26 1
149 39 1
149 122 1
149 137 1
149 153 1
149 175 1
149 179 1
149 201 1
149 250 1
149 268 1
149 308 1
149 409 1
149 519 1
149 520 1
149 547 1
149 555 1
149 572 1
149 703 1
149 714 1
149 769 1
149 802 1
149 977 1
149 1051 1
149 1187 1
149 1282 1
149 1307 1
149 1321 1
149 1323 1
149 1410 1
149 1580 1
149 1620 1
149 1811 1
149 1848 1
149 2079 1
149 2367 1
149 2423 1
149 2428 1
149 2433 1
149 2676 1
149 2944 1
149 3131 1
149 3184 1
149 3472 1
149 3506 1
149 3558 1
149 3658 1
149 3707 1
149 3799 1
149 3974 1
149 3984 1
149 4177 1
149 4217 1
149 4390 1
149 4694 1
149 4917 1
149 5193 1
149 5338 1
149 5585 1
149 5916 1
149 5998 1
149 6132 1
149 6422 1
149 6460 1
149 6622 1
149 6971 1
149 7521 1
149 7650 1
149 7659 1
149 7862 1
149 7951 1
149 7991 1
149 8089 1
149 8137 1
149 8360 1
149 8481 1
149 8592 1
149 9077 1
149 9192 1
149 9249 1
149 9318 1
149 9577 1
149 9611 1
149 9701 1
149 9953 1
150 27 1
150 66 1
150 97 1
150 123 1
150 161 1
150 453 1
150 648 1
150 1234 1
150 1293 1
150 1490 1
150 1842 1
150 2146 1
150 2555 1
150 2735 1
150 3442 1
150 3542 1
150 3551 1
150 4175 1
150 4551 1
150 6245 1
150 6294 1
150 7103 1
150 7255 1
150 7713 1
150 9741 1
151 5 1
151 10 1
151 56 1
151 80 1
151 367 1
151 396 1
151 499 1
151 639 1
151 997 1
151 1190 1
151 1365 1
151 1375 1
151 1377 1
151 1480 1
151 1589 1
151 1659 1
151 2682 1
151 2712 1
151 3187 1
151 3610 1
151 4242 1
151 4670 1
151 5012 1
151 5089 1
151 5183 1
151 5946 1
151 7163 1
151 8341 1
151 8701 1
151 9415 1
152 10 1
152 21 1
152 72 1
152 84 1
152 234 1
152 261 1
152 281 1
152 329 1
152 349 1
152 492 1
152 587 1
152 665 1
152 765 1
152 1172 1
152 1340 1
152 1350 1
152 1407 1
152 1424 1
152 1453 1
152 1592 1
152 2043 1
152 2278 1
152 2346 1
152 2808 1
152 3729 1
152 3874 1
152 5557 1
152 5687 1
152 5793 1
152 6902 1
152 6934 1
152 7095 1
152 7906 1
153 28 1
153 96 1
153 118 1
153 149 1
153 163 1
153 194 1
153 215 1
153 295 1
153 324 1
153 420 1
153 553 1
153 577 1
153 593 1
153 706 1
153 824 1
153 934 1
153 952 1
153 987 1
153 1040 1
153 1445 1
153 1552 1
153 1763 1
153 1921 1
153 2751 1
153 2844 1
153 2925 1
153 3035 1
153 4298 1
153 4342 1
153 4598 1
153 5080 1
153 5254 1
153 5392 1
153 6057 1
153 6849 1
153 7050 1
153 7190 1
153 7807 1
153 9067 1
153 9505 1
154 58 1
154 71 1
154 84 1
154 96 1
154 158 1
154 199 1
154 275 1
154 395 1
154 507 1
154 1254 1
154 1288 1
154 1291 1
154 1387 1
154 1520 1
154 1819 1
154 2031 1
154 2218 1
154 2802 1
154 2961 1
154 3422 1
154 3478 1
154 4295 1
154 4320 1
154 5178 1
154 5526 1
154 5590 1
154 6331 1
154 7593 1
155 18 1
155 31 1
155 65 1
155 73 1
155 181 1
155 360 1
155 628 1
155 1109 1
155 1552 1
155 1635 1
155 2187 1
155 4252 1
155 5063 1
155 5211 1
155 6343 1
155 8139 1
155 9568 1
156 12 1
156 23 1
156 37 1
156 65 1
156 176 1
156 231 1
156 486 1
156 494 1
156 508 1
156 567 1
156 974 1
156 1523 1
156 1642 1
156 1775 1
156 2713 1
156 2791 1
156 2873 1
156 2896 1
156 3002 1
156 3163 1
156 3454 1
156 4080 1
156 4190 1
156 4287 1
156 4370 1
156 4926 1
156 5281 1
156 5439 1
156 5721 1
156 6011 1
156 6361 1
156 6842 1
156 6965 1
156 7305 1
156 7307 1
156 7578 1
156 7797 1
156 7861 1
156 8053 1
156 8551 1
156 9043 1
156 9970 1
157 6 1
157 25 1
157 28 1
157 101 1
157 206 1
157 341 1
157 393 1
157 1042 1
157 1272 1
157 1556 1
157 1735 1
157 1746 1
157 1875 1
157 2325 1
157 2541 1
157 3347 1
157 3366 1
157 4173 1
157 4265 1
157 4359 1
157 4546 1
157 4828 1
157 7336 1
157 7675 1
157 7726 1
157 7791 1
157 7940 1
157 8767 1
157 9175 1
158 17 1
158 26 1
158 97 1
158 154 1
158 279 1
158 974 1
158 1323 1
158 3182 1
158 4423 1
158 4508 1
158 4754 1
158 5532 1
158 8717 1
159 3 1
159 22 1
159 28 1
159 60 1
159 832 1
159 877 1
159 905 1
159 959 1
159 1361 1
159 1757 1
159 1941 1
159 1943 1
159 2125 1
159 2748 1
159 2975 1
159 3328 1
159 4664 1
159 4758 1
159 5751 1
159 5986 1
159 7590 1
159 7910 1
159 8301 1
159 9772 1
160 13 1
160 17 1
160 19 1
160 39 1
160 170 1
160 188 1
160 253 1
160 424 1
160 455 1
160 480 1
160 539 1
160 600 1
160 903 1
160 908 1
160 1267 1
160 1547 1
160 1695 1
160 1963 1
160 1964 1
160 2271 1
160 2352 1
160 2402 1
160 2778 1
160 2816 1
160 2826 1
160 3075 1
160 3287 1
160 3577 1
160 3918 1
160 4237 1
160 4381 1
160 4483 1
160 4523 1
160 4676 1
160 4841 1
160 5384 1
160 6332 1
160 7173 1
160 7341 1
160 7557 1
160 7704 1
160 7741 1
160 8021 1
160 8570 1
160 8752 1
160 9450 1
160 9519 1
161 4 1
161 14 1
161 104 1
161 150 1
161 548 1
161 1801 1
161 2311 1
161 2375 1
161 2742 1
161 3111 1
161 3475 1
161 3768 1
161 5816 1
161 7247 1
161 8169 1
162 6 1
162 10 1
162 68 1
162 125 1
162 168 1
162 227 1
162 231 1
162 425 1
162 786 1
162 1098 1
162 1940 1
162 2636 1
162 2729 1
162 2889 1
162 3316 1
162 3427 1
162 3963 1
162 3997 1
162 4188 1
162 4341 1
162 4635 1
162 4890 1
162 5998 1
162 7142 1
162 7282 1
162 8423 1
162 9174 1
162 9744 1
163 17 1
163 26 1
163 122 1
163 153 1
163 191 1
163 263 1
163 429 1
163 731 1
163 969 1
163 2548 1
163 2590 1
163 3725 1
163 3760 1
163 5205 1
163 5830 1
163 7181 1
164 6 1
164 10 1
164 32 1
164 122 1
164 370 1
164 1174 1
164 1253 1
164 2430 1
164 2894 1
164 2926 1
164 3024 1
164 4856 1
164 9645 1
165 1 1
165 3 1
165 6 1
165 32 1
165 214 1
165 280 1
165 287 1
165 422 1
165 645 1
165 939 1
165 1246 1
165 1336 1
165 1566 1
165 2054 1
165 2236 1
165 2461 1
165 2841 1
165 3752 1
165 3828 1
165 3835 1
165 4151 1
165 4578 1
165 4844 1
165 5013 1
165 5214 1
165 5628 1
165 5904 1
165 6843 1
165 6847 1
165 7396 1
165 7760 1
165 7925 1
165 8116 1
165 8354 1
165 8654 1
165 9069 1
165 9479 1
166 14 1
166 20 1
166 21 1
166 68 1
166 218 1
166 265 1
166 293 1
166 354 1
166 393 1
166 426 1
166 691 1
166 701 1
166 722 1
166 838 1
166 1038 1
166 1101 1
166 1175 1
166 1227 1
166 1338 1
166 1345 1
166 1436 1
166 1494 1
166 1789 1
166 1978 1
166 2043 1
166 2094 1
166 2119 1
166 2469 1
166 2643 1
166 2745 1
166 2930 1
166 3314 1
166 3459 1
166 3761 1
166 4094 1
166 4313 1
166 4372 1
166 4480 1
166 4721 1
166 5387 1
166 5725 1
166 5738 1
166 5851 1
166 6460 1
166 6855 1
166 6965 1
166 8295 1
166 8517 1
166 9240 1
166 9501 1
167 11 1
167 80 1
167 86 1
167 121 1
167 194 1
167 344 1
167 740 1
167 1158 1
167 1209 1
167 1295 1
167 2141 1
167 2515 1
167 2581 1
167 2947 1
167 4098 1
167 4181 1
167 4639 1
167 4728 1
167 5118 1
167 6719 1
167 6885 1
167 7127 1
167 7673 1
167 9599 1
167 9779 1
168 21 1
168 53 1
168 131 1
168 162 1
168 390 1
168 638 1
168 1054 1
168 1492 1
168 1671 1
168 1704 1
168 1731 1
168 1862 1
168 1906 1
168 2788 1
168 3034 1
168 3987 1
168 5102 1
168 6643 1
168 6900 1
168 7623 1
168 7718 1
168 8930 1
168 9118 1
168 9725 1
169 25 1
169 31 1
169 97 1
169 139 1
169 1229 1
169 1997 1
169 2638 1
169 8098 1
169 9177 1
170 5 1
170 6 1
170 39 1
170 160 1
170 1041 1
170 1249 1
170 4930 1
170 5198 1
170 5531 1
170 7722 1
170 8471 1
170 9257 1
171 13 1
171 17 1
171 27 1
171 55 1
171 235 1
171 245 1
171 362 1
171 369 1
171 403 1
171 676 1
171 881 1
171 982 1
171 1055 1
171 1656 1
171 2146 1
171 2570 1
171 2815 1
171 2867 1
171 3090 1
171 3140 1
171 3892 1
171 4524 1
171 4525 1
171 5061 1
171 5635 1
171 5644 1
171 5883 1
171 6292 1
171 6502 1
171 7395 1
171 7557 1
171 8340 1
171 8743 1
171 9340 1
172 85 1
172 105 1
172 121 1
172 123 1
172 182 1
172 319 1
172 407 1
172 1041 1
172 1432 1
172 1606 1
172 2145 1
172 2186 1
172 2314 1
172 2443 1
172 2496 1
172 2645 1
172 2727 1
172 4332 1
172 5175 1
172 5231 1
172 5269 1
172 5303 1
172 5487 1
172 5562 1
172 6120 1
172 6240 1
172 6727 1
172 7698 1
172 8994 1
172 9026 1
172 9092 1
172 9297 1
173 36 1
173 37 1
173 97 1
173 103 1
173 368 1
173 394 1
173 433 1
173 578 1
173 943 1
173 1166 1
173 1230 1
173 1573 1
173 1860 1
173 2122 1
173 2247 1
173 2585 1
173 2619 1
173 3012 1
173 3041 1
173 3236 1
173 3264 1
173 3872 1
173 4769 1
173 5004 1
173 5135 1
173 5361 1
173 5381 1
173 5479 1
173 5481 1
173 5914 1
173 5963 1
173 5987 1
173 5999 1
173 6260 1
173 6701 1
173 6792 1
173 7027 1
173 7278 1
173 7493 1
173 7541 1
173 7744 1
173 9223 1
174 13 1
174 32 1
174 80 1
174 115 1
174 374 1
174 557 1
174 764 1
174 845 1
174 968 1
174 1034 1
174 1630 1
174 1737 1
174 1835 1
174 2087 1
174 2179 1
174 2328 1
174 2411 1
174 3067 1
174 3485 1
174 3762 1
174 4968 1
174 5306 1
174 5314 1
174 5596 1
174 5659 1
174 6291 1
174 6876 1
174 7029 1
174 7526 1
174 8184 1
174 8582 1
174 9333 1
175 26 1
175 39 1
175 60 1
175 149 1
175 640 1
175 881 1
175 1713 1
175 4864 1
175 4992 1
175 5172 1
175 5719 1
175 5876 1
175 7582 1
176 17 1
176 73 1
176 142 1
176 156 1
176 315 1
176 330 1
176 416 1
176 494 1
176 520 1
176 633 1
176 646 1
176 1086 1
176 1216 1
176 1352 1
176 1433 1
176 1624 1
176 1767 1
176 1850 1
176 2081 1
176 2124 1
176 2252 1
176 2485 1
176 2522 1
176 2549 1
176 2860 1
176 3164 1
176 3721 1
176 3767 1
176 5232 1
176 6269 1
176 6545 1
176 6841 1
176 7093 1
176 7140 1
176 7179 1
176 7273 1
176 7677 1
176 7876 1
176 8254 1
176 8315 1
176 8396 1
176 8884 1
176 8893 1
177 30 1
177 31 1
177 34 1
177 110 1
177 431 1
177 526 1
177 545 1
177 673 1
177 1014 1
177 1819 1
177 2522 1
177 2947 1
177 3379 1
177 4386 1
177 5120 1
177 5187 1
177 5681 1
177 6048 1
177 7585 1
177 8348 1
177 8507 1
177 8607 1
177 9823 1
178 13 1
178 17 1
178 28 1
178 57 1
178 215 1
178 246 1
178 349 1
178 370 1
178 405 1
178 523 1
178 574 1
178 619 1
178 1687 1
178 1898 1
178 2230 1
178 3767 1
178 4388 1
178 4464 1
178 4654 1
178 5375 1
178 7117 1
178 7415 1
178 8458 1
179 14 1
179 17 1
179 138 1
179 149 1
179 354 1
179 387 1
179 440 1
179 523 1
179 558 1
179 569 1
179 642 1
179 1084 1
179 1415 1
179 1540 1
179 1574 1
179 2554 1
179 3024 1
179 3339 1
179 3568 1
179 3587 1
179 3755 1
179 4364 1
179 4648 1
179 4658 1
179 4952 1
179 4965 1
179 5462 1
179 5506 1
179 5826 1
179 5951 1
179 6196 1
179 6802 1
179 7169 1
179 7403 1
179 7419 1
179 7439 1
179 7474 1
179 7640 1
179 7965 1
179 9039 1
179 9937 1
180 15 1
180 24 1
180 30 1
180 139 1
180 198 1
180 217 1
180 228 1
180 333 1
180 399 1
180 754 1
180 819 1
180 939 1
180 1824 1
180 1928 1
180 2035 1
180 2075 1
180 2126 1
180 2394 1
180 2831 1
180 3648 1
180 4062 1
180 4878 1
180 5209 1
180 5300 1
180 5839 1
180 5963 1
180 7073 1
180 7305 1
180 7673 1
180 8758 1
180 8825 1
180 9451 1
181 24 1
181 70 1
181 111 1
181 155 1
181 281 1
181 374 1
181 480 1
181 502 1
181 893 1
181 1215 1
181 1378 1
181 1419 1
181 1821 1
181 1997 1
181 1998 1
181 2110 1
181 2329 1
181 2988 1
181 3149 1
181 3343 1
181 3370 1
181 3853 1
181 4248 1
181 4364 1
181 4668 1
181 5216 1
181 6728 1
181 6975 1
181 7784 1
181 7819 1
181 8535 1
181 9081 1
181 9499 1
181 9727 1
182 10 1
182 107 1
182 122 1
182 172 1
182 239 1
182 300 1
182 472 1
182 479 1
182 528 1
182 584 1
182 634 1
182 664 1
182 715 1
182 939 1
182 983 1
182 1361 1
182 1586 1
182 1990 1
182 2232 1
182 2238 1
182 2310 1
182 2665 1
182 2830 1
182 3015 1
182 3211 1
182 3359 1
182 3469 1
182 3604 1
182 3726 1
182 4091 1
182 4439 1
182 4462 1
182 4646 1
182 5419 1
182 5779 1
182 6119 1
182 6146 1
182 6906 1
182 7387 1
182 8287 1
182 8633 1
182 8737 1
182 9038 1
182 9067 1
182 9213 1
182 9673 1
182 9961 1
183 18 1
183 30 1
183 84 1
183 97 1
183 363 1
183 617 1
183 720 1
183 827 1
183 865 1
183 922 1
183 1081 1
183 1117 1
183 1297 1
183 1394 1
183 1557 1
183 1615 1
183 2319 1
183 3316 1
183 3532 1
183 3641 1
183 3719 1
183 3877 1
183 5571 1
183 5572 1
183 9065 1
184 2 1
184 16 1
184 120 1
184 147 1
184 238 1
184 263 1
184 267 1
184 272 1
184 302 1
184 323 1
184 383 1
184 385 1
184 405 1
184 468 1
184 470 1
184 522 1
184 571 1
184 626 1
184 976 1
184 1062 1
184 1124 1
184 1255 1
184 1296 1
184 1895 1
184 2171 1
184 2327 1
184 2342 1
184 2870 1
184 2980 1
184 3466 1
184 3715 1
184 3731 1
184 3783 1
184 4116 1
184 4159 1
184 4636 1
184 5099 1
184 5109 1
184 5440 1
184 5460 1
184 5490 1
184 5555 1
184 5769 1
184 6588 1
184 6803 1
184 7108 1
184 8039 1
184 8530 1
184 8858 1
184 9322 1
185 4 1
185 17 1
185 34 1
185 107 1
185 710 1
185 820 1
185 828 1
185 897 1
185 1050 1
185 1292 1
185 1685 1
185 2554 1
185 2562 1
185 2621 1
185 2741 1
185 2742 1
185 2966 1
185 3183 1
185 3781 1
185 3829 1
185 4066 1
185 4114 1
185 4622 1
185 4955 1
185 5218 1
185 6511 1
185 6848 1
185 7088 1
185 7102 1
185 7175 1
185 7452 1
185 7845 1
185 8341 1
185 8672 1
185 9744 1
185 9993 1
186 5 1
186 51 1
186 70 1
186 146 1
186 322 1
186 385 1
186 459 1
186 685 1
186 884 1
186 979 1
186 1021 1
186 1093 1
186 1355 1
186 1849 1
186 3357 1
186 3930 1
186 4189 1
186 4380 1
186 4513 1
186 4612 1
186 4871 1
186 5314 1
186 5517 1
186 6131 1
186 6166 1
186 6422 1
186 6931 1
186 8232 1
187 2 1
187 46 1
187 48 1
187 78 1
187 2244 1
188 58 1
188 112 1
188 122 1
188 160 1
188 249 1
188 266 1
188 302 1
188 303 1
188 432 1
188 482 1
188 592 1
188 767 1
188 1146 1
188 1156 1
188 1219 1
188 1222 1
188 1334 1
188 1339 1
188 1347 1
188 1425 1
188 1426 1
188 1444 1
188 1543 1
188 1653 1
188 1659 1
188 1683 1
188 1869 1
188 2042 1
188 2045 1
188 2162 1
188 2233 1
188 2251 1
188 2456 1
188 2558 1
188 2588 1
188 2606 1
188 2738 1
188 2963 1
188 3105 1
188 3260 1
188 3351 1
188 3480 1
188 3921 1
188 3962 1
188 3970 1
188 4120 1
188 4204 1
188 4365 1
188 4558 1
188 5258 1
188 5403 1
188 5483 1
188 5682 1
188 5905 1
188 5933 1
188 6628 1
188 6778 1
188 7105 1
188 7472 1
188 7815 1
188 8175 1
188 8252 1
188 8500 1
188 8528 1
188 8592 1
188 8598 1
188 8668 1
188 8864 1
188 8995 1
188 9253 1
188 9312 1
188 9437 1
188 9508 1
188 9765 1
188 9866 1
189 6 1
189 47 1
189 61 1
189 123 1
189 402 1
189 1107 1
189 1122 1
189 2524 1
189 3095 1
189 3869 1
189 4178 1
189 6374 1
189 7213 1
189 7412 1
189 8612 1
189 9421 1
190 2 1
190 14 1
190 60 1
190 147 1
190 307 1
190 320 1
190 442 1
190 620 1
190 890 1
190 1328 1
190 1701 1
190 2440 1
190 2546 1
190 3122 1
190 3308 1
190 3360 1
190 3408 1
190 3656 1
190 3738 1
190 4370 1
190 4420 1
190 4982 1
190 5038 1
190 5069 1
190 5122 1
190 5124 1
190 5181 1
190 5295 1
190 6379 1
190 7501 1
190 8111 1
190 8316 1
190 9311 1
190 9499 1
190 9869 1
191 7 1
191 8 1
191 84 1
191 163 1
191 201 1
191 275 1
191 400 1
191 1839 1
191 2211 1
191 2434 1
191 2444 1
191 3115 1
191 3331 1
191 4158 1
191 4831 1
191 7308 1
192 55 1
192 86 1
192 92 1
192 136 1
192 230 1
192 696 1
192 974 1
192 1412 1
192 1635 1
192 1651 1
192 2386 1
192 2885 1
192 4567 1
192 4602 1
192 5101 1
192 5138 1
192 7478 1
192 7754 1
193 5 1
193 6 1
193 42 1
193 83 1
193 372 1
193 814 1
193 981 1
193 1206 1
193 1256 1
193 1962 1
193 2631 1
193 2698 1
193 3123 1
193 3297 1
193 3300 1
193 4774 1
193 4838 1
193 5530 1
193 5875 1
193 6675 1
193 7445 1
193 7726 1
193 8557 1
193 8562 1
193 9013 1
193 9431 1
193 9778 1
193 9929 1
194 8 1
194 13 1
194 153 1
194 167 1
194 224 1
194 595 1
194 737 1
194 766 1
194 1570 1
194 1861 1
194 2013 1
194 2143 1
194 2203 1
194 2278 1
194 2544 1
194 2595 1
194 2652 1
194 2822 1
194 2922 1
194 2974 1
194 3266 1
194 3874 1
194 3908 1
194 4556 1
194 5342 1
194 5452 1
194 6210 1
194 6303 1
194 6346 1
194 6567 1
194 6851 1
194 7083 1
194 7737 1
194 7938 1
194 9030 1
194 9340 1
194 9989 1
195 6 1
195 13 1
195 19 1
195 56 1
195 306 1
195 1054 1
195 1314 1
195 1664 1
195 2908 1
195 2953 1
195 4288 1
195 4862 1
195 6840 1
195 8189 1
196 11 1
196 56 1
196 145 1
196 148 1
196 201 1
196 235 1
196 337 1
196 535 1
196 588 1
196 626 1
196 826 1
196 854 1
196 878 1
196 960 1
196 985 1
196 1078 1
196 3056 1
196 3770 1
196 4110 1
196 4233 1
196 4904 1
196 4917 1
196 6139 1
196 7599 1
196 7733 1
196 7891 1
196 8036 1
196 9796 1
197 7 1
197 20 1
197 76 1
197 123 1
197 338 1
197 371 1
197 383 1
197 471 1
197 857 1
197 1077 1
197 1242 1
197 1284 1
197 1538 1
197 1636 1
197 1684 1
197 1991 1
197 2116 1
197 2168 1
197 2277 1
197 2366 1
197 2487 1
197 2825 1
197 3123 1
197 3238 1
197 3367 1
197 3507 1
197 3810 1
197 3818 1
197 3965 1
197 4839 1
197 5555 1
197 6003 1
197 6177 1
197 6230 1
197 6271 1
197 6399 1
197 6507 1
197 6659 1
197 6681 1
197 7128 1
197 7223 1
197 7242 1
197 8026 1
198 2 1
198 83 1
198 116 1
198 180 1
198 205 1
198 234 1
198 243 1
198 274 1
198 406 1
198 518 1
198 521 1
198 615 1
198 639 1
198 787 1
198 951 1
198 1441 1
198 1614 1
198 1933 1
198 2160 1
198 2184 1
198 2387 1
198 2550 1
198 2678 1
198 2732 1
198 3189 1
198 3383 1
198 3402 1
198 3517 1
198 4478 1
198 5654 1
198 6913 1
198 6978 1
198 6999 1
198 7061 1
198 7149 1
198 7371 1
198 8521 1
198 9180 1
198 9206 1
198 9574 1
198 9695 1
199 10 1
199 110 1
199 117 1
199 154 1
199 225 1
199 263 1
199 651 1
199 987 1
199 1025 1
199 1026 1
199 1653 1
199 1797 1
199 2202 1
199 2697 1
199 2844 1
199 2914 1
199 3290 1
199 3489 1
199 3805 1
199 3811 1
199 4107 1
199 4295 1
199 4304 1
199 4543 1
199 4981 1
199 5000 1
199 5072 1
199 5297 1
199 5370 1
199 5587 1
199 6020 1
199 6780 1
199 7188 1
199 7452 1
199 7652 1
199 7710 1
199 8418 1
199 8505 1
199 9040 1
199 9510 1
199 9772 1
199 9902 1
200 5 1
200 49 1
200 139 1
200 140 1
200 466 1
200 756 1
200 930 1
200 1277 1
200 1288 1
200 1431 1
200 1589 1
200 1725 1
200 1756 1
200 2322 1
200 2368 1
200 2766 1
200 3017 1
200 3031 1
200 3094 1
200 3299 1
200 3458 1
200 3802 1
200 4202 1
200 4659 1
200 4669 1
200 4994 1
200 5065 1
200 5539 1
200 5881 1
200 7123 1
200 7405 1
200 8083 1
200 8824 1
200 9329 1
200 9672 1
200 9841 1
200 9943 1
201 22 1
201 149 1
201 191 1
201 196 1
201 207 1
201 237 1
201 444 1
201 503 1
201 699 1
201 710 1
201 726 1
201 732 1
201 890 1
201 931 1
201 1047 1
201 1390 1
201 1705 1
201 1726 1
201 2343 1
201 2380 1
201 2432 1
201 2581 1
201 2876 1
201 2938 1
201 3034 1
201 3861 1
201 4376 1
201 5317 1
201 6923 1
201 7137 1
201 7762 1
202 45 1
202 99 1
202 112 1
202 133 1
202 390 1
202 684 1
202 781 1
202 1069 1
202 1088 1
202 1587 1
202 2049 1
202 2090 1
202 2285 1
202 2299 1
202 2806 1
202 3876 1
202 4451 1
202 4912 1
202 4927 1
202 4934 1
202 6624 1
202 6760 1
202 7320 1
202 7562 1
202 7632 1
202 8871 1
202 9671 1
203 61 1
203 89 1
203 104 1
203 147 1
203 387 1
203 505 1
203 609 1
203 650 1
203 652 1
203 862 1
203 1036 1
203 1576 1
203 1736 1
203 1881 1
203 2047 1
203 2424 1
203 2446 1
203 2578 1
203 3905 1
203 4376 1
203 5603 1
203 5837 1
203 6181 1
203 6950 1
203 7164 1
203 7553 1
203 8333 1
204 7 1
204 19 1
204 60 1
204 147 1
204 211 1
204 296 1
204 391 1
204 423 1
204 776 1
204 1063 1
204 1401 1
204 1435 1
204 1475 1
204 1645 1
204 1876 1
204 2117 1
204 2540 1
204 2543 1
204 2657 1
204 2870 1
204 3032 1
204 3034 1
204 3073 1
204 3375 1
204 3743 1
204 3836 1
204 4511 1
204 4861 1
204 5509 1
204 6070 1
204 6578 1
204 7302 1
204 7339 1
204 7728 1
205 26 1
205 108 1
205 123 1
205 198 1
205 451 1
205 545 1
205 593 1
205 1162 1
205 2554 1
205 4735 1
205 4824 1
205 4871 1
205 5271 1
205 5300 1
205 6400 1
205 6904 1
205 8734 1
205 9094 1
206 102 1
206 114 1
206 146 1
206 157 1
206 212 1
206 240 1
206 386 1
206 621 1
206 818 1
206 873 1
206 891 1
206 986 1
206 1076 1
206 1090 1
206 1124 1
206 1134 1
206 1248 1
206 1410 1
206 1563 1
206 1955 1
206 2900 1
206 3251 1
206 3509 1
206 3576 1
206 3737 1
206 3834 1
206 4128 1
206 4536 1
206 4541 1
206 4944 1
206 5544 1
206 6155 1
206 6272 1
206 6478 1
206 6580 1
206 6684 1
206 6778 1
206 6981 1
206 7315 1
206 8260 1
206 8894 1
206 8924 1
207 24 1
207 39 1
207 55 1
207 201 1
207 265 1
207 425 1
207 880 1
207 921 1
207 1413 1
207 1679 1
207 4563 1
207 5651 1
207 6432 1
207 6739 1
208 1 1
208 6 1
208 22 1
208 36 1
208 766 1
208 3587 1
208 3595 1
208 5506 1
208 6544 1
208 8223 1
209 30 1
209 52 1
209 61 1
209 113 1
209 213 1
209 214 1
209 221 1
209 257 1
209 398 1
209 404 1
209 945 1
209 953 1
209 1609 1
209 1867 1
209 2518 1
209 2760 1
209 2769 1
209 3745 1
209 4049 1
209 4666 1
209 4705 1
209 5144 1
209 5914 1
209 6356 1
209 6528 1
209 6561 1
209 7426 1
209 9104 1
209 9230 1
209 9239 1
209 9818 1
210 6 1
210 17 1
210 39 1
210 59 1
210 229 1
210 276 1
210 283 1
210 285 1
210 325 1
210 492 1
210 616 1
210 726 1
210 776 1
210 924 1
210 1073 1
210 1530 1
210 1629 1
210 1644 1
210 1660 1
210 1937 1
210 3460 1
210 3488 1
210 3991 1
210 5034 1
210 6906 1
210 9289 1
210 9968 1
211 13 1
211 81 1
211 113 1
211 204 1
211 308 1
211 680 1
211 820 1
211 852 1
211 894 1
211 1181 1
211 1528 1
211 1570 1
211 1724 1
211 1982 1
211 6153 1
211 6845 1
211 7038 1
211 7516 1
211 7885 1
211 9367 1
212 21 1
212 96 1
212 145 1
212 206 1
212 280 1
212 415 1
212 477 1
212 678 1
212 811 1
212 1132 1
212 1301 1
212 1882 1
212 2004 1
212 2281 1
212 2416 1
212 3705 1
212 4289 1
212 4292 1
212 4405 1
212 4764 1
212 5080 1
212 5916 1
212 6446 1
212 6802 1
212 6972 1
212 6975 1
212 7308 1
212 8585 1
212 8641 1
212 8954 1
212 9748 1
212 9836 1
213 11 1
213 114 1
213 135 1
213 209 1
213 249 1
213 501 1
213 542 1
213 1016 1
213 1017 1
213 1248 1
213 1384 1
213 1474 1
213 1581 1
213 1629 1
213 1633 1
213 2024 1
213 2093 1
213 2099 1
213 2242 1
213 2383 1
213 3197 1
213 3284 1
213 3337 1
213 3465 1
213 3854 1
213 4028 1
213 4044 1
213 4078 1
213 4794 1
213 5382 1
213 5406 1
213 5667 1
213 5742 1
213 6133 1
213 6290 1
213 6465 1
213 7380 1
213 7954 1
213 8048 1
213 8132 1
213 8427 1
213 8624 1
213 8762 1
213 9385 1
213 9704 1
214 63 1
214 92 1
214 165 1
214 209 1
214 269 1
214 610 1
214 878 1
214 1372 1
214 3434 1
214 3832 1
214 7457 1
214 9952 1
215 6 1
215 113 1
215 153 1
215 178 1
215 302 1
215 1012 1
215 2708 1
215 5305 1
215 5844 1
215 5864 1
215 8089 1
216 49 1
216 57 1
216 105 1
216 110 1
216 481 1
216 945 1
216 996 1
216 2532 1
216 2564 1
216 2817 1
216 3206 1
216 3500 1
216 5995 1
216 6536 1
216 6807 1
216 6896 1
216 6911 1
216 7709 1
216 8937 1
217 34 1
217 86 1
217 89 1
217 180 1
217 620 1
217 2378 1
217 4459 1
217 6501 1
217 9079 1
218 5 1
218 14 1
218 114 1
218 166 1
218 234 1
218 272 1
218 282 1
218 301 1
218 333 1
218 854 1
218 1114 1
218 1305 1
218 1346 1
218 1480 1
218 1880 1
218 2124 1
218 2205 1
218 2895 1
218 3299 1
218 3769 1
218 4444 1
218 4580 1
218 4631 1
218 5127 1
218 5421 1
218 7271 1
218 7567 1
218 7668 1
218 7751 1
218 7931 1
218 7978 1
218 8307 1
218 8335 1
218 9162 1
218 9689 1
219 1 1
219 14 1
219 27 1
219 78 1
219 293 1
219 299 1
219 384 1
219 386 1
219 414 1
219 509 1
219 540 1
219 810 1
219 1384 1
219 1401 1
219 1683 1
219 1735 1
219 2080 1
219 2240 1
219 2567 1
219 2641 1
219 3552 1
219 3863 1
219 3943 1
219 3999 1
219 4232 1
219 5733 1
219 5944 1
219 6700 1
219 6925 1
219 7210 1
219 7672 1
219 8685 1
219 8962 1
219 9987 1
220 6 1
220 14 1
220 24 1
220 59 1
220 278 1
220 324 1
220 381 1
220 468 1
220 665 1
220 857 1
220 983 1
220 1184 1
220 1281 1
220 1318 1
220 1406 1
220 1544 1
220 1950 1
220 2479 1
220 2493 1
220 2520 1
220 2622 1
220 3106 1
220 3216 1
220 3773 1
220 4096 1
220 4103 1
220 4499 1
220 4969 1
220 4970 1
220 5672 1
220 7213 1
220 7670 1
220 7989 1
220 8751 1
220 8841 1
220 8934 1
220 9050 1
221 5 1
221 116 1
221 118 1
221 209 1
221 230 1
221 335 1
221 561 1
221 961 1
221 1626 1
221 1971 1
221 3454 1
221 3725 1
221 5395 1
221 5828 1
221 5869 1
221 6070 1
221 6342 1
221 6833 1
221 7983 1
221 9195 1
222 23 1
222 28 1
222 40 1
222 46 1
222 323 1
222 355 1
222 398 1
222 2564 1
222 3403 1
222 4083 1
222 4148 1
222 4544 1
222 6751 1
222 8243 1
222 8828 1
222 9396 1
222 9533 1
223 6 1
223 9 1
223 11 1
223 58 1
223 365 1
223 774 1
223 803 1
223 874 1
223 1135 1
223 1182 1
223 1486 1
223 2870 1
223 3177 1
223 3369 1
223 3567 1
223 5632 1
223 6832 1
223 8092 1
223 8206 1
224 8 1
224 37 1
224 63 1
224 194 1
224 765 1
224 1258 1
224 1539 1
224 2252 1
224 2873 1
224 3126 1
224 3188 1
224 3565 1
224 3601 1
224 3625 1
224 3722 1
224 5195 1
224 5939 1
224 6075 1
224 6365 1
224 6957 1
224 7594 1
224 8588 1
224 9095 1
225 3 1
225 20 1
225 64 1
225 199 1
225 287 1
225 1115 1
225 1282 1
225 2017 1
225 2261 1
225 3237 1
225 4329 1
225 6924 1
225 7730 1
225 8146 1
226 27 1
226 42 1
226 48 1
226 63 1
226 367 1
226 685 1
226 868 1
226 1239 1
226 1275 1
226 1285 1
226 1335 1
226 1457 1
226 1834 1
226 2192 1
226 3094 1
226 3394 1
226 3468 1
226 3784 1
226 3847 1
226 4080 1
226 4623 1
226 5284 1
226 6235 1
226 7903 1
226 7944 1
226 8847 1
227 1 1
227 46 1
227 93 1
227 162 1
227 257 1
227 348 1
227 383 1
227 463 1
227 657 1
227 715 1
227 842 1
227 1151 1
227 1706 1
227 2233 1
227 2264 1
227 2297 1
227 2520 1
227 2625 1
227 3399 1
227 3401 1
227 4273 1
227 4776 1
227 5169 1
227 5312 1
227 5653 1
227 5845 1
227 5875 1
227 6343 1
227 7323 1
227 8167 1
227 9071 1
227 9109 1
227 9934 1
228 13 1
228 47 1
228 56 1
228 180 1
228 604 1
228 691 1
228 762 1
228 868 1
228 956 1
228 1173 1
228 2038 1
228 2304 1
228 3046 1
228 3255 1
228 3516 1
228 3568 1
228 3939 1
228 6201 1
228 6809 1
228 7042 1
228 7377 1
228 7857 1
228 8613 1
228 9754 1
229 31 1
229 122 1
229 131 1
229 210 1
229 268 1
229 315 1
229 326 1
229 390 1
229 401 1
229 470 1
229 537 1
229 640 1
229 684 1
229 887 1
229 1260 1
229 1361 1
229 1366 1
229 1414 1
229 1500 1
229 1567 1
229 1806 1
229 1894 1
229 2095 1
229 2354 1
229 2447 1
229 2593 1
229 2612 1
229 2739 1
229 2778 1
229 3748 1
229 3877 1
229 4042 1
229 4832 1
229 4846 1
229 5381 1
229 5431 1
229 5585 1
229 5742 1
229 6283 1
229 6445 1
229 6612 1
229 6715 1
229 7276 1
229 8210 1
229 8426 1
229 8841 1
229 8992 1
229 9232 1
229 9619 1
230 12 1
230 32 1
230 192 1
230 221 1
230 300 1
230 826 1
230 1073 1
230 1373 1
230 1459 1
230 1507 1
230 1613 1
230 1782 1
230 2160 1
230 2218 1
230 2773 1
230 3281 1
230 3300 1
230 3546 1
230 3697 1
230 4443 1
230 6035 1
230 6513 1
230 6655 1
230 6725 1
230 7201 1
230 7259 1
230 8152 1
230 8159 1
230 9141 1
230 9836 1
231 63 1
231 82 1
231 156 1
231 162 1
231 587 1
231 1176 1
231 1833 1
231 1876 1
231 2193 1
231 2938 1
231 3008 1
231 3391 1
231 3698 1
231 4098 1
231 5018 1
231 6207 1
231 9301 1
231 9441 1
232 6 1
232 17 1
232 31 1
232 45 1
232 390 1
232 662 1
232 1370 1
232 2184 1
232 4735 1
232 7130 1
232 9303 1
233 1 1
233 26 1
233 28 1
233 138 1
233 283 1
233 295 1
233 327 1
233 459 1
233 490 1
233 524 1
233 555 1
233 642 1
233 932 1
233 1038 1
233 1168 1
233 1259 1
233 1291 1
233 1575 1
233 1676 1
233 2027 1
233 2435 1
233 2534 1
233 2680 1
233 2955 1
233 3036 1
233 3129 1
233 3449 1
233 3489 1
233 3608 1
233 4290 1
233 5149 1
233 5151 1
233 5350 1
233 5574 1
233 5710 1
233 6284 1
233 7332 1
233 7786 1
233 8491 1
233 8648 1
233 8912 1
233 9623 1
234 99 1
234 152 1
234 198 1
234 218 1
234 326 1
234 337 1
234 341 1
234 350 1
234 563 1
234 612 1
234 2007 1
234 2238 1
234 5810 1
234 6476 1
234 8347 1
235 97 1
235 118 1
235 171 1
235 196 1
235 273 1
235 421 1
235 441 1
235 451 1
235 476 1
235 729 1
235 758 1
235 846 1
235 889 1
235 1031 1
235 1169 1
235 1887 1
235 2123 1
235 2163 1
235 2492 1
235 2789 1
235 4085 1
235 4170 1
235 4215 1
235 4776 1
235 4788 1
235 5319 1
235 6110 1
235 6502 1
235 6881 1
235 7067 1
235 7383 1
235 7903 1
236 14 1
236 60 1
236 95 1
236 131 1
236 257 1
236 1237 1
236 1444 1
236 2596 1
236 3074 1
236 3264 1
236 4303 1
236 4424 1
236 4546 1
236 5070 1
236 6640 1
236 7606 1
236 8009 1
237 11 1
237 119 1
237 134 1
237 201 1
237 315 1
237 1750 1
237 1790 1
237 2612 1
237 4206 1
237 4284 1
237 5177 1
237 6189 1
237 6371 1
237 8259 1
238 13 1
238 16 1
238 65 1
238 184 1
238 437 1
238 510 1
238 651 1
238 704 1
238 1098 1
238 1259 1
238 1794 1
238 1797 1
238 2322 1
238 2880 1
238 2919 1
238 6821 1
238 7262 1
238 7685 1
238 8373 1
238 8918 1
238 8946 1
238 9134 1
238 9303 1
239 34 1
239 45 1
239 120 1
239 182 1
239 453 1
239 650 1
239 851 1
239 1085 1
239 1237 1
239 1315 1
239 2505 1
239 3351 1
239 3762 1
239 4551 1
239 5087 1
239 6857 1
239 7076 1
239 7138 1
239 8940 1
240 6 1
240 132 1
240 142 1
240 206 1
240 709 1
240 743 1
240 786 1
240 873 1
240 939 1
240 1186 1
240 1384 1
240 2067 1
240 2313 1
240 3007 1
240 3442 1
240 4595 1
240 5013 1
240 6503 1
240 9162 1
240 9724 1
240 9842 1
240 9872 1
241 4 1
241 7 1
241 107 1
241 115 1
241 291 1
241 512 1
241 566 1
241 664 1
241 721 1
241 1446 1
241 1916 1
241 2207 1
241 2742 1
241 2771 1
241 3195 1
241 3931 1
241 4766 1
241 5162 1
241 5887 1
241 7685 1
241 8097 1
241 8956 1
241 9901 1
242 5 1
242 19 1
242 63 1
242 111 1
242 1602 1
242 1615 1
242 8261 1
243 10 1
243 49 1
243 79 1
243 198 1
243 308 1
243 362 1
243 459 1
243 473 1
243 736 1
243 793 1
243 896 1
243 1111 1
243 1134 1
243 1231 1
243 1444 1
243 1598 1
243 1712 1
243 1888 1
243 1917 1
243 1993 1
243 2141 1
243 2241 1
243 3066 1
243 3098 1
243 3342 1
243 3577 1
243 6703 1
243 7165 1
243 7209 1
243 7634 1
243 8295 1
243 9791 1
244 42 1
244 74 1
244 105 1
244 120 1
244 563 1
244 575 1
244 581 1
244 623 1
244 781 1
244 879 1
244 984 1
244 1037 1
244 1051 1
244 1422 1
244 1468 1
244 1567 1
244 2016 1
244 2283 1
244 2297 1
244 2521 1
244 2820 1
244 3156 1
244 3186 1
244 3355 1
244 3382 1
244 4036 1
244 4530 1
244 4666 1
244 4784 1
244 5419 1
244 5724 1
244 5954 1
244 6251 1
244 6806 1
244 7224 1
244 7573 1
244 8088 1
244 8174 1
244 8241 1
244 8571 1
244 8573 1
245 35 1
245 104 1
245 120 1
245 171 1
245 628 1
245 637 1
245 1165 1
245 4611 1
245 5055 1
245 5921 1
245 6251 1
245 7339 1
245 8060 1
245 8670 1
245 9778 1
246 4 1
246 57 1
246 118 1
246 178 1
246 541 1
246 1626 1
246 1868 1
246 4140 1
246 4608 1
246 4806 1
246 6300 1
246 9947 1
247 19 1
247 62 1
247 93 1
247 117 1
247 376 1
247 666 1
247 1298 1
247 1411 1
247 1650 1
247 2799 1
247 3483 1
247 3815 1
247 4060 1
247 5456 1
247 6325 1
247 7653 1
247 8215 1
247 8621 1
247 9017 1
248 30 1
248 117 1
248 118 1
248 131 1
248 386 1
248 1018 1
248 3002 1
248 3567 1
248 4004 1
248 5119 1
248 7285 1
248 7520 1
248 8791 1
248 9265 1
249 51 1
249 76 1
249 188 1
249 213 1
249 580 1
249 585 1
249 1137 1
249 2117 1
249 3265 1
249 3315 1
249 3971 1
249 4825 1
249 5253 1
249 5738 1
250 26 1
250 79 1
250 96 1
250 149 1
250 356 1
250 575 1
250 817 1
250 983 1
250 1502 1
250 1757 1
250 2056 1
250 2511 1
250 2728 1
250 2897 1
250 3144 1
250 3667 1
250 5379 1
250 5544 1
250 5795 1
250 6338 1
250 7017 1
250 7223 1
250 8958 1
250 9785 1
251 6 1
251 7 1
251 29 1
251 137 1
251 255 1
251 335 1
251 446 1
251 562 1
251 706 1
251 810 1
251 1348 1
251 1821 1
251 1962 1
251 2863 1
251 3335 1
251 3394 1
251 4167 1
251 4484 1
251 5222 1
251 5397 1
251 6672 1
251 7464 1
251 7695 1
251 8736 1
251 9063 1
251 9490 1
251 9537 1
251 9767 1
252 10 1
252 12 1
252 60 1
252 78 1
252 384 1
252 504 1
252 684 1
252 2939 1
252 3309 1
252 5628 1
252 8192 1
252 8866 1
252 9256 1
252 9327 1
253 5 1
253 6 1
253 72 1
253 160 1
253 312 1
253 352 1
253 998 1
253 1223 1
253 1462 1
253 1936 1
253 2252 1
253 2716 1
253 3414 1
253 3613 1
253 3617 1
253 3910 1
253 4044 1
253 4269 1
253 4570 1
253 4987 1
253 5613 1
253 6448 1
253 6884 1
253 6979 1
253 7950 1
253 8164 1
253 8786 1
253 9357 1
253 9837 1
254 13 1
254 65 1
254 126 1
254 132 1
254 270 1
254 360 1
254 425 1
254 454 1
254 456 1
254 496 1
254 590 1
254 652 1
254 768 1
254 836 1
254 956 1
254 1160 1
254 1203 1
254 1233 1
254 1816 1
254 2006 1
254 2075 1
254 2108 1
254 2295 1
254 2389 1
254 2397 1
254 2643 1
254 2685 1
254 2774 1
254 2779 1
254 3306 1
254 3463 1
254 3800 1
254 3884 1
254 4487 1
254 4510 1
254 4794 1
254 5259 1
254 5261 1
254 5509 1
254 5721 1
254 7113 1
254 7707 1
254 8235 1
254 8395 1
254 8522 1
254 9505 1
254 9608 1
254 9776 1
255 23 1
255 31 1
255 107 1
255 251 1
255 550 1
255 946 1
255 1253 1
255 1505 1
255 1739 1
255 2727 1
255 3469 1
255 3592 1
255 4435 1
255 4498 1
255 5796 1
255 5803 1
255 7854 1
255 8531 1
255 9144 1
256 1 1
256 7 1
256 28 1
256 147 1
256 417 1
256 473 1
256 524 1
256 547 1
256 575 1
256 606 1
256 915 1
256 1023 1
256 1152 1
256 1242 1
256 1308 1
256 1485 1
256 1610 1
256 1628 1
256 1714 1
256 1889 1
256 1942 1
256 2045 1
256 2066 1
256 2144 1
256 2467 1
256 2674 1
256 2958 1
256 3471 1
256 3779 1
256 3806 1
256 3818 1
256 4231 1
256 4390 1
256 4736 1
256 4953 1
256 5417 1
256 6730 1
256 6963 1
256 7283 1
256 7702 1
256 7979 1
256 8051 1
256 8374 1
256 9026 1
256 9108 1
256 9557 1
256 9683 1
256 9771 1
256 9778 1
257 23 1
257 209 1
257 227 1
257 236 1
257 550 1
257 2198 1
257 2892 1
257 4210 1
257 6019 1
257 8826 1
258 20 1
258 64 1
258 119 1
258 134 1
258 789 1
258 1325 1
258 1542 1
258 2002 1
258 2512 1
258 3935 1
258 6067 1
258 7035 1
258 7176 1
258 7307 1
258 7971 1
258 9358 1
258 9657 1
259 6 1
259 13 1
259 26 1
259 91 1
259 278 1
259 319 1
259 756 1
259 798 1
259 915 1
259 949 1
259 963 1
259 1287 1
259 1508 1
259 1590 1
259 1970 1
259 2026 1
259 3238 1
259 3391 1
259 3672 1
259 4750 1
259 5367 1
259 5570 1
259 6042 1
259 6577 1
259 8470 1
259 8502 1
259 8849 1
259 8883 1
259 9723 1
259 9966 1
260 2 1
260 26 1
260 37 1
260 78 1
260 565 1
260 597 1
260 771 1
260 789 1
260 934 1
260 1263 1
260 1547 1
260 1557 1
260 2260 1
260 3058 1
260 3176 1
260 3634 1
260 3790 1
260 4095 1
260 4168 1
260 4174 1
260 4999 1
260 5472 1
260 5732 1
260 6649 1
260 7010 1
260 7154 1
260 7160 1
260 7238 1
260 7456 1
260 7517 1
260 8057 1
260 8217 1
260 8515 1
260 9142 1
260 9485 1
260 9721 1
261 5 1
261 10 1
261 68 1
261 152 1
261 872 1
261 1163 1
261 1255 1
261 2111 1
261 2187 1
261 2201 1
261 2290 1
261 2925 1
261 2943 1
261 3097 1
261 3166 1
261 4159 1
261 4954 1
261 6945 1
261 7334 1
261 8360 1
261 8649 1
262 8 1
262 28 1
262 72 1
262 139 1
262 377 1
262 809 1
262 3053 1
262 3098 1
262 3145 1
262 3405 1
262 3412 1
262 4642 1
262 4656 1
262 5036 1
262 5660 1
262 5676 1
262 7568 1
262 8170 1
262 8279 1
262 8831 1
263 31 1
263 163 1
263 184 1
263 199 1
263 272 1
263 284 1
263 565 1
263 706 1
263 735 1
263 1194 1
263 1231 1
263 1649 1
263 2104 1
263 2122 1
263 2135 1
263 3020 1
263 3637 1
263 3721 1
263 4075 1
263 4305 1
263 4902 1
263 5023 1
263 7053 1
263 7429 1
263 7476 1
263 7880 1
263 8594 1
263 9018 1
263 9047 1
263 9092 1
263 9659 1
264 14 1
264 17 1
264 115 1
264 116 1
264 371 1
264 550 1
264 669 1
264 717 1
264 745 1
264 783 1
264 795 1
264 861 1
264 901 1
264 1101 1
264 1179 1
264 1646 1
264 1775 1
264 2009 1
264 2139 1
264 2177 1
264 2321 1
264 2357 1
264 2400 1
264 2771 1
264 3215 1
264 3281 1
264 4626 1
264 5163 1
264 5871 1
264 6356 1
264 6639 1
264 6878 1
264 6925 1
264 7527 1
264 7685 1
264 8947 1
264 9494 1
264 9678 1
265 24 1
265 76 1
265 166 1
265 207 1
265 419 1
265 428 1
265 851 1
265 1028 1
265 1593 1
265 1630 1
265 1699 1
265 2149 1
265 2253 1
265 2353 1
265 2922 1
265 3552 1
265 3920 1
265 4368 1
265 4538 1
265 5032 1
265 6392 1
265 7934 1
265 7990 1
265 8626 1
265 9506 1
265 9944 1
266 13 1
266 68 1
266 117 1
266 188 1
266 288 1
266 297 1
266 417 1
266 763 1
266 829 1
266 925 1
266 1307 1
266 1489 1
266 1522 1
266 1667 1
266 2157 1
266 2175 1
266 3073 1
266 3466 1
266 3681 1
266 3748 1
266 5175 1
266 5260 1
266 5708 1
266 7391 1
266 9002 1
267 2 1
267 26 1
267 121 1
267 184 1
267 351 1
267 427 1
267 438 1
267 497 1
267 589 1
267 716 1
267 968 1
267 1001 1
267 1155 1
267 1163 1
267 1374 1
267 1474 1
267 1784 1
267 1959 1
267 2049 1
267 2079 1
267 2185 1
267 2255 1
267 2401 1
267 2558 1
267 2593 1
267 2657 1
267 2783 1
267 2948 1
267 2956 1
267 3016 1
267 3031 1
267 3042 1
267 3815 1
267 3893 1
267 3983 1
267 4390 1
267 4899 1
267 5054 1
267 5187 1
267 5423 1
267 5739 1
267 6094 1
267 6295 1
267 6650 1
267 6723 1
267 7149 1
267 7466 1
267 7610 1
267 8310 1
267 8692 1
268 79 1
268 122 1
268 149 1
268 229 1
268 592 1
268 774 1
268 893 1
268 927 1
268 1089 1
268 1254 1
268 1469 1
268 1549 1
268 1645 1
268 2336 1
268 2826 1
268 2980 1
268 3385 1
268 4740 1
268 4768 1
268 4818 1
268 5698 1
268 6038 1
268 6119 1
268 6126 1
268 6172 1
268 6675 1
268 7377 1
268 7575 1
268 9564 1
269 14 1
269 29 1
269 94 1
269 214 1
269 681 1
269 896 1
269 2320 1
269 3193 1
269 4118 1
269 4426 1
269 5714 1
269 7279 1
269 7327 1
269 8876 1
270 5 1
270 27 1
270 43 1
270 254 1
270 368 1
270 465 1
270 577 1
270 579 1
270 683 1
270 1361 1
270 1839 1
270 2228 1
270 2574 1
270 2857 1
270 2928 1
270 3112 1
270 3329 1
270 3605 1
270 4433 1
270 4976 1
270 5374 1
270 5764 1
270 6077 1
270 6615 1
270 6760 1
270 7308 1
270 7688 1
270 8015 1
270 8687 1
270 9000 1
270 9127 1
270 9604 1
271 9 1
271 12 1
271 122 1
271 134 1
271 286 1
271 321 1
271 453 1
271 514 1
271 574 1
271 806 1
271 904 1
271 909 1
271 954 1
271 1208 1
271 1360 1
271 1505 1
271 1740 1
271 1944 1
271 2027 1
271 2766 1
271 3072 1
271 3099 1
271 3154 1
271 3280 1
271 3445 1
271 3493 1
271 3587 1
271 3822 1
271 4170 1
271 4267 1
271 5201 1
271 5321 1
271 5380 1
271 5688 1
271 5916 1
271 6724 1
271 7584 1
271 7695 1
271 7774 1
271 8103 1
271 8496 1
271 8965 1
271 9054 1
271 9613 1
271 9937 1
271 9958 1
272 65 1
272 184 1
272 218 1
272 263 1
272 677 1
272 773 1
272 786 1
272 930 1
272 994 1
272 1020 1
272 1052 1
272 1286 1
272 1388 1
272 1645 1
272 1748 1
272 1814 1
272 2014 1
272 2236 1
272 2486 1
272 2832 1
272 3505 1
272 3646 1
272 4193 1
272 4634 1
272 5057 1
272 5331 1
272 5486 1
272 5633 1
272 5836 1
272 7318 1
272 7484 1
272 7783 1
272 7813 1
272 8182 1
272 9582 1
273 11 1
273 16 1
273 70 1
273 235 1
273 289 1
273 342 1
273 347 1
273 353 1
273 408 1
273 413 1
273 478 1
273 613 1
273 752 1
273 818 1
273 943 1
273 957 1
273 996 1
273 1005 1
273 1491 1
273 1660 1
273 1926 1
273 2112 1
273 2124 1
273 2224 1
273 3057 1
273 4401 1
273 4656 1
273 5085 1
273 5119 1
273 5677 1
273 5819 1
273 6326 1
273 7824 1
273 8238 1
273 8286 1
273 8717 1
273 9384 1
273 9445 1
273 9456 1
273 9485 1
273 9875 1
274 19 1
274 89 1
274 91 1
274 198 1
274 327 1
274 343 1
274 365 1
274 734 1
274 738 1
274 1023 1
274 1033 1
274 1077 1
274 1686 1
274 1840 1
274 2350 1
274 2807 1
274 2865 1
274 3335 1
274 3867 1
274 3970 1
274 4562 1
274 4607 1
274 4653 1
274 5225 1
274 5354 1
274 6008 1
274 6054 1
274 6931 1
274 7034 1
274 8572 1
274 8848 1
274 9640 1
275 9 1
275 14 1
275 154 1
275 191 1
275 436 1
275 747 1
275 757 1
275 901 1
275 1092 1
275 1382 1
275 1413 1
275 1480 1
275 1553 1
275 1591 1
275 2018 1
275 2235 1
275 2264 1
275 2654 1
275 3129 1
275 3212 1
275 3591 1
275 4516 1
275 4701 1
275 6908 1
275 7212 1
275 7234 1
275 7793 1
275 8048 1
275 8192 1
275 8346 1
275 9800 1
276 8 1
276 65 1
276 79 1
276 210 1
276 2014 1
276 6183 1
276 6232 1
277 6 1
277 17 1
277 97 1
277 120 1
277 342 1
277 415 1
277 574 1
277 683 1
277 1003 1
277 1246 1
277 1248 1
277 1338 1
277 1446 1
277 1530 1
277 1569 1
277 1807 1
277 2012 1
277 2591 1
277 2702 1
277 2843 1
277 3066 1
277 3070 1
277 3373 1
277 3625 1
277 3635 1
277 3724 1
277 3810 1
277 4166 1
277 4199 1
277 4695 1
277 5736 1
277 5778 1
277 6290 1
277 6301 1
277 6486 1
277 6513 1
277 6730 1
277 6823 1
277 7401 1
277 7626 1
277 7675 1
277 7919 1
277 8483 1
277 8709 1
277 8929 1
278 4 1
278 147 1
278 220 1
278 259 1
278 364 1
278 465 1
278 514 1
278 1014 1
278 1074 1
278 1182 1
278 1183 1
278 1195 1
278 1218 1
278 1376 1
278 1508 1
278 2101 1
278 2468 1
278 2557 1
278 2639 1
278 3404 1
278 4311 1
278 4605 1
278 4833 1
278 5027 1
278 5931 1
278 6205 1
278 6781 1
278 7099 1
278 7398 1
278 8292 1
278 8857 1
279 10 1
279 62 1
279 74 1
279 158 1
279 290 1
279 464 1
279 491 1
279 547 1
279 625 1
279 799 1
279 805 1
279 1471 1
279 1626 1
279 1852 1
279 2984 1
279 3350 1
279 3715 1
279 4504 1
279 4795 1
279 4806 1
279 4897 1
279 5427 1
279 5444 1
279 5900 1
279 5991 1
279 6575 1
279 7264 1
279 7820 1
279 8068 1
279 8952 1
279 9948 1
280 19 1
280 103 1
280 165 1
280 212 1
280 343 1
280 1315 1
280 1568 1
280 1779 1
280 2245 1
280 3702 1
280 4734 1
280 5533 1
280 5976 1
280 7634 1
280 8521 1
280 9966 1
281 27 1
281 89 1
281 152 1
281 181 1
281 302 1
281 431 1
281 460 1
281 564 1
281 638 1
281 720 1
281 806 1
281 830 1
281 837 1
281 932 1
281 1189 1
281 1211 1
281 1400 1
281 1800 1
281 1850 1
281 1877 1
281 1899 1
281 2009 1
281 2051 1
281 2134 1
281 2365 1
281 2538 1
281 2647 1
281 2893 1
281 2911 1
281 2931 1
281 3277 1
281 3381 1
281 3779 1
281 3805 1
281 4050 1
281 4164 1
281 4309 1
281 4355 1
281 4788 1
281 4866 1
281 4932 1
281 5055 1
281 5226 1
281 5334 1
281 5340 1
281 5619 1
281 5806 1
281 5899 1
281 6082 1
281 6189 1
281 6566 1
281 6575 1
281 6585 1
281 7038 1
281 7163 1
281 7737 1
281 7875 1
281 7894 1
281 8180 1
281 8378 1
281 8380 1
281 8422 1
281 8468 1
281 8563 1
281 8955 1
281 9216 1
281 9463 1
281 9690 1
282 17 1
282 58 1
282 93 1
282 218 1
282 405 1
282 410 1
282 518 1
282 600 1
282 603 1
282 870 1
282 966 1
282 1052 1
282 1466 1
282 1584 1
282 1797 1
282 2412 1
282 2497 1
282 3888 1
282 3935 1
282 4033 1
282 4247 1
282 4497 1
282 4775 1
282 4879 1
282 5290 1
282 5533 1
282 5616 1
282 5800 1
282 6140 1
282 6211 1
282 6553 1
282 7214 1
282 7223 1
282 7994 1
282 8548 1
282 8553 1
282 9480 1
282 9538 1
282 9544 1
283 8 1
283 126 1
283 210 1
283 233 1
283 288 1
283 352 1
283 484 1
283 698 1
283 725 1
283 5063 1
283 7245 1
283 8920 1
283 9683 1
284 10 1
284 56 1
284 138 1
284 263 1
284 324 1
284 2193 1
284 2222 1
284 4915 1
284 4921 1
284 5397 1
284 6629 1
284 8313 1
284 8588 1
285 98 1
285 121 1
285 133 1
285 210 1
285 301 1
285 540 1
285 562 1
285 599 1
285 606 1
285 703 1
285 780 1
285 840 1
285 1473 1
285 1753 1
285 1820 1
285 1983 1
285 2039 1
285 2423 1
285 2507 1
285 3079 1
285 3182 1
285 4061 1
285 4954 1
285 6728 1
285 6879 1
285 7510 1
285 7596 1
285 7652 1
285 9148 1
285 9455 1
285 9667 1
286 17 1
286 48 1
286 79 1
286 271 1
286 297 1
286 377 1
286 402 1
286 415 1
286 612 1
286 656 1
286 727 1
286 827 1
286 1107 1
286 1330 1
286 1580 1
286 1759 1
286 1772 1
286 2217 1
286 3574 1
286 4246 1
286 4787 1
286 4820 1
286 5484 1
286 5754 1
286 5957 1
286 7082 1
286 7239 1
286 8687 1
286 8859 1
286 9434 1
286 9654 1
286 9862 1
287 45 1
287 121 1
287 165 1
287 225 1
287 327 1
287 800 1
287 844 1
287 875 1
287 899 1
287 1110 1
287 1220 1
287 1390 1
287 1932 1
287 2084 1
287 2340 1
287 2505 1
287 2616 1
287 3210 1
287 3503 1
287 3581 1
287 3632 1
287 3679 1
287 3849 1
287 3930 1
287 3982 1
287 4105 1
287 4109 1
287 4346 1
287 4548 1
287 5349 1
287 6274 1
287 6317 1
287 7791 1
287 8911 1
288 22 1
288 34 1
288 266 1
288 283 1
288 297 1
288 347 1
288 434 1
288 435 1
288 610 1
288 651 1
288 802 1
288 937 1
288 948 1
288 1043 1
288 1105 1
288 1108 1
288 1310 1
288 1319 1
288 1693 1
288 1809 1
288 2270 1
288 2393 1
288 2463 1
288 2721 1
288 2773 1
288 2934 1
288 3004 1
288 3511 1
288 3558 1
288 3621 1
288 3928 1
288 4133 1
288 4301 1
288 4507 1
288 4906 1
288 4914 1
288 6214 1
288 6419 1
288 6744 1
288 7760 1
288 7881 1
288 8155 1
288 8617 1
288 9125 1
289 26 1
289 31 1
289 96 1
289 273 1
289 350 1
289 539 1
289 541 1
289 544 1
289 688 1
289 701 1
289 844 1
289 1134 1
289 1439 1
289 1470 1
289 1484 1
289 1725 1
289 1901 1
289 2538 1
289 2605 1
289 2636 1
289 2814 1
289 2861 1
289 2972 1
289 3021 1
289 3238 1
289 3367 1
289 3457 1
289 3479 1
289 3716 1
289 4712 1
289 4815 1
289 5264 1
289 5334 1
289 5365 1
289 5402 1
289 5476 1
289 5582 1
289 6131 1
289 6633 1
289 7413 1
289 8143 1
289 8191 1
289 8304 1
289 9443 1
289 9701 1
290 11 1
290 141 1
290 148 1
290 279 1
290 493 1
290 621 1
290 723 1
290 996 1
290 1044 1
290 1108 1
290 1151 1
290 1184 1
290 1409 1
290 1712 1
290 1796 1
290 2673 1
290 4042 1
290 5112 1
290 5120 1
290 5129 1
290 5591 1
290 6326 1
290 6330 1
290 7587 1
290 8236 1
290 8485 1
290 9827 1
291 1 1
291 6 1
291 21 1
291 241 1
291 890 1
292 6 1
292 11 1
292 29 1
292 67 1
292 3071 1
292 4948 1
292 6165 1
292 6274 1
292 6922 1
292 7325 1
292 8116 1
293 10 1
293 12 1
293 166 1
293 219 1
293 567 1
293 681 1
293 706 1
293 742 1
293 837 1
293 879 1
293 1166 1
293 1170 1
293 1438 1
293 1477 1
293 1478 1
293 1536 1
293 1546 1
293 2732 1
293 2744 1
293 2891 1
293 2945 1
293 3051 1
293 3117 1
293 3267 1
293 3299 1
293 3765 1
293 4185 1
293 4556 1
293 6148 1
293 7398 1
293 7445 1
293 7531 1
293 7725 1
293 9137 1
294 6 1
294 32 1
294 61 1
294 142 1
294 731 1
294 1389 1
294 1817 1
294 1983 1
294 1985 1
294 1994 1
294 2228 1
294 2403 1
294 2566 1
294 2824 1
294 3592 1
294 4275 1
294 5373 1
294 5696 1
294 6008 1
294 6689 1
294 7072 1
294 7363 1
294 8086 1
294 8291 1
294 8745 1
294 9568 1
295 54 1
295 60 1
295 153 1
295 233 1
295 422 1
295 661 1
295 1258 1
295 1317 1
295 1332 1
295 1459 1
295 1822 1
295 1989 1
295 2072 1
295 2081 1
295 2103 1
295 2230 1
295 2270 1
295 2451 1
295 2747 1
295 2893 1
295 3290 1
295 3846 1
295 3884 1
295 4094 1
295 4185 1
295 4200 1
295 4332 1
295 4434 1
295 4446 1
295 4692 1
295 5244 1
295 5247 1
295 5411 1
295 5705 1
295 5726 1
295 5838 1
295 7189 1
295 7248 1
295 7302 1
295 7767 1
295 8119 1
295 8249 1
295 8605 1
295 9470 1
295 9498 1
296 49 1
296 63 1
296 65 1
296 204 1
296 533 1
296 633 1
296 772 1
296 1649 1
296 2160 1
296 3330 1
296 3353 1
296 3895 1
296 4220 1
296 4348 1
296 5537 1
296 6551 1
296 6841 1
296 7462 1
296 8199 1
296 8211 1
297 6 1
297 266 1
297 286 1
297 288 1
297 562 1
297 1133 1
297 1265 1
297 1367 1
297 1486 1
297 1521 1
297 2148 1
297 2166 1
297 2573 1
297 2783 1
297 3545 1
297 3586 1
297 3675 1
297 4018 1
297 5567 1
297 9230 1
297 9297 1
297 9604 1
298 1 1
298 5 1
298 11 1
298 27 1
298 329 1
298 426 1
298 778 1
298 808 1
298 1116 1
298 1492 1
298 1787 1
298 1836 1
298 2036 1
298 2105 1
298 2281 1
298 3263 1
298 3280 1
298 3321 1
298 3435 1
298 3677 1
298 4302 1
298 4325 1
298 4475 1
298 5173 1
298 6063 1
298 6297 1
298 7069 1
298 7379 1
298 7793 1
298 9032 1
298 9505 1
299 8 1
299 14 1
299 85 1
299 219 1
299 797 1
299 823 1
299 2528 1
299 2955 1
299 3407 1
299 3441 1
299 4761 1
299 9448 1
300 47 1
300 80 1
300 182 1
300 230 1
300 475 1
300 679 1
300 960 1
300 1033 1
300 1241 1
300 1319 1
300 1438 1
300 1847 1
300 3245 1
300 3564 1
300 6636 1
300 7695 1
300 7992 1
300 8804 1
300 9627 1
301 1 1
301 88 1
301 218 1
301 285 1
301 316 1
301 456 1
301 461 1
301 654 1
301 686 1
301 761 1
301 790 1
301 882 1
301 923 1
301 972 1
301 1129 1
301 1130 1
301 1925 1
301 2633 1
301 2832 1
301 3330 1
301 3390 1
301 3457 1
301 3749 1
301 4441 1
301 4453 1
301 4472 1
301 4597 1
301 4776 1
301 5471 1
301 5728 1
301 6053 1
301 6241 1
301 6263 1
301 6427 1
301 7225 1
301 8010 1
301 8058 1
301 8396 1
301 8471 1
301 9116 1
301 9231 1
301 9253 1
301 9851 1
301 9859 1
302 184 1
302 188 1
302 215 1
302 281 1
302 388 1
302 702 1
302 827 1
302 1723 1
302 2118 1
302 3525 1
302 4348 1
302 7004 1
302 7487 1
302 8279 1
302 9435 1
303 37 1
303 78 1
303 101 1
303 188 1
303 319 1
303 452 1
303 516 1
303 858 1
303 1109 1
303 1225 1
303 1427 1
303 1831 1
303 1857 1
303 2040 1
303 2590 1
303 3717 1
303 4111 1
303 4829 1
303 5708 1
303 5945 1
303 5978 1
303 6113 1
303 6613 1
303 7589 1
303 7638 1
303 7669 1
303 7745 1
303 8513 1
303 8555 1
303 9334 1
303 9958 1
304 5 1
304 17 1
304 104 1
304 117 1
304 539 1
304 989 1
304 1008 1
304 1238 1
304 1319 1
304 2143 1
304 3025 1
304 3581 1
304 4003 1
304 4258 1
304 4864 1
304 5498 1
304 5982 1
304 6119 1
304 6535 1
304 8149 1
304 8202 1
304 8843 1
304 9401 1
305 1 1
305 19 1
305 83 1
305 105 1
305 321 1
305 322 1
305 566 1
305 648 1
305 712 1
305 736 1
305 1306 1
305 1919 1
305 2171 1
305 2293 1
305 2429 1
305 2453 1
305 3433 1
305 3468 1
305 3753 1
305 3759 1
305 3788 1
305 4486 1
305 4503 1
305 5584 1
305 5732 1
305 5835 1
305 5941 1
305 6132 1
305 6231 1
305 7567 1
305 7768 1
305 8214 1
305 9042 1
305 9469 1
305 9717 1
305 9965 1
306 6 1
306 65 1
306 96 1
306 195 1
306 315 1
306 728 1
306 1066 1
306 1170 1
306 1344 1
306 1863 1
306 2150 1
306 2398 1
306 2465 1
306 2882 1
306 3055 1
306 4130 1
306 5288 1
306 5432 1
306 6218 1
306 6384 1
306 6687 1
306 8008 1
306 8235 1
306 9880 1
306 9984 1
307 10 1
307 33 1
307 138 1
307 190 1
307 324 1
307 663 1
307 798 1
307 848 1
307 1044 1
307 1084 1
307 1098 1
307 1350 1
307 1365 1
307 2055 1
307 2341 1
307 2524 1
307 2851 1
307 2907 1
307 2983 1
307 3401 1
307 3660 1
307 3686 1
307 3702 1
307 4299 1
307 4925 1
307 4929 1
307 5154 1
307 5360 1
307 6255 1
307 6895 1
307 7686 1
307 8793 1
307 9268 1
307 9367 1
308 48 1
308 149 1
308 211 1
308 243 1
308 329 1
308 755 1
308 829 1
308 1139 1
308 1233 1
308 1701 1
308 1716 1
308 1856 1
308 2965 1
308 3024 1
308 4168 1
308 4306 1
308 4447 1
308 4491 1
308 4830 1
308 4987 1
308 5330 1
308 5395 1
308 6520 1
308 7800 1
308 8636 1
308 9042 1
308 9296 1
308 9314 1
308 9674 1
309 5 1
309 6 1
309 31 1
309 47 1
309 353 1
309 427 1
309 538 1
309 559 1
309 677 1
309 934 1
309 1073 1
309 1079 1
309 1136 1
309 1892 1
309 1961 1
309 2115 1
309 2133 1
309 2492 1
309 2809 1
309 3135 1
309 3229 1
309 3241 1
309 3284 1
309 3752 1
309 4246 1
309 4434 1
309 4540 1
309 5356 1
309 5662 1
309 7086 1
309 7949 1
309 8126 1
309 9238 1
309 9347 1
310 6 1
310 84 1
310 100 1
310 110 1
310 364 1
310 693 1
310 947 1
310 2274 1
310 2292 1
310 2597 1
310 3072 1
310 3183 1
310 3184 1
310 3423 1
310 3526 1
310 3630 1
310 3712 1
310 3764 1
310 4769 1
310 5403 1
310 5463 1
310 5522 1
310 5563 1
310 6221 1
310 6407 1
310 6758 1
310 7002 1
310 7738 1
310 8345 1
310 9196 1
310 9270 1
310 9325 1
311 3 1
311 6 1
311 15 1
311 45 1
311 570 1
311 636 1
311 1246 1
311 5037 1
311 7155 1
311 8784 1
312 38 1
312 72 1
312 78 1
312 253 1
312 313 1
312 334 1
312 552 1
312 847 1
312 925 1
312 1278 1
312 1304 1
312 1395 1
312 2121 1
312 3266 1
312 3636 1
312 4376 1
312 4386 1
312 4772 1
312 4885 1
312 5298 1
312 5436 1
312 6274 1
312 7195 1
312 7563 1
312 8162 1
312 8576 1
312 8764 1
312 9187 1
312 9220 1
312 9241 1
312 9857 1
313 6 1
313 13 1
313 78 1
313 312 1
313 348 1
313 430 1
313 595 1
313 707 1
313 950 1
313 1533 1
313 1684 1
313 1889 1
313 2316 1
313 2383 1
313 2435 1
313 2441 1
313 2599 1
313 2782 1
313 2920 1
313 2972 1
313 3014 1
313 3206 1
313 3427 1
313 3691 1
313 3792 1
313 3842 1
313 4024 1
313 4072 1
313 4087 1
313 4281 1
313 4617 1
313 5409 1
313 5605 1
313 5989 1
313 6258 1
313 7239 1
313 7443 1
313 8114 1
313 9092 1
314 1 1
314 8 1
314 19 1
314 72 1
314 408 1
314 539 1
314 598 1
314 728 1
314 1029 1
314 1296 1
314 1497 1
314 1709 1
314 1741 1
314 2193 1
314 3155 1
314 4299 1
314 6278 1
314 6920 1
314 7381 1
314 7493 1
314 7978 1
314 7998 1
314 9351 1
314 9527 1
314 9992 1
315 176 1
315 229 1
315 237 1
315 306 1
315 357 1
315 504 1
315 877 1
315 1481 1
315 1874 1
315 9212 1
315 9462 1
316 37 1
316 38 1
316 47 1
316 301 1
316 328 1
316 497 1
316 559 1
316 912 1
316 1011 1
316 1061 1
316 1409 1
316 1416 1
316 1681 1
316 1763 1
316 2158 1
316 2272 1
316 2886 1
316 3722 1
316 3909 1
316 4293 1
316 5093 1
316 5176 1
316 5972 1
316 6595 1
316 7415 1
316 7459 1
316 9850 1
317 28 1
317 93 1
317 122 1
317 131 1
317 1471 1
317 3252 1
317 3500 1
317 3756 1
317 4605 1
317 5551 1
317 5736 1
317 6407 1
317 6656 1
317 6723 1
317 8356 1
318 3 1
318 4 1
318 66 1
318 97 1
318 479 1
318 711 1
318 1689 1
318 2868 1
318 3350 1
318 4441 1
318 4658 1
318 4796 1
318 6390 1
318 6982 1
318 7092 1
318 9722 1
319 30 1
319 172 1
319 259 1
319 303 1
319 332 1
319 388 1
319 487 1
319 594 1
319 995 1
319 1042 1
319 1088 1
319 1094 1
319 1119 1
319 1136 1
319 1197 1
319 1330 1
319 1514 1
319 1665 1
319 1877 1
319 2022 1
319 2381 1
319 2502 1
319 3325 1
319 3766 1
319 3988 1
319 4024 1
319 5145 1
319 6050 1
319 9565 1
320 11 1
320 56 1
320 83 1
320 190 1
320 338 1
320 453 1
320 543 1
320 1764 1
320 1795 1
320 2950 1
320 3432 1
320 3732 1
320 4425 1
320 4490 1
320 4575 1
320 4753 1
320 4831 1
320 4899 1
320 5427 1
320 6223 1
320 7301 1
320 7928 1
320 8346 1
320 8670 1
320 8993 1
321 48 1
321 76 1
321 271 1
321 305 1
321 381 1
321 1598 1
321 2512 1
321 4852 1
321 5024 1
321 7843 1
321 8268 1
321 8288 1
321 9518 1
322 6 1
322 85 1
322 186 1
322 305 1
322 427 1
322 461 1
322 754 1
322 1487 1
322 1623 1
322 1978 1
322 2038 1
322 2659 1
322 2723 1
322 3602 1
322 4678 1
322 5163 1
322 6358 1
323 55 1
323 65 1
323 184 1
323 222 1
323 365 1
323 435 1
323 439 1
323 502 1
323 559 1
323 814 1
323 1032 1
323 1055 1
323 1131 1
323 1342 1
323 1428 1
323 1705 1
323 1803 1
323 1983 1
323 2061 1
323 2088 1
323 2303 1
323 2419 1
323 2565 1
323 2644 1
323 3250 1
323 3252 1
323 3311 1
323 3674 1
323 3890 1
323 3893 1
323 3962 1
323 3987 1
323 4855 1
323 5021 1
323 5169 1
323 5318 1
323 5521 1
323 5813 1
323 6942 1
323 7079 1
323 7467 1
323 7476 1
323 7838 1
323 8421 1
323 8629 1
323 8805 1
323 9377 1
324 153 1
324 220 1
324 284 1
324 307 1
324 486 1
324 602 1
324 603 1
324 644 1
324 1071 1
324 1594 1
324 2021 1
324 6789 1
324 7485 1
324 8817 1
324 9206 1
325 3 1
325 17 1
325 49 1
325 210 1
325 373 1
325 465 1
325 532 1
325 896 1
325 1032 1
325 1451 1
325 1715 1
325 1909 1
325 2018 1
325 2715 1
325 2801 1
325 3355 1
325 3724 1
325 3868 1
325 4377 1
325 4630 1
325 4893 1
325 5221 1
325 6069 1
325 6772 1
325 6939 1
325 7217 1
325 8720 1
325 8784 1
325 8944 1
326 8 1
326 78 1
326 229 1
326 234 1
326 372 1
326 856 1
326 940 1
326 962 1
326 1849 1
326 2920 1
326 3307 1
326 5519 1
326 5727 1
326 5759 1
326 6259 1
326 6859 1
326 7052 1
326 7993 1
326 8045 1
326 8427 1
326 9458 1
327 9 1
327 233 1
327 274 1
327 287 1
327 438 1
327 577 1
327 874 1
327 1072 1
327 1503 1
327 1888 1
327 4087 1
327 4744 1
327 5074 1
327 5282 1
327 5522 1
327 6812 1
327 7236 1
327 7703 1
327 7905 1
327 8275 1
327 8293 1
328 17 1
328 24 1
328 111 1
328 316 1
328 347 1
328 1590 1
328 2208 1
328 2447 1
328 2912 1
328 3029 1
328 3560 1
328 3629 1
328 3921 1
328 4289 1
328 5176 1
328 5656 1
328 6391 1
328 6457 1
328 6550 1
328 6895 1
328 7184 1
328 7725 1
328 9035 1
328 9258 1
328 9372 1
328 9546 1
328 9879 1
329 19 1
329 152 1
329 298 1
329 308 1
329 435 1
329 440 1
329 681 1
329 686 1
329 1204 1
329 1244 1
329 1790 1
329 1836 1
329 2166 1
329 2609 1
329 2643 1
329 3730 1
329 3791 1
329 4755 1
329 4812 1
329 4949 1
329 5103 1
329 5783 1
329 5928 1
329 6384 1
329 6399 1
329 6618 1
329 6635 1
329 7203 1
329 7573 1
329 7719 1
329 7848 1
329 8136 1
330 11 1
330 13 1
330 139 1
330 176 1
330 336 1
330 596 1
330 839 1
330 1102 1
330 1107 1
330 1163 1
330 1517 1
330 1933 1
330 2082 1
330 2090 1
330 2183 1
330 2537 1
330 3187 1
330 3496 1
330 4125 1
330 5615 1
330 6005 1
330 6955 1
330 7019 1
330 7175 1
330 8383 1
330 9742 1
330 9977 1
331 11 1
331 31 1
331 83 1
331 91 1
331 2065 1
331 2130 1
331 2535 1
331 3639 1
331 3933 1
331 4573 1
331 5718 1
331 6258 1
331 7509 1
332 23 1
332 24 1
332 45 1
332 319 1
332 1959 1
332 4175 1
332 5353 1
332 6657 1
332 7568 1
332 9277 1
333 24 1
333 41 1
333 180 1
333 218 1
333 1251 1
333 1980 1
333 2123 1
333 2607 1
333 4056 1
333 4925 1
333 6678 1
333 6994 1
334 28 1
334 43 1
334 89 1
334 312 1
334 350 1
334 1221 1
334 1666 1
334 2943 1
334 3081 1
334 3193 1
334 4179 1
334 4306 1
334 7743 1
335 56 1
335 81 1
335 221 1
335 251 1
335 416 1
335 443 1
335 508 1
335 532 1
335 885 1
335 941 1
335 1504 1
335 1620 1
335 1719 1
335 1927 1
335 2078 1
335 2128 1
335 2268 1
335 2459 1
335 2488 1
335 3274 1
335 3352 1
335 3907 1
335 4005 1
335 4731 1
335 5105 1
335 5550 1
335 5842 1
335 6416 1
335 7267 1
335 8462 1
335 8936 1
335 9894 1
335 9993 1
336 1 1
336 3 1
336 6 1
336 330 1
336 533 1
336 1995 1
336 2131 1
336 3239 1
336 3351 1
336 4662 1
336 4992 1
336 5194 1
336 7364 1
336 9048 1
336 9700 1
337 9 1
337 58 1
337 196 1
337 234 1
337 831 1
337 1443 1
337 1829 1
337 1973 1
337 3082 1
338 26 1
338 139 1
338 197 1
338 320 1
338 570 1
338 1198 1
338 1214 1
338 1559 1
338 1755 1
338 1946 1
338 1969 1
338 2099 1
338 2845 1
338 3894 1
338 4699 1
338 4840 1
338 5054 1
338 5365 1
338 5569 1
338 5711 1
338 6371 1
338 7842 1
338 8662 1
338 8771 1
338 8914 1
339 19 1
339 59 1
339 92 1
339 127 1
339 535 1
339 671 1
339 674 1
339 744 1
339 836 1
339 1001 1
339 1067 1
339 1414 1
339 1585 1
339 1713 1
339 1883 1
339 2157 1
339 2278 1
339 2391 1
339 2631 1
339 2838 1
339 3132 1
339 3477 1
339 3787 1
339 3878 1
339 4154 1
339 4338 1
339 4977 1
339 5006 1
339 5293 1
339 5899 1
339 6225 1
339 7434 1
339 8061 1
339 8108 1
339 8742 1
339 8895 1
339 9093 1
339 9141 1
339 9160 1
339 9641 1
339 9691 1
340 13 1
340 16 1
340 19 1
340 21 1
340 398 1
340 721 1
340 1571 1
340 1624 1
340 1714 1
340 3838 1
340 4645 1
340 5372 1
340 5474 1
340 5551 1
340 6919 1
340 6943 1
340 6978 1
340 7248 1
340 7797 1
340 8188 1
340 8635 1
340 9851 1
340 9862 1
341 39 1
341 137 1
341 157 1
341 234 1
341 534 1
341 629 1
341 971 1
341 1003 1
341 1041 1
341 1478 1
341 1826 1
341 2059 1
341 2151 1
341 2186 1
341 2579 1
341 2626 1
341 2677 1
341 2761 1
341 2775 1
341 3414 1
341 3644 1
341 3803 1
341 4869 1
341 4979 1
341 5184 1
341 5584 1
341 6182 1
341 6596 1
341 6777 1
341 7442 1
341 7638 1
341 7839 1
341 8412 1
341 8744 1
341 8897 1
341 9171 1
341 9617 1
341 9987 1
342 19 1
342 65 1
342 273 1
342 277 1
342 792 1
342 1747 1
342 1818 1
342 1971 1
342 2766 1
342 5641 1
342 8344 1
342 9600 1
343 11 1
343 138 1
343 274 1
343 280 1
343 749 1
343 2097 1
343 2159 1
343 2556 1
343 4453 1
343 5353 1
343 5387 1
343 6708 1
343 8620 1
344 26 1
344 36 1
344 101 1
344 167 1
344 1221 1
344 1669 1
344 4054 1
344 5811 1
344 6854 1
345 5 1
345 21 1
345 67 1
345 137 1
345 444 1
345 602 1
345 1402 1
345 1947 1
345 2025 1
345 2764 1
345 3062 1
345 3736 1
345 5085 1
345 5107 1
345 6028 1
345 7112 1
345 8714 1
345 9251 1
346 25 1
346 42 1
346 131 1
346 137 1
346 813 1
346 1068 1
346 1661 1
346 1793 1
346 1877 1
346 2819 1
346 3166 1
346 3550 1
346 6149 1
346 6255 1
346 7898 1
346 9045 1
347 22 1
347 273 1
347 288 1
347 328 1
347 663 1
347 718 1
347 964 1
347 1266 1
347 1367 1
347 1898 1
347 2125 1
347 2620 1
347 2834 1
347 2919 1
347 3077 1
347 3135 1
347 3288 1
347 4106 1
347 4399 1
347 5204 1
347 5294 1
347 5393 1
347 5782 1
347 5860 1
347 6308 1
347 6591 1
347 6689 1
347 6865 1
347 7357 1
347 7939 1
347 7950 1
347 8358 1
347 8398 1
348 6 1
348 25 1
348 227 1
348 313 1
348 649 1
348 1957 1
348 2332 1
348 2704 1
348 2793 1
348 3982 1
348 5884 1
348 6844 1
348 8550 1
349 10 1
349 91 1
349 152 1
349 178 1
349 544 1
349 1001 1
349 1167 1
349 1598 1
349 2365 1
349 2866 1
349 4295 1
350 134 1
350 234 1
350 289 1
350 334 1
350 403 1
350 605 1
350 896 1
350 9081 1
351 32 1
351 48 1
351 70 1
351 267 1
351 920 1
351 1825 1
351 1977 1
351 2425 1
351 2860 1
351 2875 1
351 2968 1
351 3414 1
351 3929 1
351 4106 1
351 4136 1
351 4503 1
351 4806 1
351 5011 1
351 5340 1
351 5897 1
351 6333 1
351 6785 1
351 7290 1
351 9835 1
351 9915 1
352 7 1
352 20 1
352 253 1
352 283 1
352 366 1
352 454 1
352 1159 1
352 1588 1
352 1742 1
352 2382 1
352 3579 1
352 3708 1
352 4028 1
352 4389 1
352 4909 1
352 5084 1
352 6255 1
352 6566 1
352 7496 1
352 7917 1
353 30 1
353 98 1
353 273 1
353 309 1
353 893 1
353 1295 1
353 2935 1
353 4427 1
353 7087 1
353 7388 1
353 9740 1
354 39 1
354 48 1
354 166 1
354 179 1
354 412 1
354 6214 1
354 7198 1
355 24 1
355 48 1
355 117 1
355 222 1
355 363 1
355 378 1
355 418 1
355 793 1
355 1156 1
355 1415 1
355 1779 1
355 1830 1
355 3112 1
355 3418 1
355 3492 1
355 3795 1
355 4118 1
355 4142 1
355 9529 1
356 3 1
356 12 1
356 78 1
356 250 1
356 933 1
356 1288 1
356 1752 1
356 2519 1
356 3380 1
356 4277 1
356 4430 1
356 6196 1
357 1 1
357 2 1
357 95 1
357 315 1
357 664 1
357 1482 1
357 1631 1
357 2745 1
357 3709 1
357 4300 1
357 4490 1
357 4540 1
357 4593 1
357 5368 1
357 5554 1
357 6437 1
357 6769 1
357 8084 1
358 10 1
358 26 1
358 117 1
358 132 1
358 380 1
358 389 1
358 421 1
358 734 1
358 853 1
358 1395 1
358 1655 1
358 1725 1
358 2245 1
358 2536 1
358 2555 1
358 3436 1
358 3476 1
358 3795 1
358 4594 1
358 5031 1
358 5219 1
358 6669 1
358 7689 1
358 7691 1
358 7708 1
358 7822 1
358 8823 1
359 3 1
359 15 1
359 21 1
359 55 1
359 809 1
359 1108 1
359 1477 1
359 1600 1
359 2432 1
359 2452 1
359 3577 1
359 3914 1
359 6187 1
359 6821 1
359 9258 1
360 10 1
360 93 1
360 155 1
360 254 1
360 815 1
360 1238 1
360 2108 1
360 2291 1
360 3345 1
360 6554 1
360 8158 1
360 8276 1
360 8448 1
360 9039 1
360 9843 1
361 10 1
361 31 1
361 36 1
361 63 1
361 594 1
361 613 1
361 731 1
361 823 1
361 835 1
361 961 1
361 1600 1
361 1627 1
361 2670 1
361 2778 1
361 3043 1
361 3578 1
361 3728 1
361 3899 1
361 3905 1
361 4550 1
361 5111 1
361 5906 1
361 6454 1
361 6543 1
361 6868 1
361 8690 1
361 8975 1
361 9564 1
361 9985 1
362 117 1
362 148 1
362 171 1
362 243 1
362 733 1
362 736 1
362 739 1
362 1230 1
362 1694 1
362 1895 1
362 1977 1
362 2119 1
362 2322 1
362 2866 1
362 4092 1
362 4155 1
362 4274 1
362 4589 1
362 4941 1
362 5123 1
362 5313 1
362 5495 1
362 6358 1
362 6850 1
362 6890 1
362 7041 1
362 8429 1
362 9141 1
362 9354 1
362 9372 1
362 9456 1
362 9865 1
363 38 1
363 49 1
363 183 1
363 355 1
363 717 1
363 1177 1
363 1754 1
363 3132 1
363 5626 1
363 9578 1
364 74 1
364 107 1
364 278 1
364 310 1
364 381 1
364 483 1
364 755 1
364 1057 1
364 1420 1
364 1619 1
364 2181 1
364 3330 1
364 3585 1
364 4187 1
364 4338 1
364 4906 1
364 5047 1
364 5606 1
364 6046 1
364 7130 1
364 7932 1
364 9749 1
365 101 1
365 223 1
365 274 1
365 323 1
365 555 1
365 602 1
365 759 1
365 962 1
365 1399 1
365 1561 1
365 1670 1
365 1758 1
365 1838 1
365 1849 1
365 2713 1
365 2738 1
365 3049 1
365 3150 1
365 3627 1
365 3855 1
365 4055 1
365 4765 1
365 4888 1
365 5177 1
365 5896 1
365 5976 1
365 6557 1
365 8178 1
365 8511 1
365 9077 1
365 9616 1
366 2 1
366 13 1
366 147 1
366 352 1
366 551 1
366 1031 1
366 1082 1
366 3880 1
366 4947 1
366 6690 1
366 6752 1
366 7567 1
367 12 1
367 99 1
367 151 1
367 226 1
367 777 1
367 1647 1
367 2305 1
367 3081 1
367 6602 1
368 95 1
368 99 1
368 173 1
368 270 1
368 490 1
368 574 1
368 1029 1
368 1273 1
368 1331 1
368 1495 1
368 1580 1
368 1686 1
368 2047 1
368 2851 1
368 2890 1
368 2931 1
368 3169 1
368 3403 1
368 4051 1
368 4155 1
368 4268 1
368 4351 1
368 4605 1
368 4946 1
368 4957 1
368 5290 1
368 6842 1
368 7237 1
368 7256 1
368 7343 1
368 7697 1
368 7805 1
368 7981 1
368 8248 1
368 8279 1
368 8930 1
368 9240 1
368 9515 1
368 9521 1
368 9670 1
369 58 1
369 112 1
369 144 1
369 171 1
369 694 1
369 709 1
369 1214 1
369 1365 1
369 1477 1
369 1790 1
369 2197 1
369 2886 1
369 5107 1
369 5572 1
369 6696 1
369 8176 1
369 8999 1
370 40 1
370 65 1
370 164 1
370 178 1
370 586 1
370 730 1
370 753 1
370 785 1
370 801 1
370 1213 1
370 1315 1
370 1914 1
370 3226 1
370 3255 1
370 3464 1
370 5698 1
370 7251 1
370 9462 1
371 6 1
371 124 1
371 197 1
371 264 1
371 1140 1
371 2663 1
371 3288 1
371 5174 1
371 5549 1
371 7619 1
372 5 1
372 124 1
372 193 1
372 326 1
372 418 1
372 426 1
372 909 1
372 919 1
372 970 1
372 1261 1
372 1373 1
372 1509 1
372 1650 1
372 1713 1
372 1867 1
372 2050 1
372 2150 1
372 4013 1
372 4124 1
372 5343 1
372 6516 1
372 7068 1
372 7715 1
372 8157 1
372 9696 1
373 19 1
373 76 1
373 112 1
373 325 1
373 436 1
373 445 1
373 454 1
373 610 1
373 730 1
373 993 1
373 1094 1
373 1382 1
373 1592 1
373 2211 1
373 2493 1
373 4071 1
373 5039 1
373 5990 1
373 6876 1
373 8231 1
373 8541 1
373 8935 1
373 9501 1
373 9685 1
373 9970 1
374 1 1
374 125 1
374 174 1
374 181 1
374 410 1
374 667 1
374 772 1
374 797 1
374 1047 1
374 1213 1
374 1226 1
374 1260 1
374 1684 1
374 1829 1
374 2611 1
374 2756 1
374 2825 1
374 3470 1
374 4460 1
374 4595 1
374 4668 1
374 4745 1
374 5210 1
374 5414 1
374 6373 1
374 6533 1
374 6732 1
374 6793 1
374 7070 1
374 8227 1
374 9202 1
374 9337 1
375 40 1
375 45 1
375 60 1
375 132 1
375 447 1
375 460 1
375 1227 1
375 1782 1
375 1801 1
375 2288 1
375 2358 1
375 2461 1
375 3196 1
375 3713 1
375 3750 1
375 3986 1
375 4506 1
375 4978 1
375 6092 1
375 6847 1
375 8149 1
375 8416 1
375 8730 1
375 9522 1
375 9944 1
376 15 1
376 28 1
376 37 1
376 247 1
376 490 1
376 889 1
376 1037 1
376 2791 1
376 3678 1
376 3803 1
376 4548 1
376 5396 1
376 5449 1
376 7170 1
376 9803 1
377 78 1
377 85 1
377 262 1
377 286 1
377 650 1
377 883 1
377 988 1
377 1055 1
377 1897 1
377 2149 1
377 2268 1
377 2759 1
377 2775 1
377 3082 1
377 3434 1
377 3873 1
377 4366 1
377 6529 1
377 7792 1
377 8031 1
377 9385 1
377 9422 1
377 9535 1
378 9 1
378 65 1
378 96 1
378 355 1
378 1271 1
378 1522 1
378 1686 1
378 2091 1
378 2411 1
378 2634 1
378 3862 1
378 4257 1
378 4581 1
378 9996 1
379 23 1
379 107 1
379 112 1
379 134 1
379 702 1
379 766 1
379 945 1
379 1297 1
379 1888 1
379 2594 1
379 3416 1
379 3444 1
379 3624 1
379 3697 1
379 6060 1
379 6898 1
379 7144 1
379 7331 1
379 8120 1
379 8971 1
379 9056 1
379 9446 1
380 36 1
380 38 1
380 123 1
380 358 1
380 409 1
380 414 1
380 480 1
380 631 1
380 924 1
380 1121 1
380 1130 1
380 1141 1
380 1597 1
380 1769 1
380 1860 1
380 1891 1
380 3855 1
380 4599 1
380 4661 1
380 5244 1
380 8463 1
380 9064 1
381 4 1
381 220 1
381 321 1
381 364 1
381 503 1
381 579 1
381 942 1
381 1085 1
381 1262 1
381 1956 1
381 2320 1
381 2455 1
381 2538 1
381 2681 1
381 2930 1
381 3190 1
381 3446 1
381 3638 1
381 4072 1
381 4256 1
381 4298 1
381 4461 1
381 4493 1
381 4544 1
381 4623 1
381 5106 1
381 6202 1
381 7907 1
381 8958 1
381 8966 1
381 9234 1
381 9561 1
382 52 1
382 91 1
382 95 1
382 125 1
382 485 1
382 1744 1
382 1826 1
382 2371 1
382 2513 1
382 4227 1
382 4700 1
382 7057 1
382 9789 1
383 14 1
383 184 1
383 197 1
383 227 1
383 467 1
383 647 1
383 931 1
383 1214 1
383 1551 1
383 1559 1
383 1570 1
383 1724 1
383 1905 1
383 1951 1
383 2001 1
383 2086 1
383 2749 1
383 5621 1
383 6834 1
383 7216 1
384 23 1
384 72 1
384 219 1
384 252 1
384 429 1
384 993 1
384 1045 1
384 1262 1
384 1362 1
384 2871 1
384 2939 1
384 2999 1
384 3562 1
384 4307 1
384 4501 1
384 5183 1
384 7187 1
384 8077 1
384 8665 1
384 9706 1
384 9720 1
385 11 1
385 57 1
385 184 1
385 186 1
385 423 1
385 478 1
385 745 1
385 1433 1
385 1487 1
385 2398 1
385 2425 1
385 2761 1
385 2863 1
385 3560 1
385 3606 1
385 4287 1
385 4399 1
385 4409 1
385 4442 1
385 5068 1
385 5576 1
385 6198 1
385 6485 1
385 6852 1
385 7120 1
385 7395 1
385 7524 1
385 7612 1
385 8472 1
385 9064 1
385 9652 1
386 21 1
386 206 1
386 219 1
386 248 1
386 468 1
386 498 1
386 517 1
386 536 1
386 788 1
386 1243 1
386 1250 1
386 1855 1
386 2297 1
386 2747 1
386 3062 1
386 3647 1
386 3759 1
386 4620 1
386 4807 1
386 6152 1
386 6392 1
386 6839 1
386 7447 1
386 9997 1
387 7 1
387 20 1
387 179 1
387 203 1
387 428 1
387 1643 1
387 2367 1
387 2439 1
387 4371 1
387 4393 1
387 5753 1
387 6217 1
387 6452 1
387 6673 1
387 9581 1
388 83 1
388 133 1
388 302 1
388 319 1
388 859 1
388 1043 1
388 1232 1
388 2063 1
388 2434 1
388 2582 1
388 2595 1
388 2690 1
388 2784 1
388 2988 1
388 3704 1
388 4435 1
388 4923 1
388 5216 1
388 5611 1
388 5994 1
388 6304 1
388 6440 1
388 6989 1
388 8655 1
388 8799 1
388 9018 1
389 16 1
389 31 1
389 96 1
389 358 1
389 531 1
389 562 1
389 840 1
389 1229 1
389 1248 1
389 1439 1
389 1647 1
389 1802 1
389 1891 1
389 2272 1
389 5311 1
389 5477 1
389 5812 1
389 7877 1
389 8312 1
389 9568 1
390 168 1
390 202 1
390 229 1
390 232 1
390 658 1
390 872 1
390 1017 1
390 1037 1
390 1113 1
390 1276 1
390 1293 1
390 1397 1
390 1430 1
390 1602 1
390 1667 1
390 1800 1
390 2073 1
390 2155 1
390 2235 1
390 2486 1
390 2674 1
390 3216 1
390 3225 1
390 3382 1
390 3937 1
390 3959 1
390 4243 1
390 4418 1
390 4440 1
390 4530 1
390 4660 1
390 4723 1
390 4855 1
390 4940 1
390 5013 1
390 5218 1
390 5243 1
390 6237 1
390 6369 1
390 6375 1
390 6726 1
390 7008 1
390 7886 1
390 8115 1
390 8336 1
390 8523 1
390 8792 1
390 9115 1
390 9131 1
390 9751 1
390 9928 1
391 11 1
391 39 1
391 57 1
391 204 1
391 431 1
391 580 1
391 1907 1
391 3145 1
391 8046 1
392 9 1
392 31 1
392 56 1
392 85 1
392 680 1
392 753 1
392 871 1
392 1063 1
392 1887 1
392 2811 1
392 3197 1
392 3488 1
392 3699 1
392 4236 1
392 4422 1
392 6391 1
392 6634 1
392 6982 1
392 8032 1
392 8585 1
392 9323 1
392 9429 1
393 31 1
393 47 1
393 157 1
393 166 1
393 546 1
393 654 1
393 807 1
393 1168 1
393 1658 1
393 1931 1
393 2153 1
393 3519 1
393 3955 1
393 4195 1
393 4337 1
393 4816 1
393 6349 1
393 6492 1
393 7160 1
393 8811 1
393 9298 1
394 4 1
394 28 1
394 115 1
394 173 1
394 412 1
394 575 1
394 613 1
394 1609 1
394 2048 1
394 3492 1
394 3542 1
394 3825 1
394 3905 1
394 4916 1
394 5319 1
394 5475 1
394 6137 1
394 6489 1
394 7320 1
394 8951 1
394 9019 1
394 9331 1
395 3 1
395 97 1
395 143 1
395 154 1
395 542 1
395 654 1
395 2198 1
395 3465 1
396 4 1
396 5 1
396 83 1
396 151 1
396 573 1
396 884 1
396 2865 1
396 3183 1
396 4384 1
396 6050 1
396 6623 1
397 1 1
397 11 1
397 95 1
397 138 1
397 540 1
397 798 1
397 958 1
397 1953 1
397 2001 1
397 3425 1
397 5144 1
397 5270 1
397 6210 1
397 6537 1
397 7108 1
397 7130 1
397 7192 1
397 7201 1
397 7657 1
397 8413 1
397 8710 1
397 8807 1
397 8917 1
397 9147 1
398 6 1
398 209 1
398 222 1
398 340 1
398 460 1
398 548 1
398 714 1
398 865 1
398 923 1
398 1012 1
398 1125 1
398 1754 1
398 1844 1
398 2014 1
398 2031 1
398 2073 1
398 2188 1
398 2791 1
398 2891 1
398 3005 1
398 3228 1
398 3386 1
398 3642 1
398 3904 1
398 3930 1
398 4786 1
398 4988 1
398 5043 1
398 5125 1
398 5531 1
398 6055 1
398 6224 1
398 6538 1
398 6621 1
398 7170 1
398 7239 1
398 7643 1
398 8567 1
398 9190 1
398 9380 1
398 9623 1
398 9994 1
399 6 1
399 36 1
399 98 1
399 180 1
399 683 1
399 778 1
399 1038 1
399 1053 1
399 1093 1
399 1457 1
399 2481 1
399 3077 1
399 3437 1
399 3873 1
399 4076 1
399 4429 1
399 4438 1
399 4734 1
399 4950 1
399 5020 1
399 6237 1
399 7213 1
399 7230 1
399 7728 1
399 8954 1
399 9214 1
399 9282 1
399 9769 1
400 23 1
400 28 1
400 142 1
400 191 1
400 755 1
400 991 1
400 1117 1
400 1223 1
400 1812 1
400 1954 1
400 2585 1
400 4951 1
400 6522 1
400 6540 1
400 7142 1
400 7238 1
400 8069 1
400 8375 1
400 8465 1
400 8571 1
400 8974 1
401 63 1
401 85 1
401 91 1
401 229 1
401 452 1
401 461 1
401 620 1
401 724 1
401 812 1
401 1449 1
401 1678 1
401 1760 1
401 1798 1
401 3468 1
401 5457 1
401 5504 1
401 6394 1
401 6657 1
401 7952 1
401 8138 1
401 9085 1
401 9917 1
402 20 1
402 26 1
402 189 1
402 286 1
402 529 1
402 1511 1
402 1563 1
402 1612 1
402 2213 1
402 2283 1
402 2596 1
402 4120 1
402 4353 1
402 6339 1
402 7805 1
402 9072 1
402 9655 1
403 10 1
403 56 1
403 171 1
403 350 1
403 605 1
403 814 1
403 1050 1
403 1177 1
403 1216 1
403 2401 1
403 2613 1
403 2619 1
403 2640 1
403 3118 1
403 3534 1
403 4097 1
403 4111 1
403 4713 1
403 4749 1
403 4863 1
403 4992 1
403 5657 1
403 5880 1
403 6075 1
403 6351 1
403 6401 1
403 6750 1
403 7254 1
403 7706 1
403 8085 1
403 8477 1
403 9306 1
403 9464 1
404 29 1
404 30 1
404 42 1
404 209 1
404 772 1
404 1764 1
404 1785 1
404 2533 1
404 2684 1
404 2935 1
404 3390 1
404 3622 1
404 5955 1
404 7317 1
404 7562 1
405 6 1
405 178 1
405 184 1
405 282 1
405 524 1
405 1085 1
405 1416 1
405 3109 1
405 3348 1
405 6021 1
405 7488 1
405 9986 1
406 3 1
406 82 1
406 101 1
406 198 1
406 867 1
406 1646 1
406 1908 1
406 2902 1
406 3452 1
406 3519 1
406 3772 1
406 4297 1
406 4688 1
406 7348 1
407 16 1
407 24 1
407 140 1
407 172 1
407 1561 1
407 1728 1
407 2142 1
407 2417 1
407 2781 1
407 4156 1
407 7816 1
407 9182 1
407 9555 1
408 1 1
408 69 1
408 273 1
408 314 1
408 545 1
408 1105 1
408 3114 1
408 3600 1
408 4351 1
408 5451 1
409 12 1
409 57 1
409 149 1
409 380 1
409 411 1
409 667 1
409 1458 1
409 1588 1
409 2445 1
409 2583 1
409 3107 1
409 7164 1
409 7788 1
409 7818 1
409 8144 1
409 8301 1
409 8869 1
409 9431 1
409 9536 1
410 10 1
410 26 1
410 282 1
410 374 1
410 425 1
410 617 1
410 1181 1
410 2311 1
410 2387 1
410 3087 1
410 3772 1
410 4081 1
410 4168 1
410 4383 1
410 7058 1
410 8559 1
411 10 1
411 27 1
411 34 1
411 409 1
411 1044 1
411 1555 1
411 1632 1
411 1974 1
411 2039 1
411 2185 1
411 2614 1
411 3074 1
411 3113 1
411 3273 1
411 3650 1
411 4262 1
411 4345 1
411 5513 1
411 6541 1
411 6898 1
411 8857 1
411 9809 1
412 17 1
412 110 1
412 354 1
412 394 1
412 1946 1
412 2105 1
412 2786 1
412 4398 1
412 4497 1
412 7544 1
412 9040 1
412 9610 1
413 3 1
413 21 1
413 39 1
413 273 1
413 491 1
413 612 1
413 692 1
413 878 1
413 1158 1
413 1350 1
413 1572 1
413 1642 1
413 2076 1
413 2588 1
413 2805 1
413 2898 1
413 3656 1
413 4035 1
413 6076 1
413 6789 1
413 6806 1
413 6867 1
413 7428 1
413 7616 1
413 9466 1
414 6 1
414 32 1
414 219 1
414 380 1
414 437 1
414 1429 1
414 1939 1
414 1973 1
414 2616 1
414 2985 1
414 6959 1
414 9608 1
415 99 1
415 212 1
415 277 1
415 286 1
415 698 1
415 788 1
415 1031 1
415 1149 1
415 1270 1
415 1593 1
415 1989 1
415 2002 1
415 2059 1
415 2201 1
415 2284 1
415 2496 1
415 3063 1
415 3831 1
415 4537 1
415 4585 1
415 4808 1
415 5213 1
415 5364 1
415 5440 1
415 5715 1
415 5755 1
415 5942 1
415 6467 1
415 6749 1
415 7704 1
415 8239 1
415 8891 1
415 9029 1
415 9607 1
416 5 1
416 15 1
416 176 1
416 335 1
416 444 1
416 653 1
416 663 1
416 715 1
416 819 1
416 840 1
416 1122 1
416 1611 1
416 2127 1
416 2191 1
416 2243 1
416 2541 1
416 2603 1
416 3506 1
416 3846 1
416 4016 1
416 5036 1
416 5329 1
416 5535 1
417 8 1
417 46 1
417 256 1
417 266 1
417 1272 1
417 1401 1
417 1610 1
417 2545 1
417 2853 1
417 2950 1
417 3398 1
417 4805 1
417 5037 1
417 5104 1
417 5130 1
417 5884 1
417 5991 1
417 6364 1
417 7176 1
417 8316 1
417 8675 1
418 31 1
418 123 1
418 355 1
418 372 1
418 495 1
418 506 1
418 545 1
418 656 1
418 730 1
418 860 1
418 1186 1
418 2241 1
418 2760 1
418 2781 1
418 3499 1
418 3509 1
418 5407 1
418 5477 1
418 8580 1
418 8798 1
418 9117 1
418 9185 1
418 9471 1
419 6 1
419 23 1
419 89 1
419 265 1
419 445 1
419 1108 1
419 1333 1
419 1822 1
419 2500 1
419 3284 1
419 3325 1
419 3326 1
419 3396 1
419 3618 1
419 7896 1
420 6 1
420 29 1
420 49 1
420 153 1
420 738 1
420 785 1
420 830 1
420 1453 1
420 1467 1
420 2025 1
420 2868 1
420 2957 1
420 3100 1
420 3449 1
420 3763 1
420 4007 1
420 4039 1
420 5007 1
420 6154 1
420 6379 1
420 6937 1
420 7962 1
420 8566 1
421 29 1
421 65 1
421 235 1
421 358 1
421 660 1
421 758 1
421 847 1
421 1765 1
421 2097 1
421 2587 1
421 2996 1
421 3382 1
421 3398 1
421 3473 1
421 4650 1
421 5165 1
421 5268 1
421 5445 1
421 5710 1
421 5985 1
421 6276 1
421 8464 1
421 8861 1
421 9089 1
421 9658 1
422 22 1
422 84 1
422 165 1
422 295 1
422 566 1
422 916 1
422 1149 1
422 1173 1
422 1422 1
422 1784 1
422 1926 1
422 2092 1
422 2439 1
422 3932 1
422 4716 1
422 4834 1
422 5866 1
422 7035 1
422 7058 1
422 7202 1
422 7371 1
422 8061 1
422 8206 1
422 9080 1
423 66 1
423 96 1
423 204 1
423 385 1
423 474 1
423 2026 1
423 2953 1
423 2978 1
423 3389 1
423 3448 1
423 3549 1
423 3770 1
423 4436 1
423 4602 1
423 5035 1
423 5696 1
423 7595 1
423 8941 1
423 9226 1
423 9748 1
424 7 1
424 57 1
424 80 1
424 160 1
424 1292 1
424 2052 1
424 2427 1
424 5322 1
424 5867 1
424 6926 1
424 7060 1
425 162 1
425 207 1
425 254 1
425 410 1
425 433 1
425 560 1
425 615 1
425 938 1
425 978 1
425 1022 1
425 1038 1
425 1062 1
425 1522 1
425 1558 1
425 2703 1
425 3982 1
425 4187 1
425 4264 1
425 4365 1
425 4990 1
425 5100 1
425 5532 1
425 5789 1
425 5973 1
425 6365 1
425 6675 1
425 6835 1
425 6988 1
425 7293 1
425 7355 1
425 7777 1
425 8199 1
425 8472 1
425 8577 1
425 8745 1
425 9207 1
425 9714 1
426 67 1
426 166 1
426 298 1
426 372 1
426 588 1
426 718 1
426 1156 1
426 1369 1
426 1509 1
426 1676 1
426 1778 1
426 1916 1
426 2140 1
426 2584 1
426 2908 1
426 2960 1
426 2995 1
426 3072 1
426 4108 1
426 4157 1
426 4197 1
426 5948 1
426 5994 1
426 7044 1
426 8312 1
426 8672 1
426 9091 1
426 9422 1
426 9821 1
426 9844 1
427 26 1
427 267 1
427 309 1
427 322 1
427 552 1
427 658 1
427 746 1
427 756 1
427 1718 1
427 1903 1
427 2746 1
427 2875 1
427 2909 1
427 3202 1
427 3908 1
427 4319 1
427 4367 1
427 4907 1
427 4997 1
427 5211 1
427 5759 1
427 5775 1
427 6955 1
427 7219 1
427 7481 1
427 7771 1
427 8373 1
427 8382 1
427 8517 1
427 9148 1
427 9939 1
428 52 1
428 63 1
428 265 1
428 387 1
428 457 1
428 482 1
428 750 1
428 1065 1
428 2309 1
428 3597 1
428 3621 1
428 4261 1
428 6884 1
428 7692 1
428 7938 1
428 8701 1
428 9743 1
429 11 1
429 128 1
429 163 1
429 384 1
429 1139 1
429 1362 1
429 1913 1
429 2836 1
429 3175 1
429 4751 1
429 4913 1
429 5676 1
429 5825 1
429 5870 1
429 5910 1
429 6969 1
429 8634 1
429 9274 1
430 11 1
430 37 1
430 38 1
430 313 1
430 634 1
430 1789 1
430 2389 1
430 3051 1
430 3494 1
430 3983 1
430 5058 1
430 6126 1
430 6733 1
430 7178 1
430 9758 1
431 1 1
431 177 1
431 281 1
431 391 1
431 571 1
431 4909 1
431 7913 1
431 8581 1
431 9904 1
432 81 1
432 84 1
432 120 1
432 188 1
432 842 1
432 971 1
432 1195 1
432 1460 1
432 1707 1
432 2064 1
432 2253 1
432 2559 1
432 4506 1
432 6512 1
432 8251 1
432 8894 1
432 9538 1
433 29 1
433 65 1
433 173 1
433 425 1
433 568 1
433 1753 1
433 1964 1
433 2651 1
433 4134 1
433 4363 1
433 4415 1
433 5341 1
433 5951 1
433 6569 1
433 6573 1
433 6666 1
433 6781 1
433 7654 1
433 9036 1
433 9543 1
434 22 1
434 25 1
434 130 1
434 288 1
434 643 1
434 1454 1
434 1461 1
434 1866 1
434 3102 1
434 3262 1
434 4313 1
434 4970 1
434 5443 1
434 7260 1
434 7478 1
434 8067 1
434 8651 1
434 8980 1
434 9343 1
435 127 1
435 288 1
435 323 1
435 329 1
435 533 1
435 805 1
435 942 1
435 1999 1
435 2251 1
435 2361 1
435 2435 1
435 6250 1
435 6512 1
435 6644 1
435 7281 1
435 7739 1
435 8556 1
435 8692 1
436 6 1
436 19 1
436 275 1
436 373 1
436 590 1
436 638 1
436 673 1
436 979 1
436 1198 1
436 1425 1
436 1839 1
436 1913 1
436 2052 1
436 2238 1
436 2327 1
436 2534 1
436 3055 1
436 3211 1
436 3358 1
436 3688 1
436 3775 1
436 6222 1
436 7475 1
436 8774 1
436 9327 1
436 9830 1
437 74 1
437 98 1
437 238 1
437 414 1
437 669 1
437 716 1
437 862 1
437 2952 1
437 4980 1
437 5548 1
437 6032 1
437 6895 1
437 8095 1
437 8320 1
438 7 1
438 25 1
438 267 1
438 327 1
438 689 1
438 1236 1
438 2262 1
438 2452 1
438 2522 1
438 3103 1
438 4674 1
438 8044 1
438 9326 1
439 3 1
439 6 1
439 115 1
439 323 1
439 489 1
439 513 1
439 746 1
439 805 1
439 2950 1
439 3378 1
440 44 1
440 138 1
440 179 1
440 329 1
440 1048 1
440 1145 1
440 1317 1
440 1566 1
440 1667 1
440 1670 1
440 2546 1
440 3000 1
440 3148 1
440 3247 1
440 3561 1
440 3827 1
440 4137 1
440 4539 1
440 4643 1
440 5191 1
440 5418 1
440 5556 1
440 6482 1
440 6487 1
440 7278 1
440 7704 1
441 17 1
441 84 1
441 116 1
441 235 1
441 528 1
441 534 1
441 919 1
441 1364 1
441 1808 1
441 1823 1
441 1859 1
441 1903 1
441 2454 1
441 2555 1
441 3116 1
441 3242 1
441 3247 1
441 3919 1
441 4609 1
441 5000 1
441 5113 1
441 5117 1
441 5629 1
441 5802 1
441 6083 1
441 7472 1
441 8380 1
442 12 1
442 14 1
442 24 1
442 190 1
442 1082 1
442 4078 1
442 4637 1
442 5274 1
442 6322 1
442 7689 1
442 9630 1
443 48 1
443 67 1
443 95 1
443 335 1
443 512 1
443 778 1
443 1386 1
443 1975 1
443 2592 1
443 2708 1
443 2822 1
443 2971 1
443 3257 1
443 4370 1
443 7221 1
443 7650 1
444 19 1
444 201 1
444 345 1
444 416 1
444 475 1
444 1125 1
444 1169 1
444 1207 1
444 1311 1
444 1441 1
444 2619 1
444 3048 1
444 4207 1
444 5712 1
444 7487 1
445 79 1
445 139 1
445 373 1
445 419 1
445 684 1
445 1855 1
445 1976 1
445 3840 1
445 4053 1
445 5253 1
445 5483 1
445 6530 1
445 6652 1
445 7863 1
445 8040 1
445 8752 1
445 8775 1
445 9244 1
446 12 1
446 13 1
446 16 1
446 251 1
446 588 1
446 1875 1
446 2492 1
446 2645 1
446 3490 1
446 5136 1
446 5373 1
446 5943 1
446 6323 1
446 8330 1
447 1 1
447 17 1
447 37 1
447 375 1
447 690 1
447 790 1
447 801 1
447 3241 1
447 5783 1
447 6838 1
447 8643 1
447 9146 1
448 3 1
448 6 1
448 8 1
448 15 1
448 500 1
448 595 1
448 687 1
448 849 1
448 1000 1
448 1261 1
448 2089 1
448 2173 1
448 2730 1
448 2962 1
448 4012 1
448 4296 1
448 4342 1
448 4703 1
448 5141 1
448 5982 1
448 6998 1
448 8351 1
448 8453 1
448 9085 1
448 9410 1
449 3 1
449 10 1
449 22 1
449 72 1
449 2770 1
450 29 1
450 39 1
450 97 1
450 112 1
450 4322 1
450 4427 1
451 21 1
451 65 1
451 205 1
451 235 1
451 853 1
451 1684 1
451 2610 1
451 4074 1
451 7782 1
451 8158 1
452 6 1
452 110 1
452 303 1
452 401 1
452 510 1
452 532 1
452 716 1
452 952 1
452 1045 1
452 1212 1
452 1841 1
452 2120 1
452 2356 1
452 2857 1
452 3078 1
452 3471 1
452 4916 1
452 4952 1
452 5031 1
452 5862 1
452 6469 1
452 6700 1
452 7226 1
452 7681 1
452 8476 1
452 9221 1
452 9240 1
452 9260 1
453 150 1
453 239 1
453 271 1
453 320 1
453 1153 1
453 1516 1
453 2231 1
453 2855 1
453 2905 1
453 4212 1
453 7754 1
453 7805 1
453 9439 1
454 107 1
454 254 1
454 352 1
454 373 1
454 1458 1
454 2788 1
454 3502 1
454 6091 1
454 6109 1
454 6213 1
454 8430 1
455 27 1
455 29 1
455 123 1
455 160 1
455 458 1
455 854 1
455 1644 1
455 3102 1
455 3507 1
455 4396 1
455 4611 1
455 5003 1
455 5170 1
455 5585 1
455 7522 1
455 7869 1
455 8524 1
455 8562 1
455 8735 1
455 9685 1
455 9889 1
456 13 1
456 83 1
456 254 1
456 301 1
456 671 1
456 674 1
456 955 1
456 1008 1
456 1153 1
456 1195 1
456 1432 1
456 1517 1
456 1901 1
456 1974 1
456 3054 1
456 3099 1
456 3108 1
456 3368 1
456 3861 1
456 4418 1
456 6139 1
456 6211 1
456 6477 1
456 6681 1
456 7091 1
456 7335 1
456 7658 1
456 8824 1
457 2 1
457 6 1
457 117 1
457 428 1
457 686 1
457 3149 1
457 4798 1
457 5075 1
457 6242 1
457 6774 1
457 7212 1
457 8067 1
457 8338 1
457 9548 1
458 16 1
458 21 1
458 82 1
458 455 1
458 1007 1
458 1160 1
458 2076 1
458 2147 1
458 2535 1
458 3218 1
458 3278 1
458 3734 1
458 7873 1
458 8740 1
459 19 1
459 186 1
459 233 1
459 243 1
459 662 1
459 1019 1
459 1067 1
459 1170 1
459 1270 1
459 1813 1
459 1885 1
459 2707 1
459 3324 1
459 3786 1
459 4704 1
459 6606 1
459 6962 1
459 8830 1
459 9157 1
460 68 1
460 281 1
460 375 1
460 398 1
460 1430 1
460 1981 1
460 2528 1
460 2536 1
460 2916 1
460 3834 1
460 4423 1
460 7656 1
460 7970 1
460 8153 1
460 9350 1
460 9543 1
461 23 1
461 301 1
461 322 1
461 401 1
461 529 1
461 586 1
461 712 1
461 744 1
461 895 1
461 1295 1
461 1308 1
461 1662 1
461 2223 1
461 2420 1
461 2873 1
461 3235 1
461 3757 1
461 3837 1
461 4091 1
461 4532 1
461 4841 1
461 6722 1
461 6845 1
461 7500 1
461 8652 1
461 8672 1
462 36 1
462 56 1
462 66 1
462 137 1
462 4106 1
462 5294 1
462 7193 1
462 8265 1
462 8620 1
463 6 1
463 39 1
463 87 1
463 227 1
463 941 1
463 1118 1
463 1124 1
463 1394 1
463 1498 1
463 1580 1
463 1652 1
463 1838 1
463 1913 1
463 2196 1
463 2911 1
463 3045 1
463 7028 1
463 7321 1
463 7364 1
463 7901 1
463 8280 1
463 9269 1
463 9351 1
463 9677 1
464 13 1
464 64 1
464 108 1
464 279 1
464 511 1
464 1356 1
464 2345 1
464 5103 1
464 5374 1
464 5521 1
464 8512 1
464 9057 1
465 13 1
465 270 1
465 278 1
465 325 1
465 472 1
465 615 1
465 1429 1
465 1604 1
465 1741 1
465 3411 1
465 3437 1
465 4263 1
465 4837 1
465 5820 1
465 5989 1
465 8531 1
466 5 1
466 26 1
466 63 1
466 200 1
466 1137 1
466 1167 1
466 2010 1
466 2852 1
466 3519 1
466 3550 1
466 3563 1
466 3566 1
466 3692 1
466 3876 1
466 4270 1
466 5320 1
466 8319 1
466 8881 1
466 9619 1
467 64 1
467 65 1
467 70 1
467 383 1
467 552 1
467 1283 1
467 4280 1
467 4748 1
467 5498 1
467 5746 1
467 6000 1
467 7246 1
467 7276 1
468 89 1
468 184 1
468 220 1
468 386 1
468 489 1
468 525 1
468 793 1
468 985 1
468 1226 1
468 2698 1
468 2733 1
468 2796 1
468 2854 1
468 3138 1
468 3590 1
468 4215 1
468 4243 1
468 4939 1
468 4994 1
468 6384 1
468 7486 1
468 7636 1
468 7767 1
468 7846 1
468 8248 1
468 8761 1
468 9050 1
468 9239 1
468 9892 1
468 9963 1
469 8 1
469 67 1
469 121 1
469 139 1
469 1091 1
469 2006 1
469 2183 1
469 8285 1
470 121 1
470 122 1
470 184 1
470 229 1
470 731 1
470 753 1
470 955 1
470 1473 1
470 1517 1
470 1622 1
470 2674 1
470 3366 1
470 4035 1
470 4542 1
470 6135 1
470 7599 1
470 8071 1
470 8699 1
470 9204 1
471 10 1
471 28 1
471 98 1
471 197 1
471 525 1
471 1100 1
471 1336 1
471 1599 1
471 3004 1
471 3483 1
471 3537 1
471 4171 1
471 4610 1
471 6434 1
471 6652 1
472 20 1
472 39 1
472 182 1
472 465 1
472 3046 1
472 4186 1
473 5 1
473 55 1
473 243 1
473 256 1
473 2229 1
473 4509 1
473 5155 1
473 5890 1
474 13 1
474 19 1
474 101 1
474 423 1
474 516 1
474 805 1
474 2743 1
474 4314 1
474 4783 1
474 5855 1
474 6320 1
474 6674 1
474 7636 1
474 8273 1
475 109 1
475 111 1
475 300 1
475 444 1
475 536 1
475 1202 1
475 3210 1
475 3495 1
475 3802 1
475 4434 1
475 5408 1
475 5597 1
475 6702 1
475 6790 1
475 8939 1
476 6 1
476 66 1
476 78 1
476 235 1
476 773 1
476 1666 1
476 2879 1
476 2900 1
476 3243 1
476 3911 1
476 4905 1
476 6141 1
476 6362 1
476 7798 1
476 8461 1
476 8879 1
477 16 1
477 62 1
477 124 1
477 212 1
477 486 1
477 604 1
477 1005 1
477 1738 1
477 1784 1
477 1904 1
477 1923 1
477 1939 1
477 2246 1
477 2413 1
477 2539 1
477 2547 1
477 3533 1
477 4250 1
477 6004 1
477 6307 1
477 6878 1
477 7153 1
477 8025 1
477 8519 1
477 8719 1
477 8862 1
477 9523 1
477 9839 1
478 9 1
478 117 1
478 273 1
478 385 1
478 499 1
478 687 1
478 743 1
478 2041 1
478 2339 1
478 3639 1
478 4941 1
478 5780 1
478 7425 1
479 108 1
479 141 1
479 182 1
479 318 1
479 903 1
479 1696 1
479 3510 1
479 3685 1
479 5575 1
479 5920 1
479 6975 1
479 7451 1
479 8054 1
479 8835 1
479 9419 1
480 49 1
480 160 1
480 181 1
480 380 1
480 1060 1
480 1480 1
480 1542 1
480 6439 1
480 9044 1
481 11 1
481 26 1
481 34 1
481 216 1
481 531 1
481 600 1
481 855 1
481 916 1
481 917 1
481 947 1
481 1112 1
481 1176 1
481 2152 1
481 2424 1
481 2635 1
481 2979 1
481 3461 1
481 3842 1
481 4241 1
481 4387 1
481 6694 1
481 7548 1
481 7716 1
481 8390 1
481 8480 1
481 8528 1
481 8832 1
481 9172 1
481 9468 1
481 9768 1
482 20 1
482 49 1
482 188 1
482 428 1
482 769 1
482 1358 1
482 1751 1
482 1855 1
482 2151 1
482 2156 1
482 2758 1
482 2926 1
482 3467 1
482 4282 1
482 4519 1
482 4574 1
482 4699 1
482 4928 1
482 4957 1
482 5303 1
482 6204 1
482 6606 1
482 7129 1
482 7224 1
482 8300 1
483 7 1
483 17 1
483 92 1
483 364 1
483 1089 1
483 1290 1
483 1557 1
483 1572 1
483 1664 1
483 1682 1
483 2060 1
483 2844 1
483 3544 1
483 3640 1
483 3948 1
483 4638 1
483 4658 1
483 6269 1
483 6425 1
483 6831 1
483 8513 1
483 9414 1
483 9999 1
484 17 1
484 29 1
484 31 1
484 283 1
484 494 1
484 729 1
484 1222 1
484 1650 1
484 1841 1
484 2181 1
484 2379 1
484 2918 1
484 3542 1
484 4146 1
484 4779 1
484 4974 1
484 5281 1
484 5948 1
484 6764 1
484 6805 1
484 7292 1
484 7385 1
484 8350 1
484 8524 1
484 9744 1
485 89 1
485 104 1
485 138 1
485 382 1
485 570 1
485 713 1
485 760 1
485 761 1
485 1243 1
485 1909 1
485 1954 1
485 3473 1
485 4300 1
485 4809 1
485 5221 1
485 5620 1
485 5702 1
485 5883 1
485 7336 1
485 7655 1
485 8095 1
485 9307 1
485 9309 1
486 11 1
486 156 1
486 324 1
486 477 1
486 628 1
486 677 1
486 911 1
486 982 1
486 1007 1
486 1532 1
486 1830 1
486 2182 1
486 2796 1
486 3937 1
486 4033 1
486 4092 1
486 4157 1
486 4239 1
486 8111 1
487 6 1
487 11 1
487 33 1
487 319 1
487 601 1
487 895 1
487 1025 1
487 1078 1
487 1502 1
487 1723 1
487 1809 1
487 1869 1
487 1994 1
487 2045 1
487 2241 1
487 2258 1
487 2326 1
487 3477 1
487 3497 1
487 4020 1
487 4638 1
487 4722 1
487 4744 1
487 5138 1
487 5369 1
487 5679 1
487 7285 1
487 8058 1
487 8059 1
487 9476 1
487 9729 1
488 58 1
488 85 1
488 94 1
488 125 1
488 2145 1
488 3211 1
488 4857 1
488 7494 1
488 9801 1
489 29 1
489 116 1
489 439 1
489 468 1
489 502 1
489 1138 1
489 1410 1
489 1748 1
489 1934 1
489 2041 1
489 2062 1
489 2302 1
489 2422 1
489 3282 1
489 3644 1
489 7285 1
489 7571 1
489 8250 1
490 7 1
490 233 1
490 368 1
490 376 1
490 544 1
490 633 1
490 1727 1
490 2010 1
490 2234 1
490 2842 1
490 5165 1
490 5242 1
490 5386 1
490 6094 1
490 6907 1
490 7079 1
491 12 1
491 117 1
491 279 1
491 413 1
491 1067 1
491 1212 1
491 1488 1
491 1637 1
491 1751 1
491 1858 1
491 2473 1
491 3754 1
491 4381 1
491 4714 1
491 4792 1
491 5956 1
491 6268 1
491 8106 1
491 9672 1
491 9964 1
492 67 1
492 83 1
492 152 1
492 210 1
492 1082 1
492 1260 1
492 1275 1
492 1718 1
492 2172 1
492 2369 1
493 27 1
493 42 1
493 120 1
493 290 1
493 960 1
493 1049 1
493 1445 1
493 1674 1
493 2159 1
493 2246 1
493 2277 1
493 2585 1
493 2589 1
493 2922 1
493 2994 1
493 3061 1
493 3146 1
493 3527 1
493 4093 1
493 4729 1
493 5094 1
493 5273 1
493 5900 1
493 7090 1
493 8115 1
493 8449 1
493 9083 1
493 9278 1
493 9333 1
493 9457 1
493 9809 1
494 5 1
494 156 1
494 176 1
494 484 1
494 1678 1
494 2111 1
494 2146 1
494 2404 1
494 3484 1
494 5299 1
494 7420 1
495 9 1
495 66 1
495 143 1
495 418 1
495 998 1
495 1497 1
495 2180 1
495 2321 1
495 2673 1
495 2699 1
495 3413 1
495 3912 1
495 3986 1
495 4011 1
495 4762 1
495 6784 1
495 7698 1
496 84 1
496 97 1
496 140 1
496 254 1
496 770 1
496 1337 1
496 2152 1
496 3157 1
496 3447 1
496 5450 1
496 5971 1
496 7286 1
496 8018 1
496 9417 1
497 60 1
497 91 1
497 267 1
497 316 1
497 3323 1
497 4389 1
498 7 1
498 13 1
498 41 1
498 386 1
498 635 1
498 672 1
498 779 1
498 863 1
498 1374 1
498 1455 1
498 1529 1
498 1853 1
498 2040 1
498 2187 1
498 2487 1
498 2551 1
498 2708 1
498 2812 1
498 2871 1
498 3270 1
498 4519 1
498 4958 1
498 5808 1
498 5809 1
498 5830 1
498 6349 1
498 7286 1
498 7720 1
498 9052 1
498 9651 1
499 1 1
499 91 1
499 151 1
499 478 1
499 542 1
499 578 1
499 603 1
499 611 1
499 646 1
499 895 1
499 960 1
499 3381 1
499 3390 1
499 4013 1
499 5507 1
499 6213 1
499 6834 1
499 7318 1
499 9243 1
499 9602 1
499 9812 1
500 19 1
500 45 1
500 103 1
500 448 1
500 522 1
500 780 1
500 1506 1
500 1965 1
500 2962 1
500 3035 1
500 3530 1
500 4858 1
500 5952 1
500 6341 1
500 8147 1
500 8369 1
501 19 1
501 58 1
501 89 1
501 213 1
501 2312 1
501 2631 1
501 4859 1
501 5202 1
501 5999 1
501 6812 1
501 8890 1
502 97 1
502 181 1
502 323 1
502 489 1
502 883 1
502 886 1
502 1171 1
502 1268 1
502 1346 1
502 1536 1
502 1998 1
502 2053 1
502 2597 1
502 3124 1
502 3578 1
502 4017 1
502 5374 1
502 6058 1
502 6136 1
502 6664 1
502 8110 1
502 8994 1
502 9362 1
502 9649 1
502 9843 1
503 11 1
503 30 1
503 201 1
503 381 1
503 525 1
503 1720 1
503 2346 1
503 3417 1
503 7287 1
503 8262 1
503 9748 1
504 31 1
504 78 1
504 252 1
504 315 1
504 581 1
504 608 1
504 685 1
504 948 1
504 1106 1
504 1391 1
504 1464 1
504 1708 1
504 1911 1
504 1918 1
504 3010 1
504 3689 1
504 4626 1
504 5032 1
504 5803 1
504 6113 1
504 6169 1
504 6234 1
504 6449 1
504 7009 1
504 7042 1
504 8273 1
504 8402 1
504 8705 1
505 16 1
505 37 1
505 137 1
505 203 1
505 675 1
505 876 1
505 1023 1
505 1258 1
505 1537 1
505 1671 1
505 1704 1
505 2959 1
505 3666 1
505 4143 1
505 4250 1
505 5597 1
505 5693 1
505 6271 1
505 6441 1
505 6474 1
505 7598 1
505 9005 1
505 9584 1
506 4 1
506 6 1
506 20 1
506 418 1
506 2432 1
506 2641 1
506 5014 1
506 5927 1
506 5932 1
506 8707 1
506 9021 1
507 66 1
507 85 1
507 87 1
507 154 1
507 724 1
507 2031 1
507 2762 1
507 3219 1
507 3329 1
507 4532 1
507 5885 1
507 7473 1
507 8196 1
507 8895 1
508 24 1
508 142 1
508 156 1
508 335 1
508 994 1
508 2192 1
508 2491 1
508 3162 1
508 4128 1
508 5882 1
508 7756 1
509 14 1
509 17 1
509 115 1
509 219 1
509 707 1
509 858 1
509 877 1
509 942 1
509 2861 1
509 2929 1
509 2967 1
509 3653 1
509 5235 1
509 7594 1
509 9409 1
509 9795 1
510 85 1
510 133 1
510 238 1
510 452 1
510 520 1
510 1472 1
510 3841 1
510 5023 1
511 6 1
511 51 1
511 67 1
511 464 1
512 31 1
512 37 1
512 241 1
512 443 1
512 837 1
512 2163 1
512 3239 1
512 3250 1
512 4935 1
512 6197 1
512 7295 1
512 8270 1
512 8974 1
512 9396 1
513 31 1
513 85 1
513 102 1
513 439 1
513 627 1
513 782 1
513 833 1
513 1359 1
513 1503 1
513 1607 1
513 1792 1
513 2082 1
513 2859 1
513 3096 1
513 3830 1
513 3999 1
513 4202 1
513 4642 1
513 5011 1
513 6117 1
513 6377 1
513 6557 1
513 6696 1
513 6710 1
513 7409 1
513 8916 1
514 24 1
514 108 1
514 271 1
514 278 1
514 852 1
514 2869 1
514 3777 1
514 5494 1
514 7007 1
514 8183 1
514 9103 1
514 9921 1
514 9926 1
515 1 1
515 6 1
515 67 1
515 119 1
515 627 1
515 916 1
515 1395 1
515 1546 1
515 1762 1
515 1897 1
515 2023 1
515 2145 1
515 2308 1
515 2534 1
515 2794 1
515 3131 1
515 3605 1
515 4244 1
515 4325 1
515 4662 1
515 4846 1
515 4972 1
515 5130 1
515 5259 1
515 5359 1
515 5549 1
515 6192 1
515 6748 1
515 8604 1
515 8929 1
515 9130 1
515 9522 1
515 9681 1
515 9722 1
515 9834 1
516 88 1
516 147 1
516 303 1
516 474 1
516 578 1
516 580 1
516 1716 1
516 1805 1
516 2633 1
516 4485 1
516 5404 1
516 7294 1
516 7407 1
516 8228 1
516 8533 1
516 9567 1
516 9829 1
517 4 1
517 15 1
517 79 1
517 386 1
517 643 1
517 650 1
517 1734 1
517 2230 1
517 2694 1
517 2929 1
517 3214 1
517 3314 1
517 3454 1
517 3992 1
517 6657 1
517 7216 1
517 7268 1
517 8682 1
517 9008 1
517 9145 1
518 34 1
518 147 1
518 198 1
518 282 1
518 543 1
518 834 1
518 998 1
518 1140 1
518 1192 1
518 1618 1
518 1803 1
518 2700 1
518 2881 1
518 3695 1
518 4480 1
518 4615 1
518 4816 1
518 5022 1
518 5107 1
518 5112 1
518 5335 1
518 5429 1
518 5858 1
518 6736 1
518 8284 1
518 9984 1
519 16 1
519 133 1
519 142 1
519 149 1
519 644 1
519 991 1
519 1330 1
519 1689 1
519 1839 1
519 1875 1
519 1892 1
519 2217 1
519 2575 1
519 2650 1
519 3084 1
519 3719 1
519 4528 1
519 4755 1
519 5126 1
519 5144 1
519 5597 1
519 7402 1
519 9294 1
520 26 1
520 149 1
520 176 1
520 510 1
520 817 1
520 1506 1
520 3893 1
520 4449 1
520 6894 1
520 7036 1
520 7338 1
521 3 1
521 111 1
521 117 1
521 198 1
521 522 1
521 1775 1
521 1837 1
521 1960 1
521 2307 1
521 3265 1
521 3998 1
521 4294 1
521 4784 1
521 5272 1
521 5274 1
521 5857 1
521 6014 1
521 6879 1
521 7298 1
521 8011 1
521 9573 1
522 95 1
522 184 1
522 500 1
522 521 1
522 1432 1
522 2914 1
522 2934 1
522 3346 1
522 3972 1
522 4781 1
522 6266 1
523 1 1
523 118 1
523 178 1
523 179 1
523 572 1
523 870 1
523 1193 1
523 1250 1
523 1341 1
523 1741 1
523 1783 1
523 1886 1
523 2126 1
523 2504 1
523 2657 1
523 2704 1
523 2829 1
523 3050 1
523 4671 1
523 4756 1
523 4847 1
523 5623 1
523 5670 1
523 5718 1
523 5762 1
523 7742 1
523 7871 1
523 8788 1
523 9639 1
523 9955 1
524 13 1
524 233 1
524 256 1
524 405 1
524 661 1
524 902 1
524 1388 1
524 1690 1
524 2551 1
524 3528 1
524 3770 1
524 5880 1
524 6959 1
524 7945 1
525 19 1
525 468 1
525 471 1
525 503 1
525 581 1
525 1118 1
525 1456 1
525 2350 1
525 3312 1
525 3633 1
525 4919 1
525 5223 1
525 8270 1
525 8361 1
525 8803 1
526 55 1
526 70 1
526 144 1
526 177 1
526 597 1
526 794 1
526 813 1
526 918 1
526 928 1
526 2540 1
526 3075 1
526 4973 1
526 9357 1
527 6 1
527 78 1
527 128 1
527 141 1
527 671 1
527 879 1
527 1138 1
527 1228 1
527 1417 1
527 1518 1
527 1568 1
527 1693 1
527 1749 1
527 2100 1
527 2235 1
527 2442 1
527 2516 1
527 2656 1
527 2739 1
527 3083 1
527 3087 1
527 3251 1
527 3311 1
527 3668 1
527 5017 1
527 5107 1
527 5117 1
527 5320 1
527 5446 1
527 5968 1
527 8458 1
527 8661 1
527 9083 1
527 9178 1
528 3 1
528 48 1
528 182 1
528 441 1
528 905 1
528 993 1
528 1037 1
528 1164 1
528 1333 1
528 1354 1
528 1396 1
528 1404 1
528 1465 1
528 2295 1
528 2749 1
528 2839 1
528 3396 1
528 4634 1
528 5123 1
528 5688 1
528 5708 1
528 6051 1
528 8732 1
529 48 1
529 119 1
529 402 1
529 461 1
529 721 1
529 1304 1
529 1628 1
529 1868 1
529 1908 1
529 2086 1
529 2092 1
529 2110 1
529 3494 1
529 3717 1
529 3856 1
529 3939 1
529 5541 1
529 5685 1
529 6104 1
529 6273 1
529 6600 1
529 7368 1
529 7539 1
529 7646 1
529 7714 1
529 8338 1
529 9942 1
530 13 1
530 30 1
530 39 1
530 67 1
530 1379 1
530 1774 1
530 2546 1
530 2848 1
530 4870 1
530 6532 1
530 7089 1
530 9196 1
531 1 1
531 37 1
531 389 1
531 481 1
531 623 1
531 741 1
531 1097 1
531 1252 1
531 1637 1
531 1822 1
531 2015 1
531 2035 1
531 2223 1
531 2331 1
531 2412 1
531 2605 1
531 3033 1
531 3664 1
531 7795 1
531 7822 1
531 8925 1
531 9392 1
532 60 1
532 325 1
532 335 1
532 452 1
532 5754 1
532 6825 1
533 96 1
533 296 1
533 336 1
533 435 1
533 990 1
533 1532 1
533 1991 1
533 3606 1
533 4434 1
533 6714 1
533 8274 1
534 5 1
534 60 1
534 341 1
534 441 1
534 941 1
534 1169 1
534 2129 1
534 2674 1
534 3124 1
534 5236 1
534 7366 1
534 9851 1
535 6 1
535 76 1
535 196 1
535 339 1
535 546 1
535 784 1
535 806 1
535 1524 1
535 1770 1
535 1990 1
535 2019 1
535 2170 1
535 2408 1
535 2765 1
535 2902 1
535 3018 1
535 3160 1
535 3245 1
535 3652 1
535 4371 1
535 4815 1
535 5770 1
535 5931 1
535 7283 1
535 7892 1
535 8193 1
535 9236 1
535 9584 1
536 5 1
536 27 1
536 386 1
536 475 1
536 1204 1
536 1329 1
536 2665 1
536 2693 1
536 2968 1
536 3269 1
536 3983 1
536 5379 1
536 5611 1
536 6440 1
536 9620 1
537 76 1
537 92 1
537 140 1
537 229 1
537 821 1
537 1052 1
537 1111 1
537 1133 1
537 1955 1
537 1984 1
537 3027 1
537 4323 1
537 5058 1
537 5689 1
537 5805 1
537 6466 1
537 6842 1
537 7222 1
537 8892 1
538 14 1
538 19 1
538 22 1
538 309 1
538 856 1
538 1305 1
538 2987 1
538 3420 1
538 4104 1
538 5502 1
538 5736 1
538 6805 1
538 7200 1
538 8713 1
538 9070 1
539 160 1
539 289 1
539 304 1
539 314 1
539 547 1
539 758 1
539 856 1
539 891 1
539 947 1
539 1024 1
539 1268 1
539 1470 1
539 1539 1
539 2038 1
539 2274 1
539 2292 1
539 2987 1
539 3548 1
539 3885 1
539 4002 1
539 4527 1
539 4577 1
539 4598 1
539 5023 1
539 5603 1
539 5604 1
539 5766 1
539 6423 1
539 6794 1
539 6928 1
539 7298 1
539 7382 1
539 7553 1
539 7749 1
539 7825 1
539 8129 1
539 8325 1
539 8980 1
539 9914 1
540 102 1
540 219 1
540 285 1
540 397 1
540 601 1
540 719 1
540 844 1
540 1888 1
540 2483 1
540 3220 1
540 6215 1
540 8121 1
541 84 1
541 146 1
541 246 1
541 289 1
541 907 1
541 1099 1
541 1416 1
541 4527 1
541 6508 1
541 6513 1
541 7798 1
542 51 1
542 213 1
542 395 1
542 499 1
542 850 1
542 1004 1
542 2030 1
542 2174 1
542 2506 1
542 3377 1
542 5784 1
542 8845 1
543 45 1
543 52 1
543 320 1
543 518 1
543 568 1
543 1005 1
543 1938 1
543 2351 1
543 2797 1
543 3082 1
543 4103 1
543 4589 1
543 4887 1
543 5959 1
543 6322 1
543 6378 1
543 6709 1
543 8809 1
544 38 1
544 289 1
544 349 1
544 490 1
544 1473 1
544 2109 1
544 7006 1
544 9217 1
545 177 1
545 205 1
545 408 1
545 418 1
545 1168 1
545 1604 1
545 2374 1
545 3649 1
545 4213 1
545 4576 1
545 6816 1
545 7722 1
545 8959 1
546 1 1
546 134 1
546 393 1
546 535 1
546 1717 1
546 3439 1
546 3723 1
546 3829 1
546 8223 1
546 8497 1
546 8878 1
547 149 1
547 256 1
547 279 1
547 539 1
547 632 1
547 715 1
547 982 1
547 2164 1
547 2252 1
547 2695 1
547 3508 1
547 4955 1
547 6728 1
547 6773 1
547 7477 1
548 4 1
548 98 1
548 161 1
548 398 1
549 13 1
549 17 1
549 77 1
549 95 1
549 554 1
549 694 1
549 781 1
549 835 1
549 1069 1
549 1200 1
549 1698 1
549 2072 1
549 2471 1
549 2913 1
549 3091 1
549 3304 1
549 3660 1
549 4055 1
549 4060 1
549 4461 1
549 4548 1
549 5212 1
549 6155 1
549 6555 1
549 7082 1
549 7114 1
549 7501 1
549 8015 1
549 8110 1
549 8178 1
549 9160 1
549 9609 1
549 9788 1
549 9833 1
550 14 1
550 255 1
550 257 1
550 264 1
550 564 1
550 1370 1
550 1728 1
550 1988 1
550 2077 1
550 2269 1
550 2596 1
550 3115 1
550 6164 1
550 6380 1
550 9688 1
551 15 1
551 34 1
551 123 1
551 366 1
551 1843 1
551 3118 1
551 3859 1
551 5747 1
551 6569 1
551 7940 1
551 9671 1
552 10 1
552 312 1
552 427 1
552 467 1
552 1253 1
552 3778 1
552 4458 1
552 5278 1
552 5512 1
552 6284 1
552 7329 1
552 7903 1
552 8984 1
553 1 1
553 74 1
553 142 1
553 153 1
553 1417 1
553 1421 1
553 2305 1
553 2379 1
553 2787 1
553 2828 1
553 3126 1
553 3538 1
553 3800 1
553 5533 1
553 6646 1
553 6715 1
553 8650 1
553 8981 1
554 10 1
554 38 1
554 46 1
554 549 1
554 3676 1
554 6322 1
554 9522 1
555 16 1
555 149 1
555 233 1
555 365 1
555 670 1
555 951 1
555 1075 1
555 1749 1
555 2357 1
555 2454 1
555 4246 1
555 4563 1
555 4937 1
555 4983 1
555 5119 1
555 5150 1
555 7012 1
555 7417 1
555 7452 1
555 8022 1
555 8534 1
555 8567 1
555 8816 1
555 8893 1
555 8909 1
555 9515 1
556 2 1
556 49 1
556 69 1
556 140 1
556 3292 1
556 3341 1
556 4505 1
556 6188 1
556 6745 1
557 7 1
557 8 1
557 95 1
557 174 1
557 576 1
557 722 1
557 774 1
557 1082 1
557 1371 1
557 1515 1
557 1925 1
557 3152 1
557 3672 1
557 4307 1
557 4727 1
557 5381 1
557 5450 1
557 6294 1
557 6552 1
557 7275 1
557 8041 1
557 9218 1
557 9683 1
557 9764 1
557 9769 1
558 19 1
558 39 1
558 146 1
558 179 1
558 3439 1
558 3592 1
558 6854 1
558 7895 1
559 62 1
559 309 1
559 316 1
559 323 1
559 593 1
559 605 1
559 643 1
559 1567 1
559 1644 1
559 4081 1
559 4248 1
559 5255 1
559 6311 1
559 7674 1
559 9015 1
559 9645 1
560 48 1
560 56 1
560 147 1
560 425 1
560 624 1
560 635 1
560 669 1
560 2004 1
560 2243 1
560 2467 1
560 2702 1
560 2936 1
560 3872 1
560 5271 1
560 5637 1
560 6078 1
560 6326 1
560 6548 1
560 7342 1
560 9005 1
561 16 1
561 58 1
561 121 1
561 221 1
561 655 1
561 807 1
561 969 1
561 1635 1
561 1912 1
561 2864 1
561 3166 1
561 3334 1
561 3428 1
561 3573 1
561 4874 1
561 6477 1
561 6553 1
561 6641 1
561 6942 1
561 7608 1
561 8343 1
561 9220 1
561 9272 1
562 251 1
562 285 1
562 297 1
562 389 1
562 657 1
562 952 1
562 1086 1
562 1140 1
562 1866 1
562 2069 1
562 2338 1
562 4284 1
562 4356 1
562 4728 1
562 5527 1
562 5899 1
562 5955 1
562 6406 1
562 6946 1
562 7151 1
562 7670 1
562 8910 1
563 48 1
563 76 1
563 234 1
563 244 1
563 585 1
563 720 1
563 884 1
563 1097 1
563 1289 1
563 1443 1
563 1835 1
563 2537 1
563 2552 1
563 2561 1
563 6097 1
563 7013 1
563 7440 1
564 36 1
564 121 1
564 281 1
564 550 1
564 737 1
564 792 1
564 1305 1
564 1340 1
564 2901 1
564 2930 1
564 4279 1
564 4403 1
564 5470 1
564 5504 1
564 5616 1
564 5618 1
564 6733 1
564 8510 1
565 84 1
565 118 1
565 260 1
565 263 1
565 1096 1
565 3691 1
565 5994 1
565 6786 1
565 7238 1
566 6 1
566 241 1
566 305 1
566 422 1
566 598 1
566 749 1
566 752 1
566 873 1
566 914 1
566 921 1
566 1449 1
566 1479 1
566 1810 1
566 2185 1
566 2313 1
566 2520 1
566 3071 1
566 5114 1
566 6578 1
566 7325 1
566 8010 1
566 9201 1
566 9911 1
567 12 1
567 16 1
567 156 1
567 293 1
567 2048 1
567 3088 1
567 3389 1
567 6683 1
567 6702 1
567 6822 1
567 7066 1
567 7983 1
567 9462 1
567 9491 1
568 93 1
568 113 1
568 433 1
568 543 1
568 800 1
568 989 1
568 1022 1
568 1079 1
568 1999 1
568 2225 1
568 3117 1
568 3145 1
568 3169 1
568 3181 1
568 6599 1
568 7123 1
568 7354 1
568 7860 1
568 7921 1
568 7998 1
568 8770 1
568 9277 1
568 9534 1
569 97 1
569 134 1
569 141 1
569 179 1
569 585 1
569 1503 1
569 2293 1
569 4748 1
569 6690 1
569 7674 1
570 3 1
570 311 1
570 338 1
570 485 1
570 645 1
570 835 1
570 1062 1
570 1237 1
570 1364 1
570 1481 1
570 1507 1
570 1880 1
570 2291 1
570 2384 1
570 3048 1
570 3125 1
570 3217 1
570 3515 1
570 4114 1
570 4270 1
570 5608 1
570 6839 1
570 7479 1
570 8763 1
570 8963 1
570 9210 1
571 12 1
571 15 1
571 184 1
571 431 1
571 688 1
571 757 1
571 1285 1
571 1384 1
571 2222 1
571 2617 1
571 2882 1
571 4386 1
571 4483 1
571 5492 1
571 5694 1
571 9520 1
571 9897 1
572 10 1
572 12 1
572 149 1
572 523 1
572 582 1
572 594 1
572 602 1
572 928 1
572 932 1
572 1085 1
572 1091 1
572 1202 1
572 1313 1
572 1425 1
572 2134 1
572 2229 1
572 2414 1
572 2498 1
572 3623 1
572 3727 1
572 3792 1
572 3937 1
572 5002 1
572 5594 1
572 5655 1
572 5799 1
572 7257 1
572 7295 1
572 7593 1
572 7973 1
572 8133 1
572 8296 1
572 8689 1
572 9465 1
573 11 1
573 14 1
573 123 1
573 396 1
573 2576 1
573 3013 1
573 4119 1
573 4938 1
573 5894 1
573 6220 1
574 178 1
574 271 1
574 277 1
574 368 1
574 1232 1
574 1687 1
574 1953 1
574 2949 1
574 4520 1
574 4850 1
574 7439 1
575 244 1
575 250 1
575 256 1
575 394 1
575 1685 1
575 2464 1
575 2894 1
575 3286 1
575 4218 1
575 4655 1
575 5265 1
575 5913 1
575 7936 1
575 9777 1
576 27 1
576 29 1
576 132 1
576 557 1
576 714 1
576 784 1
576 908 1
576 1498 1
576 3153 1
576 4118 1
576 6587 1
576 7306 1
576 7513 1
576 9061 1
576 9479 1
577 38 1
577 153 1
577 270 1
577 327 1
577 841 1
577 984 1
577 1638 1
577 2012 1
577 2176 1
577 2657 1
577 3374 1
577 4045 1
577 4339 1
577 4664 1
577 7665 1
577 8998 1
577 9789 1
578 55 1
578 173 1
578 499 1
578 516 1
578 815 1
578 1174 1
578 1276 1
578 1353 1
578 1366 1
578 1942 1
578 2568 1
578 2569 1
578 2982 1
578 4922 1
578 5399 1
578 6355 1
578 7299 1
578 9675 1
579 6 1
579 7 1
579 270 1
579 381 1
579 740 1
579 1331 1
579 1879 1
579 3180 1
579 3944 1
579 4100 1
579 6591 1
579 7015 1
580 47 1
580 249 1
580 391 1
580 516 1
580 630 1
580 767 1
580 871 1
580 921 1
580 1009 1
580 1136 1
580 1203 1
580 1386 1
580 1571 1
580 1589 1
580 1912 1
580 2311 1
580 3006 1
580 3242 1
580 3329 1
580 3353 1
580 3730 1
580 4217 1
580 4505 1
580 4635 1
580 4725 1
580 4937 1
580 4999 1
580 5723 1
580 5881 1
580 5962 1
580 6336 1
580 6356 1
580 6529 1
580 6545 1
580 6577 1
580 6625 1
580 6731 1
580 6795 1
580 6966 1
580 7858 1
580 8142 1
580 8508 1
580 9157 1
580 9598 1
580 9604 1
580 9934 1
581 54 1
581 244 1
581 504 1
581 525 1
581 751 1
581 950 1
581 965 1
581 1117 1
581 1311 1
581 1466 1
581 1672 1
581 2287 1
581 2341 1
581 2436 1
581 2908 1
581 4140 1
581 4684 1
581 4860 1
581 5699 1
581 5950 1
581 8586 1
581 9259 1
581 9332 1
581 9563 1
582 10 1
582 56 1
582 142 1
582 572 1
582 1325 1
583 1 1
583 10 1
583 106 1
583 112 1
583 629 1
583 641 1
583 900 1
583 963 1
583 1931 1
583 2856 1
583 2960 1
583 2990 1
583 4334 1
583 4344 1
583 5130 1
583 5436 1
583 7159 1
583 8315 1
583 8604 1
583 9444 1
584 19 1
584 55 1
584 131 1
584 182 1
584 1319 1
584 1668 1
584 1843 1
584 2970 1
584 4156 1
584 4506 1
584 4785 1
584 5257 1
584 6404 1
584 7203 1
584 7703 1
584 7775 1
584 9564 1
584 9682 1
585 30 1
585 249 1
585 563 1
585 569 1
586 12 1
586 135 1
586 370 1
586 461 1
586 792 1
586 1021 1
586 1720 1
586 2080 1
586 2374 1
586 2403 1
586 2735 1
586 3260 1
586 3274 1
586 3638 1
586 3665 1
586 3673 1
586 3823 1
586 4338 1
586 4495 1
586 4643 1
586 4854 1
586 5750 1
586 6661 1
586 6833 1
586 7101 1
586 7554 1
587 1 1
587 31 1
587 152 1
587 231 1
587 683 1
587 1629 1
587 2642 1
587 5343 1
587 9624 1
588 14 1
588 196 1
588 426 1
588 446 1
588 618 1
588 1184 1
588 1263 1
588 1804 1
588 3275 1
588 5789 1
588 6090 1
588 6846 1
588 8151 1
589 21 1
589 47 1
589 54 1
589 267 1
589 625 1
589 643 1
589 1799 1
589 5499 1
589 6515 1
589 7004 1
589 8540 1
589 8898 1
589 9200 1
590 17 1
590 120 1
590 254 1
590 436 1
590 622 1
590 751 1
590 1001 1
590 1280 1
590 1457 1
590 1519 1
590 3704 1
590 4209 1
590 5993 1
590 7185 1
590 9284 1
590 9581 1
590 9603 1
591 1 1
591 6 1
591 33 1
591 132 1
591 823 1
591 912 1
591 1162 1
591 1426 1
591 1591 1
591 1924 1
591 2288 1
591 2939 1
591 3543 1
591 3733 1
591 3866 1
592 66 1
592 99 1
592 188 1
592 268 1
592 1890 1
592 2454 1
592 4547 1
592 5439 1
592 5627 1
593 45 1
593 153 1
593 205 1
593 559 1
593 1549 1
593 2309 1
594 71 1
594 319 1
594 361 1
594 572 1
594 815 1
594 1446 1
594 1730 1
594 1764 1
594 2054 1
594 2142 1
594 2441 1
594 2825 1
594 2939 1
594 3798 1
594 4067 1
594 4114 1
594 4389 1
594 8111 1
594 8273 1
595 21 1
595 194 1
595 313 1
595 448 1
595 886 1
595 1127 1
595 1224 1
595 1240 1
595 2849 1
595 4067 1
595 5073 1
595 5688 1
595 5689 1
595 6190 1
595 7271 1
595 9332 1
595 9979 1
596 12 1
596 28 1
596 46 1
596 330 1
596 831 1
596 2497 1
596 5224 1
596 8540 1
596 9653 1
597 7 1
597 33 1
597 260 1
597 526 1
597 608 1
597 609 1
597 822 1
597 1279 1
597 1534 1
597 1573 1
597 1842 1
597 2098 1
597 2483 1
597 3002 1
597 3134 1
597 3425 1
597 4023 1
597 4357 1
597 4679 1
597 4718 1
597 6644 1
597 8653 1
597 8726 1
597 9076 1
597 9522 1
598 7 1
598 24 1
598 314 1
598 566 1
598 833 1
598 866 1
598 1375 1
598 1731 1
598 2469 1
598 3489 1
598 5694 1
598 7240 1
598 7503 1
598 9444 1
599 30 1
599 117 1
599 147 1
599 285 1
599 797 1
599 807 1
599 1126 1
599 1334 1
599 1584 1
599 1600 1
599 1658 1
599 1672 1
599 1680 1
599 1690 1
599 1781 1
599 1857 1
599 1929 1
599 1936 1
599 1964 1
599 1995 1
599 2015 1
599 2041 1
599 2150 1
599 2463 1
599 2735 1
599 2755 1
599 2864 1
599 3053 1
599 3403 1
599 3450 1
599 3457 1
599 3650 1
599 3807 1
599 3966 1
599 4101 1
599 4498 1
599 4512 1
599 4565 1
599 4886 1
599 5454 1
599 5654 1
599 5667 1
599 6104 1
599 6506 1
599 6589 1
599 7127 1
599 7846 1
599 7915 1
599 8233 1
599 8920 1
599 8934 1
599 9149 1
600 13 1
600 160 1
600 282 1
600 481 1
600 2246 1
600 2284 1
600 3481 1
600 4173 1
600 5306 1
600 5507 1
600 5661 1
600 6710 1
600 7629 1
600 9155 1
600 9988 1
601 65 1
601 92 1
601 487 1
601 540 1
601 1095 1
601 1165 1
601 1199 1
601 1277 1
601 1773 1
601 2065 1
601 2161 1
601 2501 1
601 2511 1
601 2651 1
601 3521 1
601 4031 1
601 4412 1
601 6577 1
601 6915 1
601 6947 1
601 7386 1
601 7799 1
601 7833 1
601 8582 1
602 324 1
602 345 1
602 365 1
602 572 1
602 908 1
602 917 1
602 1122 1
602 2403 1
602 2762 1
602 2956 1
602 3910 1
602 4047 1
602 4665 1
602 5983 1
602 6763 1
602 9302 1
602 9882 1
603 25 1
603 282 1
603 324 1
603 499 1
603 800 1
603 2080 1
603 2717 1
603 2828 1
603 2847 1
603 3944 1
603 4147 1
603 4224 1
603 5175 1
603 5204 1
603 5325 1
603 6552 1
603 6620 1
603 7833 1
603 7896 1
603 9072 1
604 87 1
604 95 1
604 228 1
604 477 1
604 1144 1
604 1581 1
604 2889 1
604 3204 1
604 5189 1
604 5243 1
605 122 1
605 350 1
605 403 1
605 559 1
605 885 1
605 927 1
605 1060 1
605 1195 1
605 1377 1
605 1499 1
605 1919 1
605 2106 1
605 2937 1
605 3189 1
605 4177 1
605 5349 1
605 6118 1
605 6154 1
605 6752 1
605 6825 1
605 7208 1
605 7980 1
605 8580 1
605 8982 1
605 9491 1
605 9587 1
606 22 1
606 68 1
606 256 1
606 285 1
606 704 1
606 727 1
606 788 1
606 1206 1
606 2484 1
606 2823 1
606 3294 1
606 3316 1
606 3414 1
606 3590 1
606 3693 1
606 3700 1
606 3815 1
606 4465 1
606 4733 1
606 4905 1
606 4907 1
606 5420 1
606 6734 1
606 6754 1
606 8028 1
606 8474 1
606 8659 1
606 9330 1
606 9678 1
606 9905 1
607 56 1
607 68 1
607 105 1
607 121 1
607 979 1
607 1322 1
607 1872 1
607 1979 1
607 2055 1
607 2061 1
607 3379 1
607 4010 1
607 4774 1
607 5110 1
607 7652 1
607 7785 1
607 9237 1
607 9321 1
608 105 1
608 142 1
608 504 1
608 597 1
608 4366 1
608 9526 1
609 55 1
609 98 1
609 203 1
609 597 1
609 733 1
609 888 1
609 930 1
609 957 1
609 1312 1
609 2036 1
609 2319 1
609 2328 1
609 2780 1
609 3607 1
609 4260 1
609 4839 1
609 5433 1
609 6742 1
609 7128 1
609 7577 1
609 7992 1
609 8510 1
610 86 1
610 214 1
610 288 1
610 373 1
610 674 1
610 904 1
610 1064 1
610 1161 1
610 1298 1
610 1978 1
610 1987 1
610 3198 1
610 3267 1
610 4755 1
610 4984 1
610 5017 1
610 5442 1
610 5444 1
610 5758 1
610 6125 1
610 6323 1
610 6867 1
610 8439 1
611 19 1
611 63 1
611 117 1
611 499 1
611 618 1
611 727 1
611 1424 1
611 1482 1
611 2042 1
611 2319 1
611 2553 1
611 3645 1
611 3780 1
611 3784 1
611 3906 1
611 3957 1
611 3972 1
611 5333 1
611 5468 1
611 5548 1
611 6227 1
611 6473 1
611 6724 1
611 7769 1
611 8172 1
611 8502 1
611 8812 1
611 9076 1
611 9325 1
612 133 1
612 234 1
612 286 1
612 413 1
612 1070 1
612 2147 1
612 3363 1
612 3645 1
612 4113 1
612 4320 1
612 5321 1
612 5466 1
612 5574 1
613 27 1
613 273 1
613 361 1
613 394 1
613 695 1
613 904 1
613 3782 1
613 7690 1
613 7867 1
614 6 1
614 26 1
614 82 1
614 119 1
614 2406 1
614 4488 1
614 4991 1
614 8983 1
615 41 1
615 198 1
615 425 1
615 465 1
615 663 1
615 728 1
615 817 1
615 856 1
615 929 1
615 973 1
615 1095 1
615 1211 1
615 1466 1
615 1585 1
615 1787 1
615 1920 1
615 2274 1
615 2347 1
615 2648 1
615 2706 1
615 2910 1
615 3077 1
615 3296 1
615 3511 1
615 3716 1
615 3799 1
615 3968 1
615 4151 1
615 4232 1
615 4329 1
615 4470 1
615 4597 1
615 4871 1
615 5892 1
615 6352 1
615 6516 1
615 6779 1
615 8548 1
615 8808 1
615 9034 1
616 6 1
616 59 1
616 118 1
616 210 1
616 742 1
616 1721 1
616 2180 1
616 2335 1
616 2424 1
616 2773 1
616 2893 1
616 3979 1
616 4248 1
616 4414 1
616 4520 1
616 5030 1
616 9993 1
617 5 1
617 23 1
617 183 1
617 410 1
617 773 1
617 1560 1
617 2338 1
617 2862 1
617 3683 1
617 4135 1
617 6864 1
617 9381 1
618 8 1
618 93 1
618 588 1
618 611 1
618 1462 1
618 1719 1
618 2999 1
618 3340 1
618 3526 1
618 3845 1
618 7345 1
618 8922 1
619 6 1
619 17 1
619 106 1
619 178 1
619 659 1
619 697 1
619 766 1
619 825 1
619 898 1
619 961 1
619 1190 1
619 1230 1
619 1336 1
619 1344 1
619 1435 1
619 1591 1
619 2289 1
619 2853 1
619 2997 1
619 3133 1
619 3317 1
619 3831 1
619 3857 1
619 4263 1
619 4681 1
619 8240 1
619 9174 1
620 29 1
620 190 1
620 217 1
620 401 1
620 1199 1
620 1689 1
620 1909 1
620 3009 1
620 5132 1
620 5796 1
620 6463 1
620 6750 1
620 8929 1
620 9245 1
621 14 1
621 76 1
621 206 1
621 290 1
621 4710 1
622 8 1
622 10 1
622 116 1
622 590 1
622 739 1
622 1555 1
622 2059 1
622 2085 1
622 3131 1
622 3722 1
622 3833 1
622 4244 1
622 4729 1
622 7601 1
622 8173 1
623 73 1
623 93 1
623 244 1
623 531 1
623 852 1
623 995 1
623 1138 1
623 1519 1
623 2287 1
623 3234 1
623 4136 1
623 4877 1
623 6101 1
623 6558 1
623 6712 1
623 7334 1
624 6 1
624 120 1
624 139 1
624 560 1
624 4209 1
624 4819 1
624 9257 1
625 20 1
625 55 1
625 279 1
625 589 1
625 675 1
625 1210 1
625 1698 1
625 2455 1
625 3838 1
625 4561 1
625 5600 1
625 8432 1
625 10000 1
626 6 1
626 132 1
626 184 1
626 196 1
626 668 1
626 782 1
626 979 1
626 2245 1
626 2646 1
626 3498 1
626 3521 1
626 3555 1
626 3816 1
626 5438 1
626 6245 1
626 6336 1
626 6458 1
627 24 1
627 132 1
627 513 1
627 515 1
627 674 1
627 749 1
627 1373 1
627 2753 1
627 2872 1
627 3996 1
627 4799 1
627 7096 1
627 7459 1
627 8703 1
627 9401 1
628 39 1
628 155 1
628 245 1
628 486 1
628 944 1
628 1023 1
628 1393 1
628 1573 1
628 1871 1
628 1873 1
628 2466 1
628 3942 1
628 4274 1
628 5018 1
628 5245 1
628 6061 1
628 7045 1
628 9206 1
629 122 1
629 126 1
629 341 1
629 583 1
629 733 1
629 775 1
629 854 1
629 859 1
629 968 1
629 1056 1
629 1180 1
629 1577 1
629 1588 1
629 1636 1
629 2726 1
629 3533 1
629 3829 1
629 4026 1
629 7425 1
629 7885 1
629 7967 1
630 3 1
630 4 1
630 141 1
630 580 1
630 1335 1
630 2178 1
630 2475 1
630 3118 1
630 3261 1
630 3524 1
630 5002 1
630 5332 1
630 6033 1
630 7055 1
630 8336 1
630 8547 1
630 8875 1
631 22 1
631 24 1
631 92 1
631 380 1
631 1656 1
631 2133 1
631 3056 1
631 3547 1
631 3638 1
631 4008 1
631 4538 1
631 4561 1
631 5647 1
631 6127 1
631 6423 1
631 7699 1
631 7945 1
631 8362 1
632 27 1
632 51 1
632 125 1
632 547 1
632 675 1
632 804 1
632 1000 1
632 1062 1
632 1088 1
632 1302 1
632 1385 1
632 1727 1
632 1997 1
632 2440 1
632 2510 1
632 2632 1
632 3026 1
632 3103 1
632 3125 1
632 3646 1
632 3727 1
632 3847 1
632 3980 1
632 4257 1
632 5937 1
632 6750 1
632 6984 1
632 7553 1
632 7585 1
632 8947 1
632 9588 1
632 9869 1
633 91 1
633 176 1
633 296 1
633 490 1
633 1615 1
633 3614 1
633 5730 1
633 5974 1
633 6944 1
633 9352 1
633 9964 1
634 34 1
634 37 1
634 182 1
634 430 1
634 999 1
634 2078 1
634 2439 1
634 2758 1
634 3472 1
634 3579 1
634 4104 1
634 4500 1
634 4855 1
634 6780 1
634 9255 1
635 19 1
635 98 1
635 498 1
635 560 1
635 722 1
635 791 1
635 992 1
635 1403 1
635 1717 1
635 2118 1
635 2348 1
635 2532 1
635 2887 1
635 3304 1
635 3804 1
635 4059 1
635 4135 1
635 4235 1
635 4896 1
635 6277 1
635 7157 1
635 7635 1
635 7865 1
635 8156 1
635 8623 1
636 13 1
636 76 1
636 143 1
636 311 1
636 1124 1
636 1231 1
636 1244 1
636 1322 1
636 3958 1
636 3960 1
636 4552 1
636 4741 1
636 4850 1
636 5928 1
636 6353 1
636 7197 1
636 8230 1
636 9613 1
636 9625 1
637 6 1
637 12 1
637 13 1
637 245 1
637 837 1
637 927 1
637 1788 1
637 2329 1
637 2476 1
637 2646 1
637 2721 1
637 3218 1
637 3474 1
637 3674 1
637 4098 1
637 4217 1
637 5036 1
637 5196 1
637 5437 1
637 5757 1
637 5995 1
637 6912 1
637 7211 1
637 9172 1
637 9439 1
638 15 1
638 168 1
638 281 1
638 436 1
638 1241 1
638 1525 1
638 3847 1
638 5424 1
638 6094 1
638 9478 1
638 9922 1
639 3 1
639 105 1
639 151 1
639 198 1
639 1621 1
639 2220 1
639 5843 1
639 7365 1
640 1 1
640 135 1
640 175 1
640 229 1
640 997 1
640 1075 1
640 2080 1
640 2714 1
640 2944 1
640 3037 1
640 3075 1
640 3203 1
640 3338 1
640 3412 1
640 3428 1
640 3467 1
640 3583 1
640 4493 1
640 7071 1
640 7661 1
640 9140 1
640 9317 1
640 9464 1
640 9491 1
640 9575 1
641 3 1
641 8 1
641 67 1
641 583 1
641 886 1
641 1743 1
641 3738 1
641 3886 1
641 3932 1
641 6721 1
641 7362 1
641 9869 1
642 116 1
642 124 1
642 179 1
642 233 1
642 1770 1
642 1852 1
642 2361 1
642 3137 1
642 3148 1
642 3285 1
642 3518 1
642 3823 1
642 4102 1
642 4312 1
642 5291 1
642 8897 1
642 9437 1
643 434 1
643 517 1
643 559 1
643 589 1
643 1640 1
643 1805 1
643 1887 1
643 2539 1
643 5936 1
643 8263 1
644 130 1
644 135 1
644 324 1
644 519 1
644 741 1
644 745 1
644 868 1
644 1136 1
644 1194 1
644 1404 1
644 2286 1
644 2297 1
644 3278 1
644 3996 1
644 4180 1
644 5237 1
644 5446 1
644 5588 1
644 6049 1
644 8176 1
644 9592 1
645 3 1
645 120 1
645 165 1
645 570 1
645 783 1
645 3136 1
645 4804 1
645 5055 1
646 8 1
646 9 1
646 176 1
646 499 1
646 680 1
646 1476 1
646 1532 1
646 2988 1
646 3130 1
646 4052 1
646 5747 1
646 7823 1
646 9303 1
647 8 1
647 10 1
647 42 1
647 383 1
647 892 1
647 2063 1
647 2151 1
647 2576 1
647 2695 1
647 3526 1
647 3946 1
647 4554 1
647 5335 1
647 5540 1
647 5853 1
647 5886 1
647 6306 1
647 7085 1
647 9076 1
647 9377 1
648 6 1
648 137 1
648 150 1
648 305 1
648 1479 1
648 1843 1
648 2309 1
648 3690 1
648 4089 1
648 4200 1
648 7514 1
648 7636 1
648 9403 1
649 6 1
649 48 1
649 77 1
649 348 1
649 1660 1
649 2340 1
649 2951 1
649 3501 1
649 4567 1
649 5407 1
649 6671 1
650 203 1
650 239 1
650 377 1
650 517 1
650 1019 1
650 2335 1
650 3026 1
650 3735 1
650 7067 1
651 6 1
651 199 1
651 238 1
651 288 1
651 802 1
651 849 1
651 864 1
651 1552 1
651 1558 1
651 1754 1
651 1951 1
651 2021 1
651 2316 1
651 2447 1
651 2480 1
651 2769 1
651 2901 1
651 3904 1
651 3989 1
651 4050 1
651 4130 1
651 4278 1
651 4375 1
651 4487 1
651 4704 1
651 5131 1
651 5196 1
651 5711 1
651 6479 1
651 6837 1
651 7224 1
651 7667 1
651 7746 1
651 8389 1
651 8803 1
651 8822 1
651 9353 1
651 9489 1
651 9504 1
651 9595 1
652 40 1
652 45 1
652 203 1
652 254 1
652 3023 1
652 3346 1
652 4829 1
652 5760 1
652 5885 1
652 6533 1
653 10 1
653 11 1
653 84 1
653 416 1
653 695 1
653 1077 1
653 1150 1
653 1210 1
653 3020 1
653 3326 1
653 3504 1
653 3628 1
653 3680 1
653 6243 1
653 6964 1
653 7792 1
653 7853 1
654 122 1
654 301 1
654 393 1
654 395 1
654 1258 1
654 1625 1
654 2746 1
654 3345 1
654 3383 1
654 5860 1
655 1 1
655 56 1
655 119 1
655 561 1
655 1167 1
655 1747 1
655 2696 1
655 2737 1
655 2748 1
655 3017 1
655 3586 1
655 5856 1
655 5866 1
655 8997 1
655 9017 1
655 9730 1
656 27 1
656 51 1
656 286 1
656 418 1
656 1749 1
656 4965 1
656 5042 1
656 5128 1
656 6522 1
656 6690 1
656 7687 1
656 8721 1
657 4 1
657 8 1
657 227 1
657 562 1
657 3170 1
657 4734 1
658 10 1
658 12 1
658 390 1
658 427 1
658 4321 1
658 4957 1
658 7984 1
659 5 1
659 39 1
659 144 1
659 619 1
659 1434 1
659 1639 1
659 2301 1
659 5083 1
659 5610 1
659 6830 1
659 8511 1
659 8790 1
659 9245 1
660 7 1
660 27 1
660 65 1
660 421 1
660 682 1
660 688 1
660 2070 1
660 2257 1
660 2869 1
660 3191 1
660 5487 1
660 5566 1
660 5906 1
660 7018 1
661 6 1
661 13 1
661 295 1
661 524 1
661 775 1
661 1423 1
661 1461 1
661 2263 1
661 5212 1
661 6373 1
662 22 1
662 116 1
662 232 1
662 459 1
662 752 1
662 1898 1
662 7871 1
662 9706 1
663 307 1
663 347 1
663 416 1
663 615 1
663 1040 1
663 1642 1
663 1646 1
663 1917 1
663 2202 1
663 2426 1
663 2704 1
663 3091 1
663 3099 1
663 4593 1
663 4666 1
663 5016 1
663 6206 1
663 6643 1
663 6652 1
663 7809 1
663 9408 1
664 83 1
664 182 1
664 241 1
664 357 1
664 1172 1
664 1291 1
664 1675 1
664 2067 1
664 2071 1
664 3336 1
664 3361 1
664 3755 1
664 3946 1
664 4345 1
664 4574 1
664 5385 1
664 5685 1
664 5925 1
664 6165 1
664 6698 1
664 7800 1
664 9158 1
664 9590 1
665 34 1
665 61 1
665 152 1
665 220 1
665 7224 1
665 8610 1
666 3 1
666 11 1
666 119 1
666 247 1
666 705 1
666 843 1
666 2349 1
666 2405 1
666 3339 1
666 3392 1
666 4208 1
666 5573 1
666 6351 1
667 2 1
667 5 1
667 374 1
667 409 1
667 1128 1
667 1150 1
667 1294 1
667 1373 1
667 2450 1
667 3097 1
667 3101 1
667 3394 1
667 3459 1
667 5485 1
667 5527 1
667 5543 1
667 5644 1
667 5746 1
667 6098 1
667 6846 1
667 7911 1
667 8082 1
667 8367 1
667 9567 1
667 9895 1
668 6 1
668 30 1
668 127 1
668 626 1
668 679 1
668 951 1
668 966 1
668 2135 1
668 2436 1
668 2623 1
668 4282 1
668 4425 1
668 4565 1
668 4899 1
668 8492 1
668 8564 1
668 8623 1
668 8699 1
669 81 1
669 264 1
669 437 1
669 560 1
669 937 1
669 1142 1
669 1294 1
669 1937 1
669 2310 1
669 2440 1
669 2767 1
669 4000 1
669 4628 1
669 6186 1
669 8035 1
669 9697 1
670 45 1
670 86 1
670 142 1
670 555 1
670 704 1
670 1070 1
670 1096 1
670 1185 1
670 2265 1
670 3136 1
670 5026 1
670 6189 1
670 8371 1
671 16 1
671 339 1
671 456 1
671 527 1
671 862 1
671 864 1
671 967 1
671 1148 1
671 1181 1
671 1186 1
671 1210 1
671 1816 1
671 2508 1
671 2959 1
671 3940 1
671 4767 1
671 5879 1
671 6537 1
671 7340 1
671 8453 1
671 8971 1
671 9655 1
671 9906 1
672 49 1
672 66 1
672 90 1
672 498 1
672 796 1
672 5685 1
672 8497 1
673 35 1
673 142 1
673 177 1
673 436 1
673 940 1
673 1010 1
673 1521 1
673 3127 1
673 4145 1
673 4472 1
673 5918 1
673 8177 1
674 339 1
674 456 1
674 610 1
674 627 1
674 1333 1
674 1617 1
674 3582 1
674 3908 1
674 4132 1
674 4411 1
674 5040 1
674 6625 1
674 7243 1
674 7489 1
674 8063 1
674 8075 1
674 8122 1
674 8333 1
674 8934 1
674 9338 1
675 81 1
675 505 1
675 625 1
675 632 1
675 733 1
675 849 1
675 5435 1
675 8752 1
676 22 1
676 26 1
676 31 1
676 171 1
676 1476 1
676 2527 1
676 3254 1
676 4090 1
676 5239 1
676 8738 1
676 9371 1
677 56 1
677 272 1
677 309 1
677 486 1
677 2518 1
677 3384 1
677 7753 1
677 8305 1
678 1 1
678 9 1
678 13 1
678 212 1
678 947 1
678 1385 1
678 2155 1
678 2611 1
678 2721 1
678 2817 1
678 2821 1
678 2963 1
678 3013 1
678 3341 1
678 4540 1
678 5182 1
678 7023 1
678 8613 1
679 5 1
679 19 1
679 300 1
679 668 1
679 1542 1
679 1786 1
679 3146 1
679 6990 1
679 8333 1
679 9295 1
680 115 1
680 211 1
680 392 1
680 646 1
680 1072 1
680 1424 1
680 1504 1
680 2010 1
680 2232 1
680 2670 1
680 2858 1
680 3132 1
680 3728 1
680 4225 1
680 4492 1
680 5405 1
680 6128 1
680 6152 1
680 6848 1
680 7919 1
680 8413 1
681 40 1
681 269 1
681 293 1
681 329 1
681 808 1
681 2989 1
681 3864 1
681 3971 1
681 4243 1
681 4779 1
682 63 1
682 64 1
682 139 1
682 660 1
682 1908 1
682 2317 1
682 5230 1
682 7275 1
682 8161 1
683 270 1
683 277 1
683 399 1
683 587 1
683 932 1
683 1103 1
683 1313 1
683 1855 1
683 2751 1
683 3444 1
683 3901 1
683 3973 1
683 4253 1
683 4515 1
683 4669 1
683 5461 1
683 5564 1
683 6174 1
683 6190 1
683 6200 1
683 6682 1
683 7290 1
683 7762 1
683 7773 1
683 9804 1
684 202 1
684 229 1
684 252 1
684 445 1
684 4294 1
684 4764 1
684 6091 1
685 11 1
685 186 1
685 226 1
685 504 1
685 699 1
685 1058 1
685 1274 1
685 1501 1
685 2480 1
685 3579 1
686 1 1
686 301 1
686 329 1
686 457 1
686 6281 1
687 5 1
687 134 1
687 448 1
687 478 1
687 795 1
687 1276 1
687 1407 1
687 2662 1
687 4522 1
687 5842 1
687 7759 1
688 10 1
688 289 1
688 571 1
688 660 1
688 1080 1
688 1882 1
688 2002 1
688 2634 1
688 2651 1
688 2970 1
688 4017 1
688 5077 1
688 5643 1
688 6188 1
688 7930 1
688 8475 1
688 9355 1
689 11 1
689 112 1
689 117 1
689 438 1
689 1324 1
689 2114 1
689 2949 1
689 3012 1
689 3098 1
689 3373 1
689 5535 1
689 7962 1
690 12 1
690 114 1
690 142 1
690 447 1
690 1337 1
690 1385 1
690 1584 1
690 1708 1
690 1731 1
690 1751 1
690 1785 1
690 1917 1
690 1949 1
690 2199 1
690 2239 1
690 2287 1
690 2364 1
690 2614 1
690 2736 1
690 2856 1
690 3776 1
690 3849 1
690 4330 1
690 4525 1
690 4721 1
690 4789 1
690 4885 1
690 5143 1
690 5443 1
690 5814 1
690 6051 1
690 6083 1
690 6200 1
690 6890 1
690 7136 1
690 7190 1
690 7240 1
690 7372 1
690 7415 1
690 7650 1
690 7993 1
690 8435 1
690 8556 1
690 8595 1
690 8723 1
690 8738 1
690 8814 1
690 8982 1
690 9756 1
691 26 1
691 91 1
691 166 1
691 228 1
691 723 1
691 881 1
691 1341 1
691 1469 1
691 1621 1
691 1700 1
691 1870 1
691 1874 1
691 1898 1
691 2053 1
691 3119 1
691 4025 1
691 4415 1
691 4596 1
691 7023 1
691 8153 1
691 8447 1
691 8454 1
691 9568 1
692 12 1
692 81 1
692 138 1
692 413 1
692 1415 1
692 2828 1
692 3977 1
692 4953 1
693 11 1
693 48 1
693 110 1
693 310 1
693 739 1
693 907 1
693 911 1
693 1789 1
693 3477 1
693 3976 1
693 4288 1
693 5650 1
693 6168 1
693 7271 1
693 8026 1
693 9461 1
694 17 1
694 69 1
694 369 1
694 549 1
694 695 1
694 808 1
694 1225 1
694 1413 1
694 1484 1
694 1681 1
694 4296 1
694 4321 1
694 4703 1
694 5232 1
694 7059 1
694 7394 1
694 8238 1
694 8310 1
694 8356 1
694 8837 1
694 9254 1
694 9910 1
695 29 1
695 613 1
695 653 1
695 694 1
695 1793 1
695 2938 1
695 6874 1
695 8846 1
696 65 1
696 134 1
696 135 1
696 192 1
696 997 1
696 1079 1
696 1633 1
696 2309 1
696 2438 1
696 2449 1
696 3120 1
696 3584 1
696 3669 1
696 3969 1
696 4037 1
696 4266 1
696 4282 1
696 5155 1
696 5284 1
696 5421 1
696 5564 1
696 5730 1
696 5938 1
696 6470 1
696 6686 1
696 6995 1
696 7420 1
696 7591 1
696 7803 1
696 9117 1
696 9717 1
697 17 1
697 34 1
697 53 1
697 619 1
697 3845 1
697 8247 1
697 9354 1
698 1 1
698 42 1
698 283 1
698 415 1
698 993 1
698 3336 1
698 4216 1
698 4342 1
698 5012 1
698 5290 1
698 5740 1
698 6384 1
698 8329 1
698 8734 1
698 8880 1
699 15 1
699 20 1
699 201 1
699 685 1
699 910 1
699 2677 1
699 4286 1
699 5832 1
699 5884 1
699 6806 1
699 7597 1
699 8134 1
699 8534 1
699 8755 1
699 9177 1
699 9584 1
699 9591 1
700 41 1
700 61 1
700 66 1
700 72 1
700 1068 1
700 1604 1
700 3319 1
700 4508 1
700 4593 1
700 6374 1
700 9502 1
701 1 1
701 66 1
701 166 1
701 289 1
701 1665 1
701 3246 1
701 4330 1
701 6134 1
701 7842 1
702 4 1
702 6 1
702 302 1
702 379 1
702 723 1
702 1055 1
702 1159 1
702 1461 1
702 2483 1
702 2957 1
702 3031 1
702 3218 1
702 4245 1
702 4383 1
702 4400 1
702 4669 1
702 4985 1
702 6389 1
702 8278 1
702 9093 1
702 9279 1
702 9731 1
703 64 1
703 65 1
703 149 1
703 285 1
703 1132 1
703 1176 1
703 1305 1
703 1533 1
703 2169 1
703 2924 1
703 3569 1
703 5032 1
703 7273 1
703 8723 1
703 9663 1
704 138 1
704 238 1
704 606 1
704 670 1
704 787 1
704 2665 1
704 3117 1
704 3307 1
704 3525 1
704 6556 1
704 7449 1
704 8908 1
704 9091 1
705 8 1
705 11 1
705 143 1
705 666 1
705 4808 1
705 5348 1
705 7916 1
705 8410 1
705 9535 1
706 153 1
706 251 1
706 263 1
706 293 1
706 730 1
706 866 1
706 1130 1
706 1603 1
706 1894 1
706 2102 1
706 2138 1
706 2476 1
706 2524 1
706 3005 1
706 3139 1
706 3746 1
706 3771 1
706 3967 1
706 4032 1
706 4100 1
706 4466 1
706 7453 1
706 7461 1
707 8 1
707 11 1
707 313 1
707 509 1
707 959 1
707 962 1
707 1447 1
707 1654 1
707 2372 1
707 3122 1
707 3383 1
707 3705 1
707 4688 1
707 5250 1
707 5392 1
707 5806 1
707 6111 1
707 7815 1
707 7853 1
707 8361 1
708 6 1
708 10 1
708 92 1
708 148 1
708 1027 1
708 1398 1
708 1490 1
708 1828 1
708 2969 1
708 3327 1
708 5854 1
708 6424 1
708 6740 1
708 7309 1
708 8073 1
708 8360 1
709 48 1
709 63 1
709 240 1
709 369 1
709 718 1
709 973 1
709 1487 1
709 1640 1
709 4339 1
709 4482 1
709 5396 1
709 6123 1
709 8776 1
710 4 1
710 6 1
710 185 1
710 201 1
710 957 1
710 1388 1
710 3245 1
710 3491 1
710 5105 1
710 6866 1
711 14 1
711 97 1
711 147 1
711 318 1
711 978 1
711 1314 1
711 1468 1
711 1509 1
711 1522 1
711 1827 1
711 2129 1
711 2368 1
711 2382 1
711 2560 1
711 2569 1
711 2605 1
711 3329 1
711 3523 1
711 3578 1
711 4283 1
711 4964 1
711 6222 1
711 6416 1
711 6517 1
711 6879 1
711 7890 1
711 8252 1
711 8544 1
711 8587 1
712 14 1
712 127 1
712 305 1
712 461 1
712 812 1
712 2106 1
712 2347 1
712 2795 1
712 3176 1
712 3954 1
712 5308 1
713 17 1
713 19 1
713 81 1
713 485 1
713 986 1
713 2901 1
713 3275 1
713 4399 1
713 5181 1
713 5853 1
713 6507 1
713 6761 1
713 6986 1
713 7658 1
713 8734 1
714 98 1
714 149 1
714 398 1
714 576 1
714 732 1
714 807 1
714 1052 1
714 1245 1
714 1282 1
714 1526 1
714 1701 1
714 1744 1
714 1835 1
714 2012 1
714 2104 1
714 2578 1
714 2734 1
714 2973 1
714 4665 1
714 4676 1
714 5579 1
714 5617 1
714 5796 1
714 6834 1
714 7158 1
714 7172 1
714 8739 1
714 9164 1
714 9489 1
715 182 1
715 227 1
715 416 1
715 547 1
715 749 1
715 770 1
715 1288 1
715 1307 1
715 1755 1
715 2133 1
715 2980 1
715 3045 1
715 4687 1
715 4790 1
715 6257 1
715 7472 1
715 8262 1
715 8960 1
715 9143 1
715 9266 1
716 65 1
716 267 1
716 437 1
716 452 1
716 2717 1
716 3550 1
716 3848 1
716 4592 1
716 6686 1
716 7755 1
716 8119 1
716 9189 1
716 9211 1
717 5 1
717 105 1
717 264 1
717 363 1
717 804 1
717 1171 1
717 1465 1
717 2020 1
717 3481 1
717 4878 1
717 8457 1
718 24 1
718 347 1
718 426 1
718 709 1
718 924 1
718 1263 1
718 1662 1
718 1683 1
718 2254 1
718 2270 1
718 2349 1
718 2502 1
718 2525 1
718 2626 1
718 3025 1
718 3142 1
718 3281 1
718 3309 1
718 3604 1
718 3668 1
718 3822 1
718 3889 1
718 4176 1
718 5628 1
718 5807 1
718 6032 1
718 6381 1
718 6606 1
718 8867 1
718 9173 1
719 6 1
719 39 1
719 135 1
719 540 1
719 763 1
719 789 1
719 813 1
719 918 1
719 936 1
719 944 1
719 1046 1
719 1123 1
719 1297 1
719 1389 1
719 1551 1
719 1599 1
719 1886 1
719 2204 1
719 2489 1
719 2589 1
719 2804 1
719 2890 1
719 2976 1
719 3655 1
719 3852 1
719 4216 1
719 4478 1
719 5033 1
719 5344 1
719 5578 1
719 5683 1
719 6696 1
719 6877 1
719 6990 1
719 7998 1
719 8070 1
719 8750 1
719 8834 1
719 9331 1
719 9616 1
720 6 1
720 183 1
720 281 1
720 563 1
720 936 1
720 1120 1
720 1564 1
720 2240 1
720 5391 1
720 5626 1
721 113 1
721 241 1
721 340 1
721 529 1
721 740 1
721 3689 1
721 3690 1
721 4639 1
721 4936 1
721 7508 1
721 8210 1
722 1 1
722 166 1
722 557 1
722 635 1
722 2100 1
722 2354 1
722 4175 1
722 4728 1
722 4768 1
722 7196 1
722 7375 1
722 9819 1
723 132 1
723 290 1
723 691 1
723 702 1
723 1255 1
723 1306 1
723 4012 1
723 4727 1
723 4730 1
723 5771 1
723 7551 1
723 7731 1
723 7749 1
723 7892 1
724 2 1
724 118 1
724 401 1
724 507 1
724 1046 1
724 1483 1
724 2001 1
724 2624 1
724 4589 1
724 4733 1
724 4828 1
724 5265 1
724 5435 1
724 6007 1
724 6010 1
724 6932 1
724 8261 1
725 19 1
725 34 1
725 118 1
725 283 1
725 1171 1
725 1900 1
725 2205 1
725 2560 1
725 3459 1
725 4228 1
725 4246 1
725 5302 1
725 5313 1
725 5979 1
725 6192 1
725 9077 1
726 12 1
726 123 1
726 201 1
726 210 1
726 1597 1
726 1652 1
726 1672 1
726 2173 1
726 2385 1
726 2705 1
726 4228 1
726 4697 1
726 5079 1
726 5944 1
726 6804 1
726 8127 1
726 8532 1
726 8916 1
726 9029 1
726 9270 1
727 1 1
727 286 1
727 606 1
727 611 1
727 777 1
727 3543 1
727 3701 1
727 9421 1
728 69 1
728 306 1
728 314 1
728 615 1
728 1121 1
728 1302 1
728 1507 1
728 1565 1
728 3363 1
728 5526 1
728 7551 1
728 8671 1
728 9742 1
729 94 1
729 143 1
729 235 1
729 484 1
729 845 1
729 958 1
729 1196 1
729 1328 1
729 3259 1
729 3271 1
729 3515 1
729 3709 1
729 4510 1
729 6560 1
729 7600 1
729 8386 1
729 8636 1
730 370 1
730 373 1
730 418 1
730 706 1
730 1206 1
730 1989 1
730 2171 1
730 2655 1
730 3430 1
730 5262 1
730 6486 1
730 7011 1
730 8245 1
730 9404 1
730 9794 1
731 163 1
731 294 1
731 361 1
731 470 1
731 1606 1
731 2482 1
732 29 1
732 57 1
732 201 1
732 714 1
732 790 1
732 929 1
732 1176 1
732 2030 1
732 2846 1
732 4273 1
732 5801 1
732 5934 1
732 7086 1
732 7358 1
732 7383 1
732 7878 1
732 8267 1
732 9403 1
732 9975 1
732 9983 1
733 362 1
733 609 1
733 629 1
733 675 1
733 3146 1
733 6581 1
733 7132 1
733 9993 1
734 8 1
734 11 1
734 274 1
734 358 1
734 787 1
734 984 1
734 1935 1
734 2288 1
734 3051 1
734 7717 1
734 7792 1
734 8744 1
734 8896 1
735 1 1
735 3 1
735 56 1
735 263 1
735 1170 1
735 1473 1
735 1988 1
735 2070 1
735 2618 1
735 3030 1
735 3212 1
735 3425 1
735 3544 1
735 3943 1
735 5086 1
735 9562 1
736 121 1
736 243 1
736 305 1
736 362 1
736 1524 1
736 2876 1
736 2877 1
736 4574 1
736 6804 1
736 7840 1
737 64 1
737 78 1
737 194 1
737 564 1
737 958 1
737 1100 1
737 1284 1
737 1316 1
737 1809 1
737 3089 1
737 4100 1
737 4657 1
737 5372 1
737 5457 1
737 5538 1
737 5723 1
737 5861 1
737 6707 1
737 6927 1
737 8746 1
737 8897 1
737 9175 1
738 2 1
738 142 1
738 274 1
738 420 1
738 1720 1
738 2489 1
738 2890 1
738 5167 1
739 11 1
739 362 1
739 622 1
739 693 1
739 1273 1
739 1798 1
739 2043 1
739 2426 1
739 2444 1
739 2632 1
739 3157 1
739 3172 1
739 4669 1
739 6413 1
739 6851 1
739 6946 1
739 7837 1
739 7979 1
739 8138 1
739 9408 1
739 9997 1
740 28 1
740 167 1
740 579 1
740 721 1
740 1732 1
740 2464 1
740 4134 1
741 13 1
741 66 1
741 531 1
741 644 1
741 765 1
741 906 1
741 4727 1
741 5748 1
741 9460 1
742 52 1
742 121 1
742 293 1
742 616 1
742 969 1
742 3780 1
742 4923 1
742 5157 1
742 6291 1
742 6510 1
742 7835 1
743 17 1
743 79 1
743 240 1
743 478 1
743 2249 1
743 8613 1
744 13 1
744 23 1
744 339 1
744 461 1
744 822 1
744 829 1
744 907 1
744 950 1
744 1205 1
744 1276 1
744 1303 1
744 1706 1
744 2708 1
744 2809 1
744 2954 1
744 3095 1
744 3257 1
744 3392 1
744 3429 1
744 3511 1
744 3566 1
744 4571 1
744 4711 1
744 5015 1
744 6194 1
744 6297 1
744 6947 1
744 7883 1
744 8478 1
744 9360 1
745 115 1
745 264 1
745 385 1
745 644 1
745 1515 1
745 4421 1
745 8524 1
745 8668 1
746 1 1
746 31 1
746 427 1
746 439 1
746 949 1
746 1349 1
746 1495 1
746 3747 1
746 4283 1
746 4383 1
746 7762 1
747 81 1
747 135 1
747 145 1
747 275 1
747 1240 1
747 1637 1
747 5412 1
748 13 1
748 19 1
748 36 1
748 43 1
748 1358 1
748 3840 1
748 4799 1
748 4849 1
748 5890 1
748 7162 1
748 8822 1
749 343 1
749 566 1
749 627 1
749 715 1
749 1441 1
749 1984 1
749 2026 1
749 2463 1
749 2539 1
749 3015 1
749 3541 1
749 4429 1
749 4953 1
749 5164 1
749 5226 1
749 5358 1
749 8081 1
749 8271 1
749 9031 1
749 9322 1
750 46 1
750 68 1
750 115 1
750 428 1
750 1527 1
750 1577 1
750 1986 1
750 2254 1
750 2725 1
750 2923 1
750 3107 1
750 3942 1
750 4074 1
750 5151 1
750 5794 1
750 7931 1
751 19 1
751 55 1
751 581 1
751 590 1
751 1776 1
752 67 1
752 273 1
752 566 1
752 662 1
752 2120 1
752 4211 1
752 6176 1
753 49 1
753 370 1
753 392 1
753 470 1
753 1865 1
753 1970 1
753 2279 1
753 2433 1
753 3362 1
753 4061 1
753 4918 1
753 5868 1
753 6098 1
753 6246 1
753 6502 1
753 7930 1
753 8848 1
754 12 1
754 66 1
754 180 1
754 322 1
754 836 1
754 846 1
754 1089 1
754 1220 1
754 1624 1
754 2535 1
754 2662 1
754 4066 1
754 4900 1
754 4972 1
754 5002 1
754 9392 1
754 9842 1
755 56 1
755 308 1
755 364 1
755 400 1
755 759 1
755 1092 1
755 1554 1
755 2011 1
755 2107 1
755 2321 1
755 2824 1
755 2927 1
755 4438 1
755 4975 1
755 5466 1
755 6686 1
755 6826 1
755 6998 1
756 5 1
756 200 1
756 259 1
756 427 1
756 850 1
756 1582 1
756 2494 1
756 3738 1
756 3947 1
756 5807 1
756 5970 1
756 8274 1
756 9062 1
757 32 1
757 72 1
757 275 1
757 571 1
757 830 1
757 6781 1
757 7841 1
758 6 1
758 235 1
758 421 1
758 539 1
758 921 1
758 962 1
758 1040 1
758 1671 1
758 1743 1
758 1827 1
758 1873 1
758 1966 1
758 2314 1
758 2506 1
758 2672 1
758 4373 1
758 4765 1
758 5006 1
758 7424 1
758 8059 1
758 9105 1
759 19 1
759 51 1
759 365 1
759 755 1
759 919 1
759 1412 1
759 2348 1
759 2541 1
759 2588 1
759 2640 1
759 4082 1
759 4123 1
759 4995 1
759 5500 1
759 5829 1
759 6475 1
759 7209 1
759 7497 1
759 8330 1
759 8891 1
759 8950 1
759 9723 1
759 9915 1
759 9968 1
760 17 1
760 101 1
760 139 1
760 485 1
760 1437 1
760 1548 1
760 2350 1
760 2362 1
760 2523 1
760 3957 1
760 4104 1
760 6354 1
760 7688 1
760 8441 1
760 8477 1
760 9130 1
760 9194 1
761 64 1
761 94 1
761 301 1
761 485 1
761 1017 1
761 1443 1
761 1707 1
761 1776 1
761 2463 1
761 2899 1
761 3656 1
761 4628 1
761 5697 1
761 5941 1
761 6001 1
761 8144 1
761 9910 1
762 12 1
762 13 1
762 124 1
762 228 1
762 1426 1
762 2156 1
762 3490 1
762 5174 1
762 5283 1
762 5511 1
762 7603 1
762 7799 1
762 9369 1
762 9582 1
763 115 1
763 128 1
763 266 1
763 719 1
763 1118 1
763 7707 1
763 7758 1
763 9763 1
764 6 1
764 9 1
764 56 1
764 174 1
764 1018 1
764 1191 1
764 1418 1
764 2613 1
764 4009 1
764 5097 1
764 8413 1
764 8513 1
765 48 1
765 152 1
765 224 1
765 741 1
765 801 1
765 828 1
765 853 1
765 891 1
765 1286 1
765 1287 1
765 1354 1
765 2609 1
765 2821 1
765 2889 1
765 3540 1
765 3563 1
765 4855 1
765 4948 1
765 5053 1
765 5850 1
765 6529 1
765 6533 1
765 6873 1
765 6910 1
765 7598 1
765 8393 1
765 8803 1
766 194 1
766 208 1
766 379 1
766 619 1
766 1414 1
766 1671 1
766 2466 1
766 4960 1
766 5111 1
766 5841 1
766 6016 1
766 6644 1
766 6824 1
766 7250 1
766 7389 1
766 7408 1
766 8197 1
766 8459 1
766 9541 1
767 6 1
767 27 1
767 188 1
767 580 1
767 922 1
767 1205 1
767 1661 1
767 2228 1
767 3006 1
767 3872 1
767 4190 1
767 4883 1
767 5734 1
767 6436 1
767 6911 1
767 6995 1
767 7146 1
767 7770 1
767 8923 1
768 14 1
768 34 1
768 109 1
768 254 1
768 1863 1
768 2356 1
768 2751 1
768 5272 1
768 5721 1
768 7262 1
768 9340 1
769 66 1
769 112 1
769 149 1
769 482 1
769 1225 1
769 1614 1
769 2074 1
769 2719 1
769 8638 1
769 9753 1
770 16 1
770 142 1
770 496 1
770 715 1
770 1654 1
770 3239 1
770 7554 1
771 6 1
771 17 1
771 102 1
771 260 1
771 860 1
771 990 1
771 1146 1
771 1235 1
771 2580 1
771 2819 1
771 3407 1
771 3424 1
771 3787 1
771 4085 1
771 4419 1
771 4832 1
771 6616 1
771 6696 1
771 7410 1
771 7693 1
772 16 1
772 296 1
772 374 1
772 404 1
772 2337 1
772 2416 1
772 2451 1
772 3546 1
772 6182 1
772 6861 1
772 8608 1
773 46 1
773 272 1
773 476 1
773 617 1
773 2299 1
773 2355 1
773 4686 1
773 8339 1
774 126 1
774 223 1
774 268 1
774 557 1
774 985 1
774 1036 1
774 2024 1
774 2906 1
774 4010 1
774 6104 1
774 6203 1
774 6989 1
774 8825 1
775 81 1
775 86 1
775 629 1
775 661 1
775 1527 1
775 1695 1
775 2457 1
775 2602 1
775 6072 1
775 9315 1
775 9985 1
776 6 1
776 13 1
776 204 1
776 210 1
776 894 1
776 926 1
776 994 1
776 3165 1
776 3195 1
776 6387 1
776 6699 1
777 5 1
777 6 1
777 367 1
777 727 1
777 877 1
777 1008 1
777 1143 1
777 1381 1
777 1397 1
777 1765 1
777 2295 1
777 2576 1
777 3501 1
777 3790 1
777 7313 1
777 8391 1
778 6 1
778 298 1
778 399 1
778 443 1
778 2945 1
778 3261 1
778 7927 1
778 8067 1
779 74 1
779 87 1
779 117 1
779 498 1
779 1016 1
779 2477 1
779 3426 1
779 6453 1
779 8050 1
780 6 1
780 27 1
780 285 1
780 500 1
780 3613 1
780 4880 1
780 6088 1
780 6252 1
780 8660 1
781 3 1
781 202 1
781 244 1
781 549 1
781 1669 1
781 5077 1
781 5941 1
781 6893 1
781 6992 1
781 8665 1
782 15 1
782 58 1
782 513 1
782 626 1
782 1930 1
782 2023 1
782 3478 1
782 3678 1
782 4835 1
782 7403 1
782 9086 1
783 11 1
783 34 1
783 264 1
783 645 1
783 2330 1
783 2430 1
783 2680 1
783 2707 1
783 2934 1
783 5540 1
783 6297 1
783 8439 1
783 8922 1
783 8950 1
783 9202 1
783 9846 1
784 11 1
784 83 1
784 535 1
784 576 1
784 1764 1
784 3182 1
784 3253 1
784 4958 1
784 6649 1
785 4 1
785 101 1
785 370 1
785 420 1
785 977 1
785 1403 1
785 1619 1
785 1794 1
785 2112 1
785 2566 1
785 3406 1
785 4172 1
785 4230 1
785 4331 1
785 4439 1
785 4983 1
785 6287 1
785 6710 1
785 9642 1
785 9816 1
786 25 1
786 162 1
786 240 1
786 272 1
786 920 1
786 1188 1
786 1409 1
786 1450 1
786 1468 1
786 1819 1
786 1968 1
786 2765 1
786 3338 1
786 3602 1
786 3694 1
786 4962 1
786 5499 1
786 5502 1
786 6830 1
786 8288 1
786 8323 1
787 10 1
787 198 1
787 704 1
787 734 1
787 2731 1
787 3556 1
787 6341 1
787 8173 1
788 117 1
788 386 1
788 415 1
788 606 1
788 1010 1
788 1539 1
788 2709 1
788 5431 1
788 7909 1
789 91 1
789 258 1
789 260 1
789 719 1
789 884 1
789 1119 1
789 1498 1
789 3195 1
789 3306 1
789 3310 1
789 4324 1
789 5005 1
789 6746 1
789 6863 1
789 6958 1
789 8251 1
790 12 1
790 301 1
790 447 1
790 732 1
790 1392 1
790 1795 1
790 2399 1
790 2755 1
790 3408 1
790 4059 1
790 9017 1
790 9517 1
790 9523 1
790 9829 1
791 6 1
791 10 1
791 51 1
791 635 1
791 892 1
791 984 1
791 1106 1
791 1391 1
791 1516 1
791 1891 1
791 2625 1
791 2698 1
791 2812 1
791 3156 1
791 3325 1
791 3762 1
791 4151 1
791 4165 1
791 4219 1
791 4694 1
791 5153 1
791 5297 1
791 5436 1
791 6388 1
791 7138 1
791 7413 1
792 93 1
792 342 1
792 564 1
792 586 1
792 1493 1
792 3252 1
792 4190 1
792 4776 1
792 6285 1
792 6932 1
792 7913 1
793 1 1
793 243 1
793 355 1
793 468 1
793 1249 1
793 2082 1
793 2094 1
793 2443 1
793 3004 1
793 3055 1
793 3621 1
793 4551 1
793 9753 1
794 21 1
794 56 1
794 117 1
794 526 1
794 799 1
794 889 1
794 934 1
794 1090 1
794 1702 1
794 1736 1
794 1824 1
794 1871 1
794 2047 1
794 3742 1
794 4298 1
794 4622 1
794 4897 1
794 4919 1
794 5693 1
794 6576 1
794 6757 1
794 6767 1
794 7715 1
794 9682 1
794 9692 1
795 87 1
795 138 1
795 264 1
795 687 1
795 1606 1
795 3033 1
795 5249 1
795 7183 1
795 8267 1
796 5 1
796 7 1
796 15 1
796 672 1
796 819 1
796 1935 1
796 2157 1
796 2434 1
796 2655 1
796 2976 1
796 3881 1
796 3951 1
796 4568 1
796 5026 1
796 5363 1
796 5443 1
796 8980 1
796 9525 1
796 9972 1
797 137 1
797 299 1
797 374 1
797 599 1
797 1010 1
797 1135 1
797 2730 1
797 3208 1
797 3600 1
797 3620 1
797 4909 1
797 4910 1
797 5630 1
797 6659 1
797 8287 1
797 9839 1
798 81 1
798 259 1
798 307 1
798 397 1
798 963 1
798 2499 1
798 3231 1
798 9255 1
799 98 1
799 105 1
799 279 1
799 794 1
799 803 1
799 1030 1
799 1068 1
799 1254 1
799 1419 1
799 2935 1
799 3271 1
799 3278 1
799 3373 1
799 3681 1
799 4123 1
799 4162 1
799 4221 1
799 5897 1
799 6430 1
799 7480 1
799 9339 1
800 123 1
800 287 1
800 568 1
800 603 1
800 1049 1
800 3043 1
800 3087 1
800 3785 1
800 3916 1
800 3932 1
800 3978 1
800 3993 1
800 4138 1
800 4896 1
800 5829 1
800 9062 1
801 99 1
801 370 1
801 447 1
801 765 1
801 6342 1
801 6668 1
801 8195 1
802 148 1
802 149 1
802 288 1
802 651 1
802 4321 1
802 6066 1
802 7615 1
802 7737 1
802 8399 1
803 6 1
803 121 1
803 223 1
803 799 1
803 1074 1
803 1086 1
803 2645 1
804 28 1
804 42 1
804 632 1
804 717 1
804 2256 1
804 2623 1
804 3176 1
804 3202 1
804 4961 1
804 6418 1
804 7018 1
805 279 1
805 435 1
805 439 1
805 474 1
805 1092 1
805 1813 1
805 3784 1
806 5 1
806 271 1
806 281 1
806 535 1
806 1106 1
806 1411 1
806 1449 1
806 6318 1
806 6462 1
806 8419 1
807 393 1
807 561 1
807 599 1
807 714 1
807 865 1
807 1192 1
807 1478 1
807 1529 1
807 1977 1
807 2261 1
807 2675 1
807 3059 1
807 3891 1
807 4039 1
807 4050 1
807 4698 1
807 4744 1
807 4918 1
807 5194 1
807 5221 1
807 6380 1
807 7093 1
807 7314 1
807 7620 1
807 7992 1
807 8397 1
807 8419 1
807 8891 1
808 71 1
808 298 1
808 681 1
808 694 1
808 842 1
808 949 1
808 1921 1
808 3315 1
808 3746 1
808 4096 1
808 5034 1
808 8419 1
808 8698 1
808 9286 1
808 9370 1
809 1 1
809 30 1
809 262 1
809 359 1
809 1076 1
809 2958 1
810 15 1
810 140 1
810 219 1
810 251 1
810 1688 1
810 2852 1
810 3166 1
811 10 1
811 38 1
811 125 1
811 212 1
811 2706 1
811 3796 1
811 3933 1
811 4852 1
812 4 1
812 11 1
812 401 1
812 712 1
812 1676 1
812 2095 1
812 2515 1
812 4003 1
812 4361 1
812 4553 1
812 5000 1
812 6574 1
812 8334 1
812 8749 1
812 8981 1
812 9474 1
813 54 1
813 346 1
813 526 1
813 719 1
813 821 1
813 1433 1
813 1561 1
813 1811 1
813 2148 1
813 2521 1
813 2992 1
813 6410 1
813 8629 1
813 9971 1
814 39 1
814 193 1
814 323 1
814 403 1
814 1053 1
814 1541 1
814 2573 1
814 2639 1
814 2993 1
814 6691 1
814 6970 1
814 7090 1
814 9094 1
814 9913 1
815 82 1
815 360 1
815 578 1
815 594 1
815 989 1
815 1427 1
815 2086 1
815 2114 1
815 2177 1
815 2372 1
815 2621 1
815 2839 1
815 2943 1
815 3498 1
815 4046 1
815 6041 1
815 6437 1
815 6441 1
815 6499 1
815 7674 1
815 7760 1
815 8198 1
816 3 1
816 7 1
816 19 1
816 145 1
816 818 1
816 1027 1
816 1092 1
816 1270 1
816 1593 1
816 1697 1
816 3181 1
816 4302 1
816 4475 1
816 4778 1
816 5421 1
816 5983 1
816 6420 1
816 6772 1
816 7905 1
816 8185 1
817 12 1
817 250 1
817 520 1
817 615 1
817 832 1
817 1151 1
817 2672 1
817 2921 1
817 3008 1
817 3101 1
817 5457 1
817 5466 1
817 6946 1
817 7399 1
817 8618 1
818 55 1
818 206 1
818 273 1
818 816 1
818 1034 1
818 1182 1
818 1555 1
818 2318 1
818 4648 1
818 7881 1
818 8968 1
819 63 1
819 180 1
819 416 1
819 796 1
819 900 1
819 1836 1
819 1879 1
819 3040 1
819 3074 1
819 5523 1
819 5627 1
819 6293 1
819 7181 1
819 8503 1
819 8712 1
819 9722 1
820 12 1
820 106 1
820 185 1
820 211 1
820 1420 1
820 5257 1
820 5838 1
820 6582 1
820 8104 1
820 8898 1
821 33 1
821 135 1
821 537 1
821 813 1
821 870 1
821 7825 1
821 9591 1
822 13 1
822 72 1
822 597 1
822 744 1
822 864 1
822 1172 1
822 1242 1
822 1680 1
822 1825 1
822 2153 1
822 2226 1
822 2566 1
822 2972 1
822 4436 1
822 5139 1
822 5776 1
822 6112 1
822 8735 1
823 17 1
823 299 1
823 361 1
823 591 1
823 887 1
823 923 1
823 1346 1
823 1440 1
823 1808 1
823 2298 1
823 2742 1
823 2995 1
823 3418 1
823 4544 1
823 4556 1
823 5072 1
823 5188 1
823 6292 1
823 6593 1
823 6892 1
823 7106 1
823 8198 1
823 8278 1
824 5 1
824 11 1
824 39 1
824 153 1
824 825 1
824 841 1
824 954 1
824 1024 1
824 1143 1
824 1145 1
824 1332 1
824 1968 1
824 4286 1
824 4402 1
824 4797 1
824 5550 1
824 6185 1
824 6218 1
824 8506 1
824 9449 1
824 9473 1
825 37 1
825 70 1
825 619 1
825 824 1
825 2910 1
825 3102 1
826 33 1
826 42 1
826 196 1
826 230 1
826 938 1
826 1066 1
826 1157 1
826 1173 1
826 2471 1
826 2804 1
826 3819 1
826 3990 1
826 4135 1
826 4214 1
826 4221 1
826 5193 1
826 5519 1
826 5816 1
826 6766 1
826 8884 1
826 9262 1
826 9360 1
826 9473 1
826 9793 1
826 9930 1
827 103 1
827 183 1
827 286 1
827 302 1
827 2079 1
827 4275 1
827 8390 1
828 13 1
828 34 1
828 185 1
828 765 1
828 911 1
828 1074 1
828 1148 1
828 1959 1
828 2159 1
828 3565 1
828 3654 1
828 3678 1
828 4496 1
828 4679 1
828 5134 1
828 5161 1
828 5568 1
828 5576 1
828 6054 1
828 6126 1
828 6267 1
828 6357 1
828 6857 1
828 7040 1
828 7856 1
828 8394 1
828 8767 1
828 9107 1
828 9236 1
828 9520 1
829 3 1
829 266 1
829 308 1
829 744 1
829 882 1
829 1649 1
829 1856 1
829 2928 1
829 4363 1
829 5215 1
829 5969 1
829 7055 1
829 8789 1
829 8835 1
830 15 1
830 281 1
830 420 1
830 757 1
830 3259 1
830 3762 1
830 9000 1
831 23 1
831 119 1
831 337 1
831 596 1
831 871 1
831 1051 1
831 1149 1
831 1261 1
831 1331 1
831 2032 1
831 2102 1
831 3344 1
831 3745 1
831 4301 1
831 5577 1
831 7817 1
832 1 1
832 78 1
832 159 1
832 817 1
832 833 1
832 846 1
832 1137 1
832 1189 1
832 1262 1
832 1905 1
832 2207 1
832 3258 1
832 3487 1
832 3570 1
832 3724 1
832 4265 1
832 4649 1
832 5420 1
832 5425 1
832 5877 1
832 6318 1
832 6613 1
832 6936 1
832 7771 1
832 8425 1
832 8673 1
832 8724 1
832 9550 1
832 9704 1
833 63 1
833 513 1
833 598 1
833 832 1
833 1065 1
833 1189 1
833 1199 1
833 1269 1
833 1294 1
833 1308 1
833 1838 1
833 2485 1
833 2667 1
833 2958 1
833 3081 1
833 3374 1
833 3482 1
833 3848 1
833 4045 1
833 4713 1
833 7220 1
833 8003 1
833 8827 1
834 17 1
834 74 1
834 104 1
834 518 1
834 2704 1
834 6195 1
834 6302 1
834 6654 1
834 8889 1
835 65 1
835 361 1
835 549 1
835 570 1
835 875 1
835 1218 1
835 1383 1
835 1391 1
835 1475 1
835 2093 1
835 2165 1
835 2956 1
835 3444 1
835 4390 1
835 4625 1
835 6633 1
835 7197 1
835 7582 1
835 9760 1
836 57 1
836 254 1
836 339 1
836 754 1
836 1354 1
836 1892 1
836 3229 1
836 4056 1
836 5481 1
836 6743 1
836 9928 1
837 281 1
837 293 1
837 512 1
837 637 1
837 2123 1
837 6131 1
838 15 1
838 21 1
838 78 1
838 166 1
838 975 1
838 1165 1
838 1179 1
838 1479 1
838 1501 1
838 1761 1
838 1773 1
838 2637 1
838 2800 1
838 2843 1
838 2846 1
838 3173 1
838 3813 1
838 3914 1
838 4289 1
838 5132 1
838 5542 1
838 5698 1
838 8638 1
838 9840 1
839 22 1
839 28 1
839 51 1
839 330 1
839 894 1
839 1105 1
839 1412 1
839 1490 1
839 1675 1
839 2738 1
839 3191 1
839 4078 1
839 7570 1
839 7782 1
839 7872 1
839 7873 1
839 8442 1
839 8847 1
840 70 1
840 285 1
840 389 1
840 416 1
840 966 1
840 1781 1
840 2469 1
840 2542 1
840 2811 1
840 2865 1
840 3260 1
840 3346 1
840 3388 1
840 4165 1
840 4981 1
840 5242 1
840 5715 1
840 6319 1
840 9896 1
841 52 1
841 142 1
841 577 1
841 824 1
841 1234 1
841 2878 1
841 3598 1
841 4469 1
841 5324 1
841 6676 1
841 7953 1
841 9622 1
842 20 1
842 227 1
842 432 1
842 808 1
842 1178 1
842 1484 1
842 1747 1
842 2914 1
842 3224 1
842 4647 1
842 6344 1
842 6945 1
842 7678 1
842 8912 1
842 9897 1
843 14 1
843 24 1
843 120 1
843 666 1
843 938 1
843 1147 1
843 1709 1
843 3291 1
843 4706 1
843 8355 1
843 9945 1
844 77 1
844 287 1
844 289 1
844 540 1
844 855 1
844 1556 1
844 2017 1
844 6843 1
844 9011 1
845 31 1
845 75 1
845 174 1
845 729 1
845 1070 1
845 1243 1
845 1252 1
845 1354 1
845 1363 1
845 1463 1
845 1575 1
845 1669 1
845 1795 1
845 1857 1
845 1971 1
845 2375 1
845 2385 1
845 2503 1
845 2545 1
845 2615 1
845 2627 1
845 2836 1
845 3033 1
845 3233 1
845 3255 1
845 3995 1
845 4431 1
845 4689 1
845 4695 1
845 4970 1
845 5364 1
845 5485 1
845 5797 1
845 7934 1
845 8586 1
845 8721 1
845 9153 1
845 9739 1
846 49 1
846 235 1
846 754 1
846 832 1
846 2203 1
846 4562 1
846 6305 1
846 6654 1
846 6708 1
846 7766 1
846 9478 1
847 1 1
847 112 1
847 312 1
847 421 1
847 1087 1
847 1102 1
847 2235 1
847 2271 1
847 3158 1
847 3237 1
847 5011 1
847 6978 1
847 8145 1
847 8286 1
848 6 1
848 49 1
848 84 1
848 307 1
848 1126 1
848 1422 1
848 2016 1
848 2185 1
848 3019 1
848 3811 1
848 3990 1
848 4968 1
848 5686 1
848 6070 1
848 7066 1
848 9507 1
849 3 1
849 448 1
849 651 1
849 675 1
849 1147 1
849 1155 1
849 1233 1
849 1599 1
849 2290 1
849 2947 1
849 3495 1
849 7043 1
850 6 1
850 49 1
850 542 1
850 756 1
850 912 1
850 1196 1
850 1571 1
850 1596 1
850 1715 1
850 1860 1
850 1930 1
850 2488 1
850 2736 1
850 2825 1
850 3186 1
850 3793 1
850 4410 1
850 6873 1
850 6981 1
850 7528 1
850 7926 1
850 9644 1
850 9729 1
850 9926 1
851 31 1
851 70 1
851 239 1
851 265 1
851 1219 1
851 1991 1
851 3704 1
851 4528 1
851 6785 1
851 8832 1
851 9383 1
852 15 1
852 211 1
852 514 1
852 623 1
852 1019 1
852 1680 1
852 1940 1
852 6933 1
852 8492 1
853 8 1
853 358 1
853 451 1
853 765 1
853 911 1
853 2829 1
853 3048 1
853 3713 1
853 6757 1
853 8351 1
853 8574 1
853 9922 1
854 196 1
854 218 1
854 455 1
854 629 1
854 1612 1
854 1840 1
854 2113 1
854 2487 1
854 3072 1
854 3272 1
854 4010 1
854 4276 1
854 4290 1
854 4529 1
854 4742 1
854 5463 1
854 5680 1
854 6758 1
854 7069 1
854 7497 1
854 8908 1
854 9065 1
855 54 1
855 83 1
855 481 1
855 844 1
855 1020 1
855 1463 1
855 1940 1
855 2978 1
855 3888 1
855 7368 1
855 8455 1
855 9229 1
856 326 1
856 538 1
856 539 1
856 615 1
856 1336 1
856 1577 1
856 1724 1
856 2304 1
856 2564 1
856 3936 1
856 4375 1
856 5589 1
856 7326 1
857 84 1
857 85 1
857 197 1
857 220 1
857 1006 1
857 1161 1
857 3344 1
857 3889 1
857 5870 1
857 8840 1
858 40 1
858 57 1
858 303 1
858 509 1
858 1406 1
858 1421 1
858 2201 1
858 2372 1
858 8320 1
858 8553 1
858 9371 1
859 41 1
859 102 1
859 388 1
859 629 1
859 970 1
859 1166 1
859 1281 1
859 1367 1
859 1396 1
859 2864 1
859 4087 1
859 5795 1
859 6368 1
859 8942 1
859 9688 1
860 13 1
860 113 1
860 418 1
860 771 1
860 919 1
860 1452 1
860 1630 1
860 5163 1
860 5424 1
860 6045 1
860 6667 1
861 45 1
861 63 1
861 104 1
861 264 1
861 1168 1
861 1239 1
861 1351 1
861 2718 1
861 7447 1
861 9071 1
862 13 1
862 203 1
862 437 1
862 671 1
862 1104 1
862 1107 1
862 1596 1
862 1682 1
862 1945 1
862 2091 1
862 2163 1
862 3713 1
862 5157 1
862 5919 1
862 7401 1
862 8318 1
862 9267 1
863 5 1
863 52 1
863 91 1
863 498 1
863 1343 1
863 2034 1
863 2752 1
863 3124 1
863 3959 1
863 5586 1
863 7337 1
864 43 1
864 651 1
864 671 1
864 822 1
864 872 1
864 2179 1
864 2525 1
864 4244 1
864 4863 1
864 6303 1
864 7546 1
864 8558 1
864 9027 1
865 81 1
865 183 1
865 398 1
865 807 1
865 1317 1
865 1691 1
865 2761 1
865 2782 1
865 2884 1
865 4900 1
865 6143 1
865 6196 1
865 7025 1
865 8481 1
865 9785 1
866 10 1
866 119 1
866 598 1
866 706 1
866 1323 1
866 1825 1
866 4223 1
866 4618 1
866 5686 1
866 8299 1
866 8389 1
866 8525 1
867 15 1
867 41 1
867 42 1
867 406 1
867 898 1
867 1253 1
867 1626 1
867 2123 1
867 2197 1
867 2468 1
867 2659 1
867 2797 1
867 3615 1
867 3763 1
867 4562 1
867 6374 1
867 6824 1
867 6827 1
867 8673 1
867 8723 1
868 21 1
868 226 1
868 228 1
868 644 1
868 1143 1
868 1180 1
868 1458 1
868 1466 1
868 2306 1
868 2456 1
868 2499 1
868 2610 1
868 2699 1
868 3269 1
868 4309 1
868 4322 1
868 5578 1
868 6347 1
868 7769 1
868 7977 1
868 8141 1
868 9278 1
868 9459 1
868 9732 1
869 7 1
869 12 1
869 48 1
869 123 1
869 2165 1
869 2190 1
869 2904 1
869 3576 1
869 5385 1
869 7020 1
869 7505 1
869 9500 1
869 9924 1
869 9941 1
870 26 1
870 282 1
870 523 1
870 821 1
870 1583 1
870 5997 1
870 6772 1
871 66 1
871 392 1
871 580 1
871 831 1
871 876 1
871 3431 1
871 3799 1
871 3940 1
871 4007 1
871 5074 1
871 5657 1
871 8491 1
872 1 1
872 261 1
872 390 1
872 864 1
872 931 1
872 972 1
872 1300 1
872 1453 1
872 1594 1
872 5809 1
872 7466 1
872 7763 1
872 8208 1
873 118 1
873 206 1
873 240 1
873 566 1
873 899 1
873 1148 1
873 1379 1
873 1745 1
873 2667 1
873 3177 1
873 3298 1
873 4379 1
873 4386 1
873 6448 1
873 7422 1
873 7638 1
873 8112 1
873 9427 1
874 15 1
874 94 1
874 223 1
874 327 1
874 910 1
874 1886 1
874 2335 1
874 3225 1
874 5401 1
874 5686 1
874 5721 1
874 6069 1
874 6116 1
874 6503 1
874 8715 1
875 6 1
875 90 1
875 287 1
875 835 1
875 981 1
875 2838 1
875 3400 1
875 4525 1
875 4726 1
875 8375 1
875 8526 1
876 5 1
876 147 1
876 505 1
876 871 1
876 980 1
876 1583 1
876 1785 1
876 5433 1
876 5835 1
876 6204 1
877 159 1
877 315 1
877 509 1
877 777 1
877 1256 1
877 1895 1
877 2771 1
877 3076 1
877 3421 1
877 4872 1
877 6918 1
877 8129 1
877 8204 1
877 9580 1
878 16 1
878 196 1
878 214 1
878 413 1
878 2026 1
878 2344 1
878 2380 1
878 3949 1
878 4074 1
879 99 1
879 244 1
879 293 1
879 527 1
879 1100 1
879 1949 1
879 2165 1
879 4024 1
879 4569 1
879 4736 1
879 5728 1
879 7334 1
879 9631 1
880 33 1
880 34 1
880 61 1
880 207 1
880 953 1
880 1241 1
880 1476 1
880 2028 1
880 2488 1
880 2716 1
880 3007 1
880 6229 1
880 7432 1
880 9201 1
880 9208 1
881 30 1
881 171 1
881 175 1
881 691 1
881 914 1
881 1295 1
881 1768 1
881 1851 1
881 5309 1
881 5905 1
881 7916 1
882 7 1
882 14 1
882 301 1
882 829 1
882 892 1
882 1207 1
882 1632 1
882 2103 1
882 2334 1
882 2628 1
882 3263 1
882 3806 1
882 4388 1
882 6171 1
882 7056 1
883 39 1
883 42 1
883 377 1
883 502 1
883 2301 1
883 3790 1
883 4844 1
883 7975 1
883 9449 1
884 186 1
884 396 1
884 563 1
884 789 1
884 1051 1
884 1953 1
884 2412 1
884 2646 1
884 3358 1
884 3466 1
884 5722 1
884 5873 1
884 7083 1
884 9337 1
885 80 1
885 87 1
885 335 1
885 605 1
885 1264 1
885 1269 1
885 2172 1
885 2613 1
885 3612 1
885 3843 1
885 4052 1
885 4726 1
885 5761 1
885 7376 1
885 8989 1
885 9414 1
885 9833 1
886 13 1
886 502 1
886 595 1
886 641 1
886 1499 1
886 2088 1
886 2144 1
886 4100 1
886 5972 1
886 6264 1
886 6396 1
886 6713 1
886 7468 1
886 8573 1
886 9641 1
887 6 1
887 57 1
887 229 1
887 823 1
887 6187 1
888 96 1
888 143 1
888 145 1
888 609 1
888 1679 1
888 2250 1
888 2444 1
888 2690 1
888 3475 1
888 3612 1
888 3640 1
888 4035 1
888 4201 1
888 4996 1
888 5568 1
888 6016 1
888 6226 1
888 6602 1
888 7596 1
888 8450 1
889 92 1
889 235 1
889 376 1
889 794 1
889 1578 1
889 1769 1
889 1885 1
889 2348 1
889 2900 1
889 3731 1
889 4738 1
889 7506 1
889 8175 1
889 8980 1
889 9151 1
890 26 1
890 190 1
890 201 1
890 291 1
890 2419 1
890 3629 1
890 3945 1
890 4222 1
890 4511 1
890 7740 1
891 8 1
891 206 1
891 539 1
891 765 1
891 1022 1
891 1046 1
891 1535 1
891 1567 1
891 1796 1
891 1822 1
891 2630 1
891 3539 1
891 3904 1
891 4382 1
891 5667 1
891 6040 1
891 7485 1
891 7729 1
891 9672 1
891 9786 1
891 9878 1
891 9932 1
892 9 1
892 647 1
892 791 1
892 882 1
892 1078 1
892 1166 1
892 1316 1
892 2650 1
892 3830 1
892 4471 1
892 5583 1
892 5932 1
893 1 1
893 181 1
893 268 1
893 353 1
893 1056 1
893 1321 1
893 1380 1
893 2108 1
893 2372 1
893 2683 1
893 4058 1
893 4612 1
893 5337 1
893 7748 1
893 8685 1
893 9289 1
894 6 1
894 211 1
894 776 1
894 839 1
894 1018 1
894 1115 1
894 1335 1
894 1349 1
894 1750 1
894 2530 1
894 2569 1
894 2933 1
894 3438 1
894 3864 1
894 4531 1
894 6138 1
894 6676 1
894 8818 1
895 11 1
895 461 1
895 487 1
895 499 1
895 1564 1
895 4063 1
895 5008 1
895 5315 1
896 243 1
896 269 1
896 325 1
896 350 1
896 1765 1
896 1906 1
896 2563 1
896 4894 1
896 5025 1
896 6549 1
896 7085 1
897 38 1
897 114 1
897 125 1
897 185 1
897 953 1
897 975 1
897 1327 1
897 1900 1
897 2204 1
897 4930 1
897 9339 1
898 48 1
898 72 1
898 619 1
898 867 1
898 954 1
898 2652 1
898 4076 1
898 4319 1
898 5357 1
898 5805 1
898 9747 1
899 39 1
899 74 1
899 287 1
899 873 1
899 954 1
899 1096 1
899 1940 1
899 3365 1
899 3470 1
899 4297 1
899 5074 1
899 5141 1
899 8421 1
900 83 1
900 117 1
900 583 1
900 819 1
900 1078 1
900 1080 1
900 1272 1
900 1274 1
900 2516 1
900 5150 1
900 6012 1
900 7688 1
900 8013 1
900 8644 1
900 8892 1
900 10000 1
901 56 1
901 116 1
901 264 1
901 275 1
901 1120 1
901 1235 1
901 1418 1
901 1423 1
901 2363 1
901 4553 1
901 5120 1
901 5240 1
901 6670 1
902 12 1
902 60 1
902 120 1
902 524 1
902 1069 1
902 1661 1
902 3214 1
902 3683 1
902 3752 1
902 4126 1
902 5668 1
903 19 1
903 104 1
903 160 1
903 479 1
903 970 1
903 1326 1
903 2221 1
903 3317 1
903 7049 1
903 9808 1
904 75 1
904 271 1
904 610 1
904 613 1
904 943 1
904 970 1
904 1004 1
904 1185 1
904 1205 1
904 1743 1
904 1963 1
904 2227 1
904 2386 1
904 2635 1
904 2807 1
904 3362 1
904 3411 1
904 4728 1
904 5205 1
904 5640 1
904 5646 1
904 6324 1
904 6344 1
904 6595 1
904 7451 1
904 7571 1
904 7986 1
904 8277 1
905 84 1
905 127 1
905 159 1
905 528 1
905 936 1
905 1814 1
905 2175 1
905 3689 1
905 4932 1
905 8648 1
906 3 1
906 55 1
906 86 1
906 741 1
906 1740 1
906 3000 1
906 4418 1
906 4456 1
906 5557 1
906 5824 1
906 7783 1
907 85 1
907 541 1
907 693 1
907 744 1
907 1026 1
907 1121 1
907 1179 1
907 2330 1
907 2671 1
907 3612 1
907 3895 1
907 4762 1
907 4817 1
907 4835 1
907 5014 1
907 5538 1
907 5631 1
907 9382 1
907 9711 1
907 9786 1
908 44 1
908 160 1
908 576 1
908 602 1
908 2787 1
908 3214 1
908 6228 1
908 6433 1
909 57 1
909 76 1
909 271 1
909 372 1
909 959 1
909 1013 1
909 1340 1
909 1477 1
909 1563 1
909 1965 1
909 3842 1
909 4143 1
909 4805 1
909 4875 1
909 7512 1
909 7968 1
909 8072 1
909 8749 1
909 9363 1
909 9634 1
910 66 1
910 71 1
910 699 1
910 874 1
910 1448 1
910 1643 1
910 1699 1
910 2256 1
910 3172 1
910 4789 1
910 4793 1
910 4890 1
910 5817 1
910 6409 1
910 7462 1
910 9647 1
911 486 1
911 693 1
911 828 1
911 853 1
911 1302 1
911 2773 1
911 8978 1
912 25 1
912 316 1
912 591 1
912 850 1
912 1157 1
912 1428 1
912 1582 1
912 2199 1
912 2410 1
912 3117 1
912 4359 1
912 6151 1
912 6904 1
912 7929 1
913 1 1
913 10 1
913 34 1
913 49 1
913 2201 1
913 2403 1
913 2862 1
913 2886 1
913 3355 1
913 5569 1
913 8204 1
914 38 1
914 122 1
914 566 1
914 881 1
914 1488 1
914 1648 1
914 1746 1
914 1784 1
914 1823 1
914 3556 1
914 4140 1
914 4580 1
914 5611 1
914 5889 1
914 9087 1
915 5 1
915 98 1
915 256 1
915 259 1
915 1818 1
915 1884 1
915 2374 1
915 2768 1
915 3095 1
915 6775 1
916 7 1
916 422 1
916 481 1
916 515 1
916 1352 1
916 2907 1
916 4339 1
916 4627 1
916 5163 1
916 9785 1
917 1 1
917 6 1
917 481 1
917 602 1
917 1665 1
917 1727 1
917 2231 1
917 2337 1
917 2775 1
917 4276 1
917 6160 1
917 7932 1
917 8196 1
917 8399 1
917 8791 1
917 9411 1
917 9887 1
918 60 1
918 121 1
918 526 1
918 719 1
918 1160 1
918 1634 1
918 2608 1
918 3295 1
918 4027 1
918 4059 1
918 4653 1
918 7129 1
918 7528 1
918 8112 1
918 8171 1
918 9120 1
918 9261 1
918 9886 1
919 372 1
919 441 1
919 759 1
919 860 1
919 1076 1
919 1178 1
919 1441 1
919 1514 1
919 5244 1
919 7627 1
920 5 1
920 48 1
920 351 1
920 786 1
920 1189 1
920 1208 1
920 1800 1
920 3574 1
920 6070 1
920 6116 1
920 9073 1
920 9607 1
921 207 1
921 566 1
921 580 1
921 758 1
921 3612 1
921 5368 1
921 5538 1
921 6093 1
921 6164 1
921 6771 1
921 7408 1
921 8484 1
921 9891 1
922 102 1
922 124 1
922 183 1
922 767 1
922 1011 1
922 1255 1
922 1256 1
922 2486 1
922 3046 1
922 4063 1
922 8551 1
922 8963 1
923 121 1
923 301 1
923 398 1
923 823 1
923 2000 1
923 2584 1
923 5131 1
923 6139 1
923 6933 1
923 7663 1
923 9526 1
924 8 1
924 210 1
924 380 1
924 718 1
924 1094 1
924 1899 1
924 2385 1
924 3448 1
924 3828 1
924 5034 1
924 7066 1
924 7177 1
924 8183 1
924 9911 1
925 65 1
925 83 1
925 266 1
925 312 1
925 936 1
925 1293 1
925 1487 1
925 1588 1
925 1590 1
925 2863 1
925 3363 1
926 1 1
926 19 1
926 86 1
926 776 1
926 1281 1
926 2035 1
926 2137 1
926 2273 1
926 2619 1
926 2797 1
926 3343 1
926 3973 1
926 4673 1
926 4937 1
926 5062 1
926 5936 1
926 7056 1
926 7421 1
926 7828 1
926 7888 1
926 8424 1
927 81 1
927 268 1
927 605 1
927 637 1
927 1704 1
927 1947 1
927 3409 1
927 3593 1
927 4043 1
927 8847 1
927 9450 1
927 9658 1
928 13 1
928 34 1
928 526 1
928 572 1
928 1269 1
928 1464 1
928 1830 1
928 2218 1
928 3356 1
928 4424 1
928 5132 1
928 5666 1
928 7246 1
928 7819 1
928 8249 1
928 8493 1
929 10 1
929 65 1
929 615 1
929 732 1
929 2739 1
929 3356 1
929 4411 1
929 6670 1
929 6775 1
930 46 1
930 200 1
930 272 1
930 609 1
930 2474 1
930 4805 1
930 7664 1
930 9953 1
931 63 1
931 201 1
931 383 1
931 872 1
931 1117 1
931 1813 1
931 1883 1
931 2803 1
931 2818 1
931 2946 1
931 4379 1
931 4510 1
931 7610 1
931 8285 1
931 8293 1
931 9003 1
932 233 1
932 281 1
932 572 1
932 683 1
932 1033 1
932 1518 1
932 1679 1
932 1815 1
932 2652 1
932 2827 1
932 3532 1
932 4022 1
932 4851 1
932 5191 1
932 6883 1
932 7005 1
932 7312 1
932 7862 1
933 97 1
933 132 1
933 134 1
933 356 1
933 1099 1
933 1236 1
933 2647 1
933 2750 1
933 3707 1
933 4541 1
933 5222 1
933 6232 1
933 6317 1
933 6796 1
933 9563 1
934 153 1
934 260 1
934 309 1
934 794 1
934 1229 1
934 1323 1
934 1372 1
934 2312 1
934 2479 1
934 3616 1
934 3758 1
934 4030 1
934 4221 1
934 5320 1
934 5883 1
934 6423 1
934 7607 1
934 8839 1
935 3 1
935 33 1
935 103 1
935 142 1
935 1091 1
935 1164 1
935 1358 1
935 1544 1
935 1943 1
935 2136 1
936 719 1
936 720 1
936 905 1
936 925 1
936 1753 1
936 2089 1
936 2658 1
936 3053 1
936 7282 1
937 1 1
937 39 1
937 288 1
937 669 1
937 1204 1
937 1320 1
937 1404 1
937 1752 1
937 1952 1
937 2767 1
937 2810 1
937 3651 1
937 3678 1
937 4358 1
937 6932 1
937 6938 1
937 7222 1
937 9209 1
938 6 1
938 425 1
938 826 1
938 843 1
938 1514 1
938 1622 1
938 2345 1
938 5778 1
938 9886 1
939 165 1
939 180 1
939 182 1
939 240 1
939 1501 1
939 1825 1
939 2785 1
939 3223 1
939 4189 1
939 5825 1
939 6682 1
939 8989 1
939 9267 1
940 21 1
940 118 1
940 326 1
940 673 1
940 1327 1
940 2116 1
940 2601 1
940 2820 1
940 3080 1
941 1 1
941 335 1
941 463 1
941 534 1
941 1249 1
942 14 1
942 381 1
942 435 1
942 509 1
942 6688 1
942 8868 1
943 112 1
943 173 1
943 273 1
943 904 1
943 1587 1
943 1945 1
943 2068 1
943 9708 1
944 14 1
944 36 1
944 628 1
944 719 1
944 1222 1
944 1325 1
944 1581 1
944 2263 1
944 2343 1
944 3172 1
944 3445 1
944 6617 1
944 9056 1
944 9227 1
945 119 1
945 209 1
945 216 1
945 379 1
945 1488 1
945 1762 1
945 1920 1
945 2011 1
945 2151 1
945 2273 1
945 2561 1
945 6387 1
945 6713 1
945 8695 1
945 9150 1
945 9594 1
946 24 1
946 55 1
946 124 1
946 255 1
946 1824 1
946 3578 1
946 3950 1
946 4331 1
946 4660 1
946 4775 1
946 4993 1
946 6605 1
946 6989 1
946 7880 1
947 310 1
947 481 1
947 539 1
947 678 1
947 1113 1
947 1612 1
947 1792 1
947 2273 1
947 2956 1
947 3739 1
947 3922 1
947 4163 1
947 4242 1
947 4305 1
947 4667 1
947 6552 1
947 8322 1
947 8480 1
948 10 1
948 24 1
948 288 1
948 504 1
948 1141 1
948 2376 1
948 5489 1
948 6138 1
948 8478 1
949 118 1
949 259 1
949 746 1
949 808 1
949 992 1
949 1338 1
949 1407 1
949 1622 1
949 1623 1
949 2279 1
949 3217 1
949 3892 1
949 4202 1
949 5609 1
949 6992 1
949 7774 1
949 7850 1
949 8029 1
949 8221 1
949 9592 1
950 100 1
950 313 1
950 581 1
950 744 1
950 1793 1
950 2087 1
950 6545 1
951 23 1
951 198 1
951 555 1
951 668 1
951 1141 1
951 1411 1
951 2819 1
951 6265 1
952 95 1
952 153 1
952 452 1
952 562 1
952 1205 1
952 1837 1
952 2074 1
952 2221 1
952 2416 1
952 3036 1
952 4500 1
952 4701 1
952 5340 1
952 5880 1
952 7005 1
952 7016 1
952 7760 1
952 8854 1
953 110 1
953 209 1
953 880 1
953 897 1
953 967 1
953 977 1
953 1004 1
953 1010 1
953 1025 1
953 1228 1
953 1366 1
953 1386 1
953 1678 1
953 1770 1
953 2168 1
953 2448 1
953 3173 1
953 3890 1
953 4146 1
953 4283 1
953 6205 1
953 7605 1
953 8090 1
953 9329 1
954 271 1
954 824 1
954 898 1
954 899 1
954 1658 1
954 3307 1
954 4800 1
954 5468 1
955 92 1
955 145 1
955 456 1
955 470 1
955 1123 1
955 1137 1
955 1479 1
955 2932 1
955 3159 1
955 3514 1
955 3648 1
955 6536 1
955 6609 1
955 6705 1
955 7439 1
955 9616 1
956 3 1
956 123 1
956 228 1
956 254 1
956 1437 1
956 2621 1
956 2718 1
956 4198 1
956 5278 1
956 6401 1
956 6492 1
956 8838 1
957 10 1
957 273 1
957 609 1
957 710 1
957 3967 1
957 4576 1
957 5345 1
957 6893 1
958 54 1
958 397 1
958 729 1
958 737 1
958 1343 1
958 1544 1
958 1914 1
958 1966 1
958 2008 1
958 2762 1
958 3896 1
958 6008 1
958 6025 1
958 6864 1
958 8526 1
958 9226 1
959 144 1
959 159 1
959 707 1
959 909 1
959 1659 1
959 2261 1
959 3198 1
959 4718 1
960 196 1
960 300 1
960 493 1
960 499 1
960 1634 1
960 2069 1
960 2286 1
960 3150 1
960 3528 1
960 5177 1
960 9421 1
961 15 1
961 221 1
961 361 1
961 619 1
961 1494 1
961 3940 1
961 4534 1
961 4629 1
961 4807 1
961 5312 1
961 5969 1
961 7130 1
961 7131 1
961 7413 1
961 7460 1
961 7490 1
961 7710 1
961 7749 1
961 8113 1
961 8240 1
961 9749 1
962 326 1
962 365 1
962 707 1
962 758 1
962 991 1
962 1080 1
962 1449 1
962 1904 1
962 2231 1
962 2896 1
962 5651 1
962 7781 1
962 9585 1
963 14 1
963 259 1
963 583 1
963 798 1
963 1209 1
963 1363 1
963 2491 1
963 2595 1
963 3395 1
963 3400 1
963 4022 1
963 4227 1
963 4345 1
963 6773 1
963 7435 1
963 9515 1
964 38 1
964 117 1
964 121 1
964 347 1
964 1188 1
964 1526 1
964 2098 1
964 3815 1
964 7012 1
964 8135 1
965 17 1
965 41 1
965 45 1
965 581 1
965 1450 1
965 2382 1
965 3119 1
965 4430 1
965 4445 1
965 9172 1
965 9699 1
966 104 1
966 282 1
966 668 1
966 840 1
966 1065 1
966 1340 1
966 1460 1
966 1972 1
966 3244 1
966 4134 1
966 7391 1
967 41 1
967 144 1
967 671 1
967 953 1
967 1211 1
967 2728 1
967 6531 1
967 6668 1
967 8220 1
968 121 1
968 174 1
968 267 1
968 629 1
968 1112 1
968 1762 1
968 2210 1
968 2240 1
968 3317 1
968 5699 1
968 8487 1
969 95 1
969 163 1
969 561 1
969 742 1
969 1688 1
969 1701 1
969 2326 1
969 2632 1
969 4036 1
969 4174 1
969 5450 1
969 5814 1
969 6922 1
969 7182 1
969 7968 1
969 7984 1
969 8221 1
969 8246 1
969 8306 1
969 9989 1
970 372 1
970 859 1
970 903 1
970 904 1
970 1748 1
970 1865 1
970 2158 1
970 2810 1
970 5723 1
970 6151 1
970 6568 1
970 7229 1
970 9752 1
971 1 1
971 93 1
971 341 1
971 432 1
971 1182 1
971 1278 1
971 2029 1
971 2158 1
971 2299 1
971 3429 1
971 5200 1
971 5819 1
971 5946 1
971 6729 1
971 7967 1
971 8117 1
971 8704 1
971 9062 1
972 63 1
972 69 1
972 301 1
972 872 1
972 1460 1
972 1629 1
972 3615 1
972 3629 1
972 8610 1
972 9015 1
973 81 1
973 135 1
973 615 1
973 709 1
973 4670 1
974 147 1
974 156 1
974 158 1
974 192 1
974 1235 1
974 2833 1
974 3197 1
974 6514 1
974 8802 1
975 7 1
975 16 1
975 838 1
975 897 1
975 1611 1
975 1836 1
975 2236 1
975 2982 1
975 4192 1
975 4395 1
976 20 1
976 30 1
976 48 1
976 184 1
976 1089 1
976 1275 1
976 3492 1
976 7717 1
976 9542 1
977 14 1
977 149 1
977 785 1
977 953 1
977 1056 1
978 31 1
978 81 1
978 425 1
978 711 1
978 2324 1
978 2729 1
978 3365 1
978 4891 1
978 8043 1
978 8455 1
978 8759 1
978 9979 1
979 186 1
979 436 1
979 607 1
979 626 1
979 3647 1
979 7053 1
979 7601 1
980 19 1
980 34 1
980 55 1
980 876 1
980 1020 1
980 1095 1
980 1190 1
980 1310 1
980 1835 1
980 2023 1
980 3512 1
980 3826 1
980 4499 1
980 7228 1
980 9627 1
981 8 1
981 54 1
981 193 1
981 875 1
981 1177 1
981 2177 1
981 2578 1
981 3144 1
981 3189 1
981 4759 1
981 7280 1
982 120 1
982 171 1
982 486 1
982 547 1
982 1415 1
982 2654 1
982 3243 1
983 79 1
983 182 1
983 220 1
983 250 1
983 1224 1
983 1381 1
983 1503 1
983 1516 1
983 1673 1
983 1830 1
983 2029 1
983 2291 1
983 2641 1
983 2763 1
983 2888 1
983 4124 1
983 4928 1
983 4956 1
983 5796 1
983 5832 1
983 5854 1
983 6081 1
983 6460 1
983 7117 1
983 8790 1
983 8872 1
983 9363 1
983 9620 1
984 244 1
984 577 1
984 734 1
984 791 1
984 1093 1
984 1368 1
984 3332 1
984 7370 1
984 7564 1
984 8379 1
984 9931 1
985 106 1
985 196 1
985 468 1
985 774 1
985 1201 1
985 1461 1
985 4129 1
985 5467 1
985 5659 1
985 8731 1
985 9704 1
986 32 1
986 60 1
986 206 1
986 713 1
986 1105 1
986 1279 1
986 2827 1
986 3374 1
986 3596 1
986 3723 1
986 4337 1
986 4756 1
986 6030 1
986 6566 1
986 6957 1
986 7091 1
986 7662 1
986 8302 1
986 8386 1
987 5 1
987 63 1
987 153 1
987 199 1
987 1011 1
987 2209 1
987 2449 1
987 2602 1
987 4086 1
987 5127 1
987 5160 1
987 5600 1
987 5709 1
987 7417 1
987 7938 1
987 8666 1
987 9703 1
987 9823 1
988 56 1
988 57 1
988 62 1
988 377 1
988 2406 1
988 3370 1
988 4966 1
988 5622 1
988 7560 1
989 60 1
989 304 1
989 568 1
989 815 1
989 2062 1
989 2501 1
989 2830 1
989 3168 1
989 4672 1
989 6883 1
989 7382 1
989 7787 1
989 8484 1
989 9496 1
989 9562 1
990 22 1
990 89 1
990 533 1
990 771 1
990 1581 1
990 1927 1
990 2251 1
990 3460 1
990 3706 1
990 4149 1
990 5067 1
990 5148 1
990 5364 1
990 6755 1
990 7782 1
990 7811 1
990 8918 1
991 123 1
991 400 1
991 519 1
991 962 1
991 1661 1
991 2265 1
991 2917 1
991 4311 1
991 4455 1
991 4738 1
991 6972 1
992 10 1
992 112 1
992 635 1
992 949 1
992 1146 1
992 1271 1
992 1777 1
992 1934 1
992 2088 1
992 2774 1
992 2794 1
992 3240 1
992 3447 1
992 3958 1
992 6381 1
992 7668 1
992 8154 1
992 9186 1
992 9223 1
992 9660 1
993 373 1
993 384 1
993 528 1
993 698 1
993 2053 1
993 2200 1
993 2537 1
993 2741 1
993 3122 1
993 4474 1
993 5126 1
993 6118 1
993 8074 1
993 8815 1
993 9579 1
993 9845 1
994 95 1
994 272 1
994 508 1
994 776 1
994 1050 1
994 1200 1
994 1209 1
994 1228 1
994 1351 1
994 1456 1
994 1510 1
994 1537 1
994 1688 1
994 1934 1
994 1950 1
994 1965 1
994 2119 1
994 2341 1
994 2691 1
994 2740 1
994 2777 1
994 2795 1
994 3727 1
994 4824 1
994 5842 1
994 5947 1
994 6009 1
994 6150 1
994 6743 1
994 8297 1
994 8420 1
994 8668 1
994 9817 1
995 1 1
995 33 1
995 319 1
995 623 1
995 2052 1
995 3648 1
995 4114 1
995 9223 1
996 86 1
996 216 1
996 273 1
996 290 1
996 1000 1
996 1045 1
996 1198 1
996 2583 1
996 2884 1
996 3089 1
996 4284 1
996 4488 1
996 8379 1
996 8903 1
997 57 1
997 151 1
997 640 1
997 696 1
997 1547 1
997 5009 1
997 6928 1
997 8886 1
998 128 1
998 253 1
998 495 1
998 518 1
998 1048 1
998 1723 1
998 1758 1
998 1938 1
998 1948 1
998 2376 1
998 3113 1
998 4562 1
998 5464 1
998 6406 1
998 6749 1
998 6776 1
998 7617 1
998 9205 1
998 9761 1
999 45 1
999 120 1
999 137 1
999 634 1
999 3584 1
999 4715 1
1000 3 1
1000 448 1
1000 632 1
1000 996 1
1000 1057 1
1000 1139 1
1000 1529 1
1000 2397 1
1000 3423 1
1000 4166 1
1000 6381 1
1000 6385 1
1000 9068 1
1000 9796 1
1001 267 1
1001 339 1
1001 349 1
1001 590 1
1001 2198 1
1001 2871 1
1001 3531 1
1001 4020 1
1001 4504 1
1001 4651 1
1001 4882 1
1001 5319 1
1001 5853 1
1001 7937 1
1001 8561 1
1001 8596 1
1001 9477 1
1002 25 1
1002 30 1
1002 105 1
1002 141 1
1002 1695 1
1002 3385 1
1002 3388 1
1002 6264 1
1002 9153 1
1002 9451 1
1003 30 1
1003 101 1
1003 277 1
1003 341 1
1003 1104 1
1003 1120 1
1003 1304 1
1003 1903 1
1003 2530 1
1003 4147 1
1003 5030 1
1003 5115 1
1003 5600 1
1003 7465 1
1003 8970 1
1003 9399 1
1004 140 1
1004 542 1
1004 904 1
1004 953 1
1004 1310 1
1004 1485 1
1004 2131 1
1004 2479 1
1004 2732 1
1004 3194 1
1004 3364 1
1004 3582 1
1004 3744 1
1004 4234 1
1004 4641 1
1004 5139 1
1004 6028 1
1004 6481 1
1004 8978 1
1004 9276 1
1005 10 1
1005 273 1
1005 477 1
1005 543 1
1005 2038 1
1005 2060 1
1005 2327 1
1005 2749 1
1005 3428 1
1005 3830 1
1005 4369 1
1005 4394 1
1005 9131 1
1006 11 1
1006 34 1
1006 64 1
1006 857 1
1006 7916 1
1007 30 1
1007 132 1
1007 458 1
1007 486 1
1007 1079 1
1007 2482 1
1007 3158 1
1007 4211 1
1007 6813 1
1007 8845 1
1008 65 1
1008 304 1
1008 456 1
1008 777 1
1008 1833 1
1008 2499 1
1008 2849 1
1008 2902 1
1008 3415 1
1008 4891 1
1008 4966 1
1008 5126 1
1008 5362 1
1008 6366 1
1008 6408 1
1008 9829 1
1009 11 1
1009 24 1
1009 72 1
1009 580 1
1009 1394 1
1009 1472 1
1009 2078 1
1009 2509 1
1009 6065 1
1009 6552 1
1009 8725 1
1009 9118 1
1010 673 1
1010 788 1
1010 797 1
1010 953 1
1010 1300 1
1010 4703 1
1010 7276 1
1010 8488 1
1010 8707 1
1011 11 1
1011 316 1
1011 922 1
1011 987 1
1011 1087 1
1011 2005 1
1011 2380 1
1011 4128 1
1012 2 1
1012 48 1
1012 215 1
1012 398 1
1012 1029 1
1012 1155 1
1012 1552 1
1012 2138 1
1012 2228 1
1012 3384 1
1012 4720 1
1012 4748 1
1012 6335 1
1013 16 1
1013 28 1
1013 50 1
1013 909 1
1013 1496 1
1013 2077 1
1013 3603 1
1013 5635 1
1014 63 1
1014 132 1
1014 177 1
1014 278 1
1014 3029 1
1014 8350 1
1015 13 1
1015 63 1
1015 78 1
1015 94 1
1015 5005 1
1015 5508 1
1016 17 1
1016 42 1
1016 213 1
1016 779 1
1016 1234 1
1016 1347 1
1016 3751 1
1016 4586 1
1016 5508 1
1016 6419 1
1016 7486 1
1017 14 1
1017 213 1
1017 390 1
1017 761 1
1017 2378 1
1017 3012 1
1017 5771 1
1017 8217 1
1018 8 1
1018 248 1
1018 764 1
1018 894 1
1018 1193 1
1018 4989 1
1018 7430 1
1018 7470 1
1018 8676 1
1018 8968 1
1019 140 1
1019 459 1
1019 650 1
1019 852 1
1019 1923 1
1019 2336 1
1019 4174 1
1019 5587 1
1019 5688 1
1019 5766 1
1019 5977 1
1019 6751 1
1019 7741 1
1020 142 1
1020 272 1
1020 855 1
1020 980 1
1020 1328 1
1020 3190 1
1020 3443 1
1020 5424 1
1020 6386 1
1020 9240 1
1020 9369 1
1020 9575 1
1020 9966 1
1021 101 1
1021 105 1
1021 186 1
1021 586 1
1021 1144 1
1021 2056 1
1021 2184 1
1021 3318 1
1021 4942 1
1021 5846 1
1021 6096 1
1021 9479 1
1022 120 1
1022 425 1
1022 568 1
1022 891 1
1022 1666 1
1022 1852 1
1022 2234 1
1022 4068 1
1022 6050 1
1022 6543 1
1022 6756 1
1022 7805 1
1022 8824 1
1022 9282 1
1023 256 1
1023 274 1
1023 505 1
1023 628 1
1023 1326 1
1023 1605 1
1023 3150 1
1023 4065 1
1023 4126 1
1023 4251 1
1023 5169 1
1023 5956 1
1023 6604 1
1023 7240 1
1024 26 1
1024 81 1
1024 539 1
1024 824 1
1024 1690 1
1024 6091 1
1024 6924 1
1025 6 1
1025 199 1
1025 487 1
1025 953 1
1025 2178 1
1025 2460 1
1025 3624 1
1025 4163 1
1025 4164 1
1025 4633 1
1025 4786 1
1025 6542 1
1025 8764 1
1026 37 1
1026 113 1
1026 199 1
1026 907 1
1026 1493 1
1026 1579 1
1026 1972 1
1026 3484 1
1026 4053 1
1026 5225 1
1026 5997 1
1026 7524 1
1026 8244 1
1027 2 1
1027 32 1
1027 708 1
1027 816 1
1027 2013 1
1027 2386 1
1027 2665 1
1027 2813 1
1027 3391 1
1027 4362 1
1027 8207 1
1027 9049 1
1028 14 1
1028 26 1
1028 120 1
1028 265 1
1028 1066 1
1028 1774 1
1028 2127 1
1028 2371 1
1028 2397 1
1028 2984 1
1028 3234 1
1028 3314 1
1028 3906 1
1028 4169 1
1028 4248 1
1028 6144 1
1028 6182 1
1028 7270 1
1028 9691 1
1029 16 1
1029 314 1
1029 368 1
1029 1012 1
1029 1982 1
1029 2718 1
1029 3060 1
1029 4242 1
1030 10 1
1030 11 1
1030 13 1
1030 799 1
1030 1188 1
1030 1638 1
1030 2206 1
1030 3161 1
1030 3389 1
1030 9686 1
1030 9820 1
1031 117 1
1031 235 1
1031 366 1
1031 415 1
1031 1565 1
1031 2500 1
1031 3419 1
1031 3588 1
1031 3932 1
1031 7001 1
1031 7538 1
1031 8725 1
1032 6 1
1032 12 1
1032 323 1
1032 325 1
1032 1404 1
1032 1420 1
1032 1602 1
1032 1890 1
1032 2410 1
1032 2411 1
1032 2567 1
1032 3505 1
1032 3858 1
1032 6638 1
1032 8161 1
1032 9850 1
1033 88 1
1033 274 1
1033 300 1
1033 932 1
1033 2744 1
1033 5518 1
1033 9129 1
1034 28 1
1034 141 1
1034 174 1
1034 818 1
1034 1154 1
1034 1329 1
1034 2679 1
1034 3693 1
1034 4223 1
1034 6013 1
1035 7 1
1035 21 1
1035 31 1
1035 42 1
1035 1483 1
1035 2216 1
1035 2271 1
1035 3714 1
1035 4730 1
1035 5615 1
1035 9284 1
1035 9321 1
1036 81 1
1036 148 1
1036 203 1
1036 774 1
1036 1042 1
1036 1061 1
1036 1226 1
1036 1359 1
1036 1682 1
1036 2413 1
1036 3352 1
1036 3455 1
1036 3573 1
1036 4881 1
1036 5046 1
1036 5171 1
1036 6026 1
1036 6931 1
1036 9066 1
1036 9669 1
1037 244 1
1037 376 1
1037 390 1
1037 528 1
1037 2092 1
1037 2093 1
1037 6585 1
1037 6664 1
1037 9827 1
1038 166 1
1038 233 1
1038 399 1
1038 425 1
1038 1408 1
1038 2062 1
1038 2682 1
1038 3129 1
1038 3569 1
1038 3773 1
1038 4211 1
1038 5323 1
1038 6061 1
1038 6654 1
1038 8387 1
1039 6 1
1039 19 1
1039 30 1
1039 34 1
1039 1800 1
1039 1913 1
1039 3165 1
1039 3226 1
1039 5873 1
1039 5980 1
1039 6178 1
1039 6960 1
1039 7695 1
1039 9133 1
1040 64 1
1040 153 1
1040 663 1
1040 758 1
1040 1329 1
1040 1842 1
1040 2155 1
1040 2848 1
1040 3350 1
1040 5114 1
1040 5130 1
1040 7414 1
1040 7664 1
1040 7882 1
1040 8674 1
1041 60 1
1041 170 1
1041 172 1
1041 341 1
1041 1115 1
1041 1264 1
1041 1267 1
1041 1374 1
1041 1397 1
1041 1735 1
1041 1821 1
1041 2120 1
1041 2645 1
1041 3225 1
1041 3312 1
1041 3324 1
1041 3863 1
1041 4190 1
1041 4324 1
1041 4942 1
1041 5552 1
1041 5706 1
1041 5873 1
1041 6111 1
1041 6920 1
1041 7284 1
1041 7583 1
1041 7701 1
1041 8111 1
1041 8132 1
1041 8150 1
1041 9755 1
1041 9919 1
1042 78 1
1042 157 1
1042 319 1
1042 1036 1
1042 1659 1
1042 1786 1
1042 2504 1
1042 4345 1
1042 4477 1
1042 4652 1
1042 7940 1
1042 8622 1
1042 9111 1
1042 9595 1
1043 16 1
1043 40 1
1043 288 1
1043 388 1
1043 3928 1
1043 5490 1
1043 5589 1
1043 5948 1
1043 7380 1
1044 13 1
1044 290 1
1044 307 1
1044 411 1
1044 1086 1
1044 1186 1
1044 1381 1
1044 1416 1
1044 2037 1
1044 2048 1
1044 2176 1
1044 2446 1
1044 2679 1
1044 3633 1
1044 3739 1
1044 3976 1
1044 4436 1
1044 5214 1
1044 5349 1
1044 6368 1
1044 7905 1
1044 7994 1
1045 8 1
1045 384 1
1045 452 1
1045 996 1
1045 1896 1
1045 6360 1
1046 70 1
1046 719 1
1046 724 1
1046 891 1
1046 1063 1
1046 1375 1
1046 1737 1
1046 2414 1
1046 3009 1
1046 3675 1
1046 4313 1
1046 4429 1
1046 4442 1
1046 5057 1
1046 5556 1
1047 11 1
1047 36 1
1047 201 1
1047 374 1
1047 1284 1
1047 1621 1
1047 1729 1
1047 1951 1
1047 2110 1
1047 3588 1
1047 4139 1
1047 4679 1
1047 4702 1
1047 5841 1
1047 5961 1
1047 6198 1
1047 8254 1
1047 8490 1
1047 9176 1
1048 29 1
1048 91 1
1048 440 1
1048 998 1
1048 1925 1
1048 2064 1
1048 2139 1
1048 2188 1
1048 3014 1
1048 3426 1
1048 4119 1
1048 4382 1
1048 4990 1
1048 6036 1
1048 6684 1
1048 7277 1
1048 7807 1
1048 7949 1
1048 8036 1
1048 8729 1
1048 8798 1
1048 8823 1
1049 89 1
1049 136 1
1049 493 1
1049 800 1
1049 1277 1
1049 1549 1
1049 4206 1
1049 9619 1
1050 49 1
1050 185 1
1050 403 1
1050 994 1
1050 1298 1
1050 2634 1
1050 2798 1
1050 3712 1
1050 4385 1
1050 5015 1
1050 6247 1
1050 6928 1
1050 7415 1
1050 8790 1
1050 9088 1
1051 149 1
1051 244 1
1051 831 1
1051 884 1
1051 1301 1
1051 2212 1
1051 2600 1
1051 4122 1
1051 7258 1
1051 7530 1
1051 8957 1
1051 9766 1
1052 272 1
1052 282 1
1052 537 1
1052 714 1
1052 2409 1
1052 6786 1
1052 8863 1
1053 50 1
1053 139 1
1053 399 1
1053 814 1
1053 2473 1
1053 3609 1
1053 3619 1
1053 5601 1
1053 5753 1
1053 5872 1
1053 6732 1
1053 9197 1
1054 29 1
1054 98 1
1054 168 1
1054 195 1
1054 1553 1
1054 6305 1
1054 6811 1
1054 8785 1
1055 171 1
1055 323 1
1055 377 1
1055 702 1
1055 1202 1
1055 4312 1
1055 4450 1
1055 5027 1
1055 9664 1
1056 54 1
1056 629 1
1056 893 1
1056 977 1
1056 1342 1
1056 1722 1
1056 1893 1
1056 1899 1
1056 1925 1
1056 2909 1
1056 2942 1
1056 2950 1
1056 3283 1
1056 4433 1
1056 5492 1
1056 5773 1
1056 6026 1
1056 6154 1
1056 6711 1
1056 7297 1
1056 7555 1
1056 7982 1
1056 8006 1
1056 9097 1
1057 56 1
1057 64 1
1057 364 1
1057 1000 1
1057 1058 1
1057 2278 1
1057 3658 1
1057 5734 1
1057 5922 1
1057 8855 1
1058 45 1
1058 68 1
1058 685 1
1058 1057 1
1058 1339 1
1058 2174 1
1058 2526 1
1058 2964 1
1058 3647 1
1058 4011 1
1058 4219 1
1058 5295 1
1058 5798 1
1058 6904 1
1058 8177 1
1058 9961 1
1059 40 1
1059 46 1
1059 84 1
1059 131 1
1059 1446 1
1059 1474 1
1059 1733 1
1059 2330 1
1059 2871 1
1059 3244 1
1059 3589 1
1059 4370 1
1059 4862 1
1059 6066 1
1059 6463 1
1059 8670 1
1060 4 1
1060 7 1
1060 480 1
1060 605 1
1060 1751 1
1060 3258 1
1060 3620 1
1060 3906 1
1060 4228 1
1060 4368 1
1060 4931 1
1060 6735 1
1060 7217 1
1060 8928 1
1061 54 1
1061 66 1
1061 316 1
1061 1036 1
1061 1771 1
1062 184 1
1062 425 1
1062 570 1
1062 632 1
1062 1707 1
1062 1875 1
1062 2989 1
1062 3168 1
1062 4890 1
1062 6818 1
1062 7400 1
1062 7436 1
1062 9070 1
1063 143 1
1063 204 1
1063 392 1
1063 1046 1
1063 2591 1
1063 3321 1
1063 5241 1
1063 5414 1
1063 6432 1
1063 6491 1
1063 7014 1
1063 7678 1
1063 9148 1
1064 12 1
1064 41 1
1064 84 1
1064 610 1
1064 3235 1
1064 3281 1
1064 3552 1
1064 4853 1
1064 5933 1
1064 7696 1
1065 10 1
1065 428 1
1065 833 1
1065 966 1
1065 1175 1
1065 1289 1
1065 1294 1
1065 1738 1
1065 1866 1
1065 5217 1
1065 6678 1
1065 7513 1
1065 9081 1
1066 14 1
1066 306 1
1066 826 1
1066 1028 1
1066 1504 1
1066 1579 1
1066 1832 1
1066 2538 1
1066 4385 1
1066 4685 1
1066 4900 1
1066 5145 1
1066 5183 1
1066 5675 1
1066 7328 1
1066 8096 1
1066 9307 1
1066 9323 1
1067 101 1
1067 339 1
1067 459 1
1067 491 1
1067 1245 1
1067 2839 1
1067 3047 1
1067 3304 1
1067 3784 1
1067 5472 1
1067 8074 1
1068 31 1
1068 346 1
1068 700 1
1068 799 1
1068 1224 1
1068 1312 1
1068 1533 1
1068 1562 1
1068 1649 1
1068 2109 1
1068 2125 1
1068 2332 1
1068 2790 1
1068 3071 1
1068 4369 1
1068 5679 1
1068 5992 1
1068 6578 1
1068 7014 1
1068 7373 1
1068 7941 1
1068 8098 1
1069 66 1
1069 202 1
1069 549 1
1069 902 1
1069 1215 1
1069 1496 1
1069 1750 1
1069 2275 1
1069 2676 1
1069 4701 1
1069 5230 1
1069 5718 1
1069 6254 1
1069 6556 1
1069 6968 1
1069 7110 1
1069 8221 1
1069 8229 1
1069 8850 1
1070 6 1
1070 612 1
1070 670 1
1070 845 1
1070 2011 1
1070 2757 1
1070 4210 1
1070 6157 1
1070 6422 1
1070 6517 1
1070 7458 1
1070 8193 1
1070 9544 1
1071 74 1
1071 102 1
1071 103 1
1071 324 1
1071 2809 1
1071 2903 1
1071 3270 1
1071 3892 1
1071 5834 1
1071 7609 1
1071 7633 1
1071 9650 1
1072 7 1
1072 112 1
1072 327 1
1072 680 1
1072 1357 1
1072 1379 1
1072 5366 1
1072 7011 1
1073 60 1
1073 210 1
1073 230 1
1073 309 1
1073 1169 1
1073 1225 1
1073 1247 1
1073 1931 1
1073 2249 1
1073 2344 1
1073 4026 1
1073 4317 1
1073 4560 1
1073 4622 1
1073 4667 1
1073 4809 1
1073 7021 1
1073 7022 1
1073 8107 1
1073 9252 1
1074 66 1
1074 278 1
1074 803 1
1074 828 1
1074 2212 1
1074 2470 1
1074 2658 1
1074 6001 1
1074 6064 1
1074 6298 1
1075 56 1
1075 89 1
1075 555 1
1075 640 1
1075 1709 1
1075 3449 1
1075 6591 1
1075 7412 1
1075 7540 1
1075 8290 1
1076 39 1
1076 206 1
1076 809 1
1076 919 1
1076 1537 1
1076 1613 1
1076 1806 1
1076 2846 1
1076 2855 1
1076 3431 1
1076 3521 1
1076 3963 1
1076 5358 1
1076 5366 1
1076 5520 1
1076 5634 1
1076 6155 1
1076 6164 1
1076 6595 1
1076 7112 1
1076 7816 1
1076 8035 1
1076 8220 1
1076 8921 1
1076 8927 1
1076 9411 1
1077 121 1
1077 197 1
1077 274 1
1077 653 1
1077 1456 1
1077 2668 1
1077 2994 1
1077 3001 1
1077 3465 1
1077 5015 1
1077 5238 1
1077 5429 1
1077 6004 1
1077 6140 1
1077 7607 1
1077 8322 1
1077 9309 1
1077 9625 1
1077 9657 1
1078 196 1
1078 487 1
1078 892 1
1078 900 1
1078 1154 1
1078 1245 1
1078 1689 1
1078 2124 1
1078 2157 1
1078 3347 1
1078 3565 1
1078 3868 1
1078 3899 1
1078 3971 1
1078 4839 1
1078 6799 1
1078 8826 1
1079 309 1
1079 568 1
1079 696 1
1079 1007 1
1079 1080 1
1079 2266 1
1079 2571 1
1079 2584 1
1079 2693 1
1079 2798 1
1079 2866 1
1079 3353 1
1079 3495 1
1079 3705 1
1079 4182 1
1079 4410 1
1079 4465 1
1079 4565 1
1079 5513 1
1079 5835 1
1079 5840 1
1079 6836 1
1079 6903 1
1079 8016 1
1079 8105 1
1079 8135 1
1079 9457 1
1079 9896 1
1080 688 1
1080 900 1
1080 962 1
1080 1079 1
1080 2723 1
1080 3041 1
1080 3386 1
1080 4343 1
1080 4552 1
1080 8365 1
1081 10 1
1081 13 1
1081 63 1
1081 183 1
1081 2142 1
1081 3499 1
1081 5934 1
1081 8454 1
1082 366 1
1082 442 1
1082 492 1
1082 557 1
1082 1232 1
1082 1389 1
1082 1766 1
1082 1970 1
1082 2524 1
1082 2589 1
1082 3090 1
1082 4378 1
1082 5840 1
1082 5996 1
1082 6762 1
1082 7958 1
1082 7992 1
1082 8601 1
1083 10 1
1083 21 1
1083 68 1
1083 140 1
1083 2340 1
1083 2909 1
1083 3078 1
1083 4315 1
1083 5100 1
1083 5267 1
1083 7996 1
1083 8398 1
1083 9090 1
1084 6 1
1084 24 1
1084 179 1
1084 307 1
1084 7904 1
1085 239 1
1085 381 1
1085 405 1
1085 572 1
1085 1316 1
1085 1339 1
1085 2670 1
1085 3933 1
1085 5447 1
1085 8015 1
1085 8743 1
1085 9010 1
1086 176 1
1086 562 1
1086 803 1
1086 1044 1
1086 1135 1
1086 1229 1
1086 1469 1
1086 2504 1
1086 2714 1
1086 4274 1
1086 4656 1
1086 4933 1
1086 5339 1
1086 5759 1
1086 6020 1
1086 6077 1
1086 6238 1
1086 8155 1
1086 9295 1
1086 9307 1
1087 4 1
1087 122 1
1087 847 1
1087 1011 1
1087 1156 1
1087 1596 1
1087 3065 1
1087 3474 1
1087 6130 1
1087 6464 1
1088 3 1
1088 202 1
1088 319 1
1088 632 1
1088 1344 1
1088 2493 1
1088 2499 1
1088 2910 1
1088 3129 1
1088 4040 1
1088 4422 1
1088 6037 1
1088 7287 1
1088 8800 1
1088 9840 1
1089 268 1
1089 483 1
1089 754 1
1089 976 1
1089 1106 1
1089 1114 1
1089 1377 1
1089 1550 1
1089 1929 1
1089 2277 1
1089 2436 1
1089 4040 1
1089 4450 1
1089 5286 1
1089 6572 1
1089 6814 1
1089 9246 1
1090 9 1
1090 81 1
1090 206 1
1090 794 1
1090 2328 1
1090 2696 1
1090 2749 1
1090 5050 1
1090 5311 1
1090 6443 1
1090 6719 1
1090 6735 1
1090 6913 1
1090 7102 1
1090 9905 1
1091 58 1
1091 469 1
1091 572 1
1091 935 1
1091 1425 1
1091 2550 1
1091 2592 1
1091 2604 1
1091 2693 1
1091 2737 1
1091 3251 1
1091 3315 1
1091 3428 1
1091 3626 1
1091 3787 1
1091 4170 1
1091 4597 1
1091 4749 1
1091 5207 1
1091 5418 1
1091 6440 1
1091 6480 1
1091 6518 1
1091 8117 1
1091 9168 1
1092 275 1
1092 755 1
1092 805 1
1092 816 1
1092 1153 1
1092 1636 1
1092 2116 1
1092 2600 1
1092 2977 1
1092 3020 1
1092 3500 1
1092 4107 1
1092 4172 1
1092 5790 1
1092 7593 1
1092 8546 1
1092 8906 1
1092 9984 1
1093 97 1
1093 186 1
1093 399 1
1093 984 1
1093 2624 1
1093 4497 1
1093 7088 1
1093 7630 1
1094 12 1
1094 319 1
1094 373 1
1094 924 1
1094 1363 1
1094 5508 1
1095 61 1
1095 601 1
1095 615 1
1095 980 1
1095 6720 1
1096 38 1
1096 565 1
1096 670 1
1096 899 1
1096 1352 1
1096 3179 1
1096 3527 1
1096 3883 1
1096 5741 1
1096 6691 1
1097 7 1
1097 142 1
1097 531 1
1097 563 1
1097 4963 1
1097 5013 1
1097 6977 1
1097 7995 1
1097 8019 1
1097 9323 1
1098 6 1
1098 162 1
1098 238 1
1098 307 1
1098 1346 1
1098 2023 1
1098 7182 1
1098 8003 1
1099 38 1
1099 103 1
1099 541 1
1099 933 1
1099 1454 1
1099 1957 1
1099 2266 1
1099 2420 1
1099 2678 1
1099 3525 1
1099 4223 1
1099 4751 1
1099 6688 1
1099 7796 1
1099 9207 1
1100 91 1
1100 471 1
1100 737 1
1100 879 1
1100 1332 1
1100 1342 1
1100 1635 1
1100 2121 1
1100 2800 1
1100 3078 1
1100 3219 1
1100 6049 1
1100 8219 1
1100 8265 1
1101 134 1
1101 147 1
1101 166 1
1101 264 1
1101 1876 1
1101 2855 1
1101 3156 1
1101 4309 1
1101 5060 1
1101 8266 1
1102 47 1
1102 124 1
1102 330 1
1102 847 1
1102 5046 1
1102 9162 1
1103 7 1
1103 26 1
1103 101 1
1103 683 1
1103 1742 1
1103 1950 1
1103 3277 1
1103 3970 1
1103 5373 1
1103 5514 1
1103 5893 1
1103 8765 1
1104 10 1
1104 55 1
1104 862 1
1104 1003 1
1104 1827 1
1104 2163 1
1104 2677 1
1104 3041 1
1104 3773 1
1104 4502 1
1104 4564 1
1104 5626 1
1104 7517 1
1104 8469 1
1104 9117 1
1105 288 1
1105 408 1
1105 839 1
1105 986 1
1105 2271 1
1105 3407 1
1105 4656 1
1105 7003 1
1105 7356 1
1106 504 1
1106 791 1
1106 806 1
1106 1089 1
1106 1437 1
1106 2050 1
1106 2229 1
1106 2874 1
1106 3173 1
1106 3352 1
1106 4043 1
1106 5854 1
1106 5894 1
1106 6149 1
1106 6406 1
1106 6462 1
1106 6820 1
1106 7013 1
1106 7397 1
1106 7411 1
1106 7830 1
1106 7915 1
1107 189 1
1107 286 1
1107 330 1
1107 862 1
1107 1623 1
1107 1662 1
1107 2515 1
1107 3341 1
1107 4258 1
1107 4402 1
1107 4968 1
1107 6182 1
1107 6924 1
1107 7542 1
1107 7698 1
1107 7711 1
1107 8147 1
1107 8343 1
1107 8888 1
1107 9752 1
1108 288 1
1108 290 1
1108 359 1
1108 419 1
1108 1127 1
1108 1360 1
1108 1719 1
1108 2021 1
1108 2200 1
1108 2835 1
1108 3089 1
1108 3147 1
1108 3203 1
1108 3860 1
1108 4571 1
1108 5629 1
1108 7829 1
1108 7963 1
1108 7987 1
1108 8983 1
1108 9305 1
1108 9562 1
1109 26 1
1109 123 1
1109 155 1
1109 303 1
1109 1845 1
1109 2768 1
1109 3666 1
1109 4641 1
1110 11 1
1110 64 1
1110 127 1
1110 287 1
1110 1131 1
1110 1138 1
1110 1219 1
1110 1277 1
1110 1715 1
1110 2959 1
1110 5458 1
1110 5978 1
1110 6632 1
1110 8263 1
1111 17 1
1111 21 1
1111 243 1
1111 537 1
1111 1431 1
1111 2313 1
1111 2887 1
1111 3007 1
1111 4411 1
1111 5126 1
1111 7592 1
1111 9739 1
1112 17 1
1112 56 1
1112 481 1
1112 968 1
1112 1392 1
1112 1475 1
1112 2725 1
1113 6 1
1113 121 1
1113 390 1
1113 947 1
1113 2301 1
1113 2363 1
1113 3695 1
1113 5561 1
1113 5669 1
1113 5775 1
1114 9 1
1114 49 1
1114 218 1
1114 1089 1
1114 1474 1
1114 1531 1
1114 2371 1
1114 2451 1
1114 2930 1
1114 3141 1
1114 3643 1
1114 4490 1
1114 5514 1
1114 6086 1
1114 7613 1
1114 7824 1
1114 8621 1
1114 9366 1
1115 100 1
1115 225 1
1115 894 1
1115 1041 1
1115 1309 1
1115 2841 1
1115 2925 1
1115 3598 1
1115 3776 1
1115 4249 1
1116 7 1
1116 20 1
1116 32 1
1116 298 1
1116 2877 1
1116 3159 1
1116 3901 1
1116 6212 1
1116 7233 1
1117 183 1
1117 400 1
1117 581 1
1117 931 1
1117 1973 1
1117 2638 1
1117 3162 1
1117 8016 1
1118 6 1
1118 463 1
1118 525 1
1118 763 1
1118 1347 1
1118 1618 1
1118 5016 1
1118 6341 1
1118 7369 1
1118 7943 1
1119 12 1
1119 22 1
1119 319 1
1119 789 1
1119 1482 1
1119 2491 1
1119 6111 1
1119 7309 1
1120 14 1
1120 720 1
1120 901 1
1120 1003 1
1120 1984 1
1120 2850 1
1120 4262 1
1120 4600 1
1120 5110 1
1120 5541 1
1120 7532 1
1121 8 1
1121 380 1
1121 728 1
1121 907 1
1121 1902 1
1121 3700 1
1121 4580 1
1121 5801 1
1122 148 1
1122 189 1
1122 416 1
1122 602 1
1122 1292 1
1122 2854 1
1123 117 1
1123 124 1
1123 719 1
1123 955 1
1123 1273 1
1123 2729 1
1123 3912 1
1123 4441 1
1123 5581 1
1123 5990 1
1123 7669 1
1123 9035 1
1123 9144 1
1124 184 1
1124 206 1
1124 463 1
1124 636 1
1124 1779 1
1124 5917 1
1125 72 1
1125 81 1
1125 398 1
1125 444 1
1125 1250 1
1125 1280 1
1125 1448 1
1125 1625 1
1125 1788 1
1125 1866 1
1125 2196 1
1125 2239 1
1125 3078 1
1125 3476 1
1125 4306 1
1125 6558 1
1125 7518 1
1125 8301 1
1125 9231 1
1125 9742 1
1126 56 1
1126 65 1
1126 599 1
1126 848 1
1126 1127 1
1126 1265 1
1126 1736 1
1126 1842 1
1126 2097 1
1126 2202 1
1126 2556 1
1126 2686 1
1126 4350 1
1126 4469 1
1126 4705 1
1126 4793 1
1126 5565 1
1126 6043 1
1126 7621 1
1126 8062 1
1126 8572 1
1127 9 1
1127 595 1
1127 1108 1
1127 1126 1
1127 1194 1
1127 1254 1
1127 1946 1
1127 2248 1
1127 5428 1
1127 5965 1
1127 6835 1
1127 8420 1
1128 5 1
1128 73 1
1128 133 1
1128 667 1
1128 1325 1
1128 1771 1
1128 2824 1
1128 2850 1
1128 3878 1
1128 4036 1
1128 4492 1
1128 4621 1
1128 5388 1
1128 5797 1
1128 6058 1
1128 6726 1
1128 7168 1
1128 8041 1
1129 6 1
1129 7 1
1129 112 1
1129 301 1
1129 2116 1
1129 7019 1
1129 7036 1
1129 8512 1
1130 30 1
1130 301 1
1130 380 1
1130 706 1
1130 2241 1
1130 3696 1
1130 4012 1
1130 8434 1
1130 9109 1
1130 9188 1
1131 20 1
1131 133 1
1131 323 1
1131 1110 1
1131 1326 1
1131 1744 1
1131 2218 1
1131 3155 1
1131 3267 1
1131 4395 1
1131 9319 1
1132 6 1
1132 103 1
1132 212 1
1132 703 1
1132 1217 1
1132 1408 1
1132 1534 1
1132 2844 1
1132 4174 1
1132 6891 1
1132 7367 1
1132 8076 1
1132 8560 1
1132 8791 1
1132 9792 1
1133 33 1
1133 81 1
1133 297 1
1133 537 1
1133 1356 1
1133 2253 1
1133 2342 1
1133 2449 1
1133 2813 1
1133 2893 1
1133 3071 1
1133 3080 1
1133 3852 1
1133 3924 1
1133 3928 1
1133 4139 1
1133 4376 1
1133 5361 1
1133 5738 1
1133 7056 1
1133 7971 1
1133 8131 1
1133 8352 1
1133 9938 1
1134 17 1
1134 206 1
1134 243 1
1134 289 1
1134 1201 1
1134 1320 1
1134 1766 1
1134 2706 1
1134 3137 1
1134 4445 1
1134 4569 1
1134 4647 1
1134 4985 1
1134 5621 1
1134 6510 1
1134 7032 1
1134 8836 1
1134 9546 1
1134 9595 1
1135 3 1
1135 223 1
1135 797 1
1135 1086 1
1135 2140 1
1135 2310 1
1135 4608 1
1135 5541 1
1136 309 1
1136 319 1
1136 580 1
1136 644 1
1136 1620 1
1136 4472 1
1137 249 1
1137 466 1
1137 832 1
1137 955 1
1137 2465 1
1137 2792 1
1137 4777 1
1137 6820 1
1138 489 1
1138 527 1
1138 623 1
1138 1110 1
1138 1270 1
1138 1359 1
1138 1896 1
1138 2009 1
1138 2109 1
1138 3672 1
1138 3856 1
1138 4500 1
1138 5197 1
1138 5788 1
1138 7225 1
1138 8083 1
1138 8407 1
1138 8826 1
1138 9192 1
1138 9488 1
1139 114 1
1139 308 1
1139 429 1
1139 1000 1
1139 1252 1
1139 2206 1
1139 3650 1
1139 4269 1
1139 5833 1
1139 5869 1
1139 6928 1
1139 7643 1
1139 8100 1
1139 8462 1
1139 8745 1
1140 81 1
1140 371 1
1140 518 1
1140 562 1
1140 1290 1
1140 2614 1
1140 3364 1
1140 3438 1
1140 3486 1
1140 4015 1
1140 4905 1
1140 6981 1
1140 7212 1
1140 8013 1
1140 8392 1
1140 9195 1
1140 9347 1
1141 33 1
1141 380 1
1141 948 1
1141 951 1
1141 1307 1
1141 4705 1
1141 5252 1
1141 5455 1
1141 6027 1
1141 6221 1
1141 7113 1
1141 7196 1
1142 6 1
1142 24 1
1142 93 1
1142 669 1
1142 1371 1
1142 2194 1
1142 2813 1
1142 4385 1
1142 5570 1
1142 6418 1
1142 7240 1
1142 7721 1
1142 9683 1
1142 9698 1
1143 25 1
1143 777 1
1143 824 1
1143 868 1
1143 3333 1
1143 4840 1
1143 5527 1
1143 6685 1
1143 8796 1
1143 8979 1
1144 16 1
1144 51 1
1144 604 1
1144 1021 1
1144 2776 1
1144 3845 1
1144 8206 1
1145 97 1
1145 115 1
1145 440 1
1145 824 1
1145 1742 1
1145 1945 1
1145 3170 1
1145 3602 1
1146 31 1
1146 188 1
1146 771 1
1146 992 1
1146 2979 1
1146 3070 1
1146 4109 1
1146 4363 1
1146 6202 1
1146 6548 1
1146 7735 1
1147 22 1
1147 55 1
1147 843 1
1147 849 1
1147 1320 1
1147 1526 1
1147 1641 1
1147 2208 1
1147 2393 1
1147 2460 1
1147 3548 1
1147 4185 1
1147 4314 1
1147 4677 1
1147 4707 1
1147 6059 1
1147 6767 1
1147 6940 1
1147 7139 1
1147 7173 1
1148 134 1
1148 671 1
1148 828 1
1148 873 1
1148 1873 1
1148 2300 1
1148 2462 1
1148 2822 1
1148 3537 1
1148 9412 1
1149 115 1
1149 415 1
1149 422 1
1149 831 1
1149 2128 1
1149 2964 1
1149 5675 1
1149 8074 1
1150 86 1
1150 98 1
1150 653 1
1150 667 1
1150 1606 1
1150 3436 1
1150 5037 1
1151 23 1
1151 227 1
1151 290 1
1151 817 1
1151 1386 1
1151 2449 1
1151 3528 1
1151 4497 1
1151 4868 1
1151 5686 1
1151 7620 1
1151 7985 1
1152 7 1
1152 16 1
1152 142 1
1152 256 1
1152 1648 1
1153 51 1
1153 453 1
1153 456 1
1153 1092 1
1153 2786 1
1154 6 1
1154 14 1
1154 1034 1
1154 1078 1
1154 1180 1
1154 1829 1
1154 2459 1
1154 2818 1
1154 4034 1
1154 6023 1
1154 6041 1
1154 6462 1
1154 6840 1
1154 6858 1
1154 8887 1
1154 9311 1
1154 9446 1
1155 104 1
1155 267 1
1155 849 1
1155 1012 1
1155 1524 1
1155 2700 1
1155 3027 1
1155 3341 1
1155 3635 1
1155 5233 1
1155 6797 1
1155 6990 1
1155 7424 1
1156 188 1
1156 355 1
1156 426 1
1156 1087 1
1156 1775 1
1156 2206 1
1156 2793 1
1156 4167 1
1156 7328 1
1156 8696 1
1156 9662 1
1157 76 1
1157 80 1
1157 826 1
1157 912 1
1157 1434 1
1157 2140 1
1157 2858 1
1157 3654 1
1157 4311 1
1157 5157 1
1157 7855 1
1158 6 1
1158 49 1
1158 167 1
1158 413 1
1158 1300 1
1158 1431 1
1158 1853 1
1158 2094 1
1158 2110 1
1158 2256 1
1158 3677 1
1158 4172 1
1158 5001 1
1158 5051 1
1158 5166 1
1158 5299 1
1158 6451 1
1158 7252 1
1158 7581 1
1159 15 1
1159 81 1
1159 352 1
1159 702 1
1159 3514 1
1159 4532 1
1159 4645 1
1159 7648 1
1160 107 1
1160 254 1
1160 458 1
1160 918 1
1160 1543 1
1160 2005 1
1160 4095 1
1160 5478 1
1160 5519 1
1160 6133 1
1160 6304 1
1160 7679 1
1160 7907 1
1160 7913 1
1160 8024 1
1160 8215 1
1160 8377 1
1160 9053 1
1160 9707 1
1160 9834 1
1161 76 1
1161 97 1
1161 610 1
1161 857 1
1161 1208 1
1161 2402 1
1161 2529 1
1161 5008 1
1161 5535 1
1161 7974 1
1161 8308 1
1161 9923 1
1162 109 1
1162 140 1
1162 205 1
1162 591 1
1162 1785 1
1162 2289 1
1162 2484 1
1162 3090 1
1162 5857 1
1162 6525 1
1162 6860 1
1162 7000 1
1163 115 1
1163 261 1
1163 267 1
1163 330 1
1163 9888 1
1164 9 1
1164 49 1
1164 528 1
1164 935 1
1164 1939 1
1164 5731 1
1165 101 1
1165 245 1
1165 601 1
1165 838 1
1165 1657 1
1165 1736 1
1165 2057 1
1165 2575 1
1165 2765 1
1165 3178 1
1165 3347 1
1165 5184 1
1165 5888 1
1165 6497 1
1165 7156 1
1166 173 1
1166 293 1
1166 859 1
1166 892 1
1166 1582 1
1166 2690 1
1166 3756 1
1166 3992 1
1166 4481 1
1166 5227 1
1166 5324 1
1166 5532 1
1166 5863 1
1166 9721 1
1167 74 1
1167 349 1
1167 466 1
1167 655 1
1167 1593 1
1167 1730 1
1167 2780 1
1167 3042 1
1167 4771 1
1167 4912 1
1167 6647 1
1167 7629 1
1167 9796 1
1168 233 1
1168 393 1
1168 545 1
1168 861 1
1168 2409 1
1168 3934 1
1168 3986 1
1168 4502 1
1168 4650 1
1168 5031 1
1168 5792 1
1168 5920 1
1168 6357 1
1168 6613 1
1168 7004 1
1168 8349 1
1169 235 1
1169 444 1
1169 534 1
1169 1073 1
1169 1478 1
1169 2280 1
1169 4064 1
1169 6397 1
1170 293 1
1170 306 1
1170 459 1
1170 735 1
1170 2158 1
1170 7230 1
1170 7645 1
1171 70 1
1171 502 1
1171 717 1
1171 725 1
1171 1698 1
1171 2666 1
1171 3165 1
1171 3299 1
1171 3515 1
1171 3956 1
1171 5680 1
1171 6068 1
1171 9699 1
1172 1 1
1172 152 1
1172 664 1
1172 822 1
1172 1519 1
1172 2259 1
1172 2814 1
1172 3114 1
1172 4245 1
1172 4910 1
1172 5156 1
1172 5907 1
1172 6031 1
1172 6434 1
1172 6525 1
1172 9097 1
1172 9129 1
1172 9518 1
1173 119 1
1173 228 1
1173 422 1
1173 826 1
1173 1515 1
1173 3042 1
1173 3571 1
1173 5703 1
1173 8052 1
1173 9753 1
1174 9 1
1174 140 1
1174 164 1
1174 578 1
1174 1549 1
1174 2460 1
1174 3699 1
1174 5303 1
1174 7079 1
1174 8257 1
1175 45 1
1175 69 1
1175 166 1
1175 1065 1
1175 3865 1
1175 4107 1
1175 4578 1
1175 5500 1
1175 8673 1
1175 9204 1
1175 9375 1
1175 9892 1
1175 9927 1
1176 231 1
1176 481 1
1176 703 1
1176 732 1
1176 4341 1
1176 4529 1
1176 4571 1
1176 5213 1
1176 5823 1
1176 6230 1
1176 6461 1
1176 9011 1
1177 49 1
1177 363 1
1177 403 1
1177 981 1
1177 1861 1
1177 3757 1
1177 5579 1
1177 8798 1
1178 6 1
1178 104 1
1178 842 1
1178 919 1
1178 2009 1
1178 2618 1
1178 2716 1
1178 3255 1
1178 4620 1
1178 4836 1
1178 8773 1
1179 81 1
1179 264 1
1179 838 1
1179 907 1
1179 1196 1
1179 2502 1
1179 8843 1
1179 9454 1
1180 54 1
1180 629 1
1180 868 1
1180 1154 1
1180 1341 1
1180 2220 1
1180 2628 1
1180 2769 1
1180 2801 1
1180 2921 1
1180 3052 1
1180 4040 1
1180 4069 1
1180 4709 1
1180 5362 1
1180 6114 1
1180 8140 1
1180 8387 1
1180 8816 1
1180 9247 1
1181 48 1
1181 211 1
1181 410 1
1181 671 1
1181 4979 1
1181 5722 1
1181 6527 1
1182 223 1
1182 278 1
1182 818 1
1182 971 1
1182 3793 1
1183 6 1
1183 7 1
1183 16 1
1183 278 1
1183 2801 1
1183 5523 1
1183 6202 1
1183 9598 1
1183 9822 1
1184 118 1
1184 220 1
1184 290 1
1184 588 1
1184 1705 1
1184 1803 1
1184 2215 1
1184 2890 1
1184 2982 1
1184 8896 1
1185 10 1
1185 29 1
1185 670 1
1185 904 1
1185 1729 1
1185 5821 1
1186 240 1
1186 418 1
1186 671 1
1186 1044 1
1186 9388 1
1187 1 1
1187 79 1
1187 122 1
1187 149 1
1187 2417 1
1187 2641 1
1187 8741 1
1187 9373 1
1188 23 1
1188 786 1
1188 964 1
1188 1030 1
1188 1405 1
1188 1454 1
1188 1995 1
1188 3420 1
1188 3469 1
1188 6159 1
1188 6499 1
1188 7643 1
1188 8644 1
1189 281 1
1189 832 1
1189 833 1
1189 920 1
1189 1598 1
1189 2103 1
1189 2949 1
1189 3419 1
1189 4095 1
1189 4222 1
1189 4818 1
1189 5650 1
1189 6516 1
1189 9327 1
1190 121 1
1190 151 1
1190 619 1
1190 980 1
1190 1464 1
1190 1754 1
1190 2075 1
1190 2823 1
1190 2911 1
1190 3696 1
1190 3716 1
1190 4484 1
1190 4660 1
1190 6083 1
1190 6787 1
1190 8275 1
1190 9277 1
1191 12 1
1191 27 1
1191 53 1
1191 764 1
1191 3276 1
1191 6522 1
1191 8589 1
1192 8 1
1192 135 1
1192 518 1
1192 807 1
1192 1290 1
1192 1318 1
1192 1331 1
1192 1531 1
1192 1969 1
1192 3141 1
1192 3554 1
1192 3742 1
1192 4019 1
1192 5499 1
1192 7321 1
1192 7343 1
1192 7729 1
1192 7797 1
1192 8160 1
1192 9043 1
1193 31 1
1193 132 1
1193 523 1
1193 1018 1
1193 1511 1
1193 1815 1
1193 1858 1
1193 2150 1
1193 2399 1
1193 2633 1
1193 3413 1
1193 3512 1
1193 4074 1
1193 5041 1
1193 5138 1
1193 6134 1
1193 7734 1
1193 7750 1
1193 8071 1
1193 8771 1
1193 9558 1
1193 9763 1
1193 9833 1
1194 47 1
1194 263 1
1194 644 1
1194 1127 1
1194 3959 1
1194 4030 1
1194 9032 1
1195 278 1
1195 432 1
1195 456 1
1195 605 1
1195 1303 1
1195 1556 1
1195 1633 1
1195 1862 1
1195 2091 1
1195 4719 1
1195 5455 1
1196 69 1
1196 729 1
1196 850 1
1196 1179 1
1196 1641 1
1196 1745 1
1196 3445 1
1196 3742 1
1196 5009 1
1196 5267 1
1196 7341 1
1197 30 1
1197 36 1
1197 134 1
1197 319 1
1197 2242 1
1197 3332 1
1197 4907 1
1197 6120 1
1197 9145 1
1197 9994 1
1198 36 1
1198 338 1
1198 436 1
1198 996 1
1198 1398 1
1198 1739 1
1198 2392 1
1198 3325 1
1198 3393 1
1198 3545 1
1198 5168 1
1198 6052 1
1198 6320 1
1198 7199 1
1198 8958 1
1198 9031 1
1198 9900 1
1199 32 1
1199 601 1
1199 620 1
1199 833 1
1199 1742 1
1199 6724 1
1199 7014 1
1199 7804 1
1200 11 1
1200 45 1
1200 549 1
1200 994 1
1200 1865 1
1200 5691 1
1200 8433 1
1201 1 1
1201 16 1
1201 985 1
1201 1134 1
1201 1799 1
1201 2482 1
1201 3675 1
1201 5010 1
1201 5637 1
1201 5921 1
1201 6496 1
1201 7178 1
1201 9459 1
1202 31 1
1202 475 1
1202 572 1
1202 1055 1
1202 4144 1
1202 6015 1
1202 8931 1
1203 20 1
1203 24 1
1203 254 1
1203 580 1
1203 1486 1
1203 1558 1
1203 2003 1
1203 3022 1
1203 6299 1
1204 63 1
1204 329 1
1204 536 1
1204 937 1
1204 1236 1
1204 1882 1
1204 2503 1
1204 2616 1
1204 4788 1
1204 7142 1
1204 7198 1
1205 744 1
1205 767 1
1205 904 1
1205 952 1
1205 2996 1
1205 3008 1
1205 3643 1
1205 3669 1
1205 3691 1
1205 5337 1
1205 9533 1
1206 65 1
1206 193 1
1206 606 1
1206 730 1
1206 1215 1
1206 1356 1
1206 2306 1
1206 2427 1
1206 2516 1
1206 6292 1
1206 8266 1
1207 13 1
1207 40 1
1207 444 1
1207 882 1
1207 2165 1
1207 2470 1
1207 2904 1
1207 3121 1
1207 3518 1
1207 4193 1
1207 5413 1
1207 5901 1
1207 6176 1
1207 8869 1
1207 9512 1
1207 9749 1
1208 14 1
1208 271 1
1208 920 1
1208 1161 1
1208 1807 1
1208 6521 1
1208 7281 1
1209 95 1
1209 167 1
1209 963 1
1209 994 1
1209 1211 1
1209 1268 1
1209 1328 1
1209 1877 1
1209 1901 1
1209 2248 1
1209 4452 1
1209 5247 1
1209 6757 1
1209 7801 1
1210 61 1
1210 625 1
1210 653 1
1210 671 1
1210 1324 1
1210 1767 1
1210 2175 1
1210 4769 1
1210 5972 1
1210 6814 1
1210 6906 1
1210 7104 1
1210 7318 1
1210 8454 1
1211 281 1
1211 615 1
1211 967 1
1211 1209 1
1211 1524 1
1211 1543 1
1211 1725 1
1211 6275 1
1211 6837 1
1211 7950 1
1211 8176 1
1211 9798 1
1212 55 1
1212 65 1
1212 452 1
1212 491 1
1212 1514 1
1212 1594 1
1212 2259 1
1212 2437 1
1212 4145 1
1212 4569 1
1212 4706 1
1213 6 1
1213 17 1
1213 370 1
1213 374 1
1213 2071 1
1213 5744 1
1213 6731 1
1214 63 1
1214 338 1
1214 369 1
1214 383 1
1214 1592 1
1214 5002 1
1214 6207 1
1215 26 1
1215 181 1
1215 1069 1
1215 1206 1
1215 1568 1
1215 1607 1
1215 1981 1
1215 2336 1
1215 3048 1
1215 5998 1
1215 6316 1
1215 6915 1
1215 8648 1
1215 9281 1
1216 42 1
1216 52 1
1216 176 1
1216 403 1
1216 6447 1
1216 8020 1
1216 8122 1
1217 13 1
1217 15 1
1217 68 1
1217 1132 1
1217 1282 1
1217 2239 1
1217 7298 1
1217 9811 1
1218 10 1
1218 143 1
1218 278 1
1218 835 1
1218 1234 1
1218 2153 1
1218 2391 1
1218 5108 1
1218 9110 1
1218 9316 1
1219 33 1
1219 188 1
1219 851 1
1219 1110 1
1219 1281 1
1219 5844 1
1219 7521 1
1219 7572 1
1220 44 1
1220 57 1
1220 287 1
1220 754 1
1220 5194 1
1220 7988 1
1220 9315 1
1221 23 1
1221 81 1
1221 334 1
1221 344 1
1221 1987 1
1221 2005 1
1221 3094 1
1221 3683 1
1221 3717 1
1221 4113 1
1221 4757 1
1221 6841 1
1221 8059 1
1221 8631 1
1222 6 1
1222 188 1
1222 484 1
1222 944 1
1222 2514 1
1222 5187 1
1222 6402 1
1222 6927 1
1222 7136 1
1222 8060 1
1222 8197 1
1222 8276 1
1222 8565 1
1222 9702 1
1223 14 1
1223 142 1
1223 253 1
1223 400 1
1223 1534 1
1223 4194 1
1223 4286 1
1223 4493 1
1223 4930 1
1223 8500 1
1223 9960 1
1224 6 1
1224 595 1
1224 983 1
1224 1068 1
1224 1389 1
1224 2248 1
1224 2430 1
1224 2757 1
1224 2843 1
1224 4438 1
1224 4838 1
1224 5690 1
1224 6587 1
1224 6673 1
1224 6683 1
1225 303 1
1225 694 1
1225 769 1
1225 1073 1
1225 1554 1
1225 2654 1
1225 5306 1
1225 5778 1
1226 131 1
1226 374 1
1226 468 1
1226 1036 1
1226 1834 1
1226 2004 1
1226 2332 1
1226 3570 1
1226 8167 1
1226 8862 1
1227 91 1
1227 103 1
1227 166 1
1227 375 1
1227 2371 1
1227 3076 1
1227 3813 1
1227 5059 1
1227 5938 1
1227 8531 1
1227 8597 1
1228 42 1
1228 527 1
1228 953 1
1228 994 1
1228 2384 1
1228 3844 1
1228 4723 1
1228 5301 1
1228 5307 1
1229 169 1
1229 389 1
1229 934 1
1229 1086 1
1229 1500 1
1229 2027 1
1229 4449 1
1229 4547 1
1230 28 1
1230 173 1
1230 362 1
1230 619 1
1230 2008 1
1230 2574 1
1230 6141 1
1230 7408 1
1231 17 1
1231 243 1
1231 263 1
1231 636 1
1231 1274 1
1231 1381 1
1231 2981 1
1231 3439 1
1231 3517 1
1231 7044 1
1231 9607 1
1231 9957 1
1232 135 1
1232 388 1
1232 574 1
1232 1082 1
1232 1621 1
1232 1734 1
1232 2945 1
1232 3778 1
1232 3982 1
1232 5168 1
1232 9900 1
1233 5 1
1233 254 1
1233 308 1
1233 849 1
1233 1560 1
1233 2174 1
1233 4152 1
1233 5053 1
1233 6953 1
1233 7296 1
1233 8966 1
1233 9289 1
1233 9627 1
1233 9971 1
1234 150 1
1234 841 1
1234 1016 1
1234 1218 1
1234 1421 1
1234 1596 1
1234 1698 1
1234 3172 1
1234 7525 1
1234 7897 1
1235 146 1
1235 771 1
1235 901 1
1235 974 1
1235 3639 1
1235 5618 1
1235 8494 1
1236 3 1
1236 438 1
1236 933 1
1236 1204 1
1236 2732 1
1236 4444 1
1236 5839 1
1236 7058 1
1237 20 1
1237 236 1
1237 239 1
1237 570 1
1237 1274 1
1237 2676 1
1238 6 1
1238 83 1
1238 304 1
1238 360 1
1238 1574 1
1238 1733 1
1238 5423 1
1238 5813 1
1238 8286 1
1238 9775 1
1239 7 1
1239 78 1
1239 226 1
1239 861 1
1239 1327 1
1239 3636 1
1239 3806 1
1239 4542 1
1239 5216 1
1239 5802 1
1239 6121 1
1239 6210 1
1239 7775 1
1240 30 1
1240 109 1
1240 595 1
1240 747 1
1240 1980 1
1240 2598 1
1240 3113 1
1240 3687 1
1241 3 1
1241 300 1
1241 638 1
1241 880 1
1241 1571 1
1241 6746 1
1242 5 1
1242 197 1
1242 256 1
1242 822 1
1242 1400 1
1242 2255 1
1242 3744 1
1242 5271 1
1242 7348 1
1242 8028 1
1242 9128 1
1242 9876 1
1243 57 1
1243 386 1
1243 485 1
1243 845 1
1243 2686 1
1243 8203 1
1243 8323 1
1244 76 1
1244 104 1
1244 329 1
1244 636 1
1244 2376 1
1244 2434 1
1244 3431 1
1244 3841 1
1244 6193 1
1244 6917 1
1244 7554 1
1244 9040 1
1245 41 1
1245 714 1
1245 1067 1
1245 1078 1
1245 3965 1
1245 5666 1
1245 5919 1
1245 6267 1
1245 6833 1
1245 7075 1
1245 7677 1
1245 8523 1
1246 20 1
1246 165 1
1246 277 1
1246 311 1
1246 1569 1
1246 1928 1
1246 2044 1
1246 2178 1
1246 2215 1
1246 2550 1
1246 3451 1
1246 4579 1
1246 4886 1
1246 5800 1
1246 6000 1
1246 6040 1
1246 6069 1
1246 6465 1
1246 6642 1
1246 8657 1
1246 9569 1
1247 8 1
1247 20 1
1247 66 1
1247 1073 1
1247 2904 1
1247 4428 1
1247 4707 1
1247 6721 1
1247 7431 1
1248 206 1
1248 213 1
1248 277 1
1248 389 1
1248 1322 1
1248 1330 1
1248 1668 1
1248 2431 1
1248 2880 1
1248 3379 1
1248 3522 1
1248 3833 1
1248 4223 1
1248 4828 1
1248 6794 1
1248 8396 1
1248 8614 1
1248 8694 1
1248 8876 1
1248 9406 1
1248 9626 1
1248 9768 1
1249 3 1
1249 170 1
1249 793 1
1249 941 1
1249 3714 1
1249 7668 1
1250 1 1
1250 386 1
1250 523 1
1250 1125 1
1250 2081 1
1250 5696 1
1250 9983 1
1251 11 1
1251 13 1
1251 123 1
1251 333 1
1251 1343 1
1251 1731 1
1251 2267 1
1251 4038 1
1251 4218 1
1251 4539 1
1251 4580 1
1251 5716 1
1251 6615 1
1251 6694 1
1251 6730 1
1251 7219 1
1251 7626 1
1251 8528 1
1251 8989 1
1251 9341 1
1252 16 1
1252 531 1
1252 845 1
1252 1139 1
1252 3225 1
1252 3707 1
1252 4197 1
1252 4750 1
1252 6794 1
1252 6906 1
1252 7301 1
1253 164 1
1253 255 1
1253 552 1
1253 867 1
1253 1405 1
1253 1436 1
1253 1518 1
1253 1992 1
1253 2015 1
1253 2226 1
1253 2395 1
1253 2594 1
1253 2650 1
1253 3698 1
1253 4027 1
1253 4132 1
1253 4535 1
1253 5506 1
1253 5631 1
1253 5793 1
1253 7065 1
1253 7088 1
1253 7210 1
1253 7446 1
1253 8795 1
1253 9033 1
1253 9715 1
1253 9846 1
1253 9990 1
1254 154 1
1254 268 1
1254 799 1
1254 1127 1
1254 7437 1
1254 8137 1
1255 184 1
1255 261 1
1255 723 1
1255 922 1
1255 1745 1
1255 1814 1
1255 2577 1
1255 4067 1
1255 4554 1
1255 4573 1
1255 6380 1
1255 6632 1
1255 7435 1
1255 9216 1
1256 95 1
1256 193 1
1256 877 1
1256 922 1
1256 9104 1
1257 1 1
1257 21 1
1257 57 1
1257 115 1
1257 1572 1
1257 2386 1
1257 3276 1
1257 4677 1
1258 224 1
1258 295 1
1258 505 1
1258 654 1
1258 1459 1
1258 1788 1
1258 2209 1
1258 2727 1
1258 3601 1
1258 3785 1
1258 8836 1
1258 9215 1
1258 9293 1
1259 21 1
1259 108 1
1259 233 1
1259 238 1
1259 1297 1
1259 1501 1
1259 1627 1
1259 1628 1
1259 2661 1
1259 2901 1
1259 2917 1
1259 3014 1
1259 3614 1
1259 4351 1
1259 5488 1
1259 6071 1
1259 6764 1
1259 7249 1
1259 7721 1
1259 7755 1
1259 8434 1
1259 8494 1
1259 8688 1
1259 8821 1
1259 9203 1
1259 9490 1
1260 12 1
1260 229 1
1260 374 1
1260 492 1
1260 1664 1
1260 2129 1
1260 3104 1
1260 3134 1
1260 3780 1
1260 4173 1
1260 4456 1
1260 4510 1
1260 5205 1
1260 5745 1
1260 7361 1
1260 8033 1
1260 8088 1
1260 8425 1
1260 8973 1
1260 9949 1
1261 80 1
1261 372 1
1261 448 1
1261 831 1
1261 1657 1
1261 1746 1
1261 1776 1
1261 1868 1
1261 2296 1
1261 2383 1
1261 2390 1
1261 3067 1
1261 3246 1
1261 5765 1
1261 5794 1
1261 6109 1
1261 7084 1
1261 8627 1
1261 9858 1
1261 9873 1
1262 55 1
1262 381 1
1262 384 1
1262 832 1
1262 2733 1
1262 2745 1
1262 2987 1
1262 3143 1
1262 3318 1
1262 3371 1
1262 6455 1
1262 7149 1
1262 8522 1
1262 8679 1
1263 53 1
1263 260 1
1263 588 1
1263 718 1
1263 1559 1
1263 1714 1
1263 2635 1
1263 2760 1
1263 2994 1
1263 4690 1
1263 5623 1
1263 6478 1
1263 7549 1
1264 16 1
1264 25 1
1264 885 1
1264 1041 1
1264 1743 1
1264 2474 1
1264 3482 1
1264 4702 1
1264 4747 1
1264 4857 1
1264 5096 1
1264 6083 1
1264 6498 1
1264 6596 1
1264 7692 1
1264 9217 1
1265 31 1
1265 48 1
1265 297 1
1265 1126 1
1265 1387 1
1265 1447 1
1265 2617 1
1265 3324 1
1265 4145 1
1265 5478 1
1265 7680 1
1265 7707 1
1266 23 1
1266 56 1
1266 137 1
1266 347 1
1266 2031 1
1266 3525 1
1266 7330 1
1266 8014 1
1267 17 1
1267 113 1
1267 160 1
1267 1041 1
1267 1711 1
1268 112 1
1268 502 1
1268 539 1
1268 1209 1
1268 2203 1
1268 2690 1
1268 2974 1
1268 3187 1
1268 3328 1
1268 3729 1
1268 3807 1
1268 4046 1
1268 6175 1
1268 6419 1
1268 6843 1
1268 7120 1
1268 7241 1
1269 43 1
1269 833 1
1269 885 1
1269 928 1
1269 3069 1
1269 3538 1
1269 4516 1
1269 4588 1
1269 6954 1
1270 415 1
1270 459 1
1270 816 1
1270 1138 1
1270 1345 1
1270 1545 1
1270 1814 1
1270 1832 1
1270 1982 1
1270 2391 1
1270 2802 1
1270 4236 1
1270 4622 1
1270 5706 1
1270 5795 1
1270 6317 1
1270 7042 1
1270 7215 1
1270 8368 1
1270 9020 1
1270 9570 1
1270 9698 1
1271 10 1
1271 142 1
1271 378 1
1271 992 1
1271 1497 1
1271 2189 1
1271 2361 1
1271 2765 1
1271 2932 1
1271 5577 1
1271 7119 1
1271 8782 1
1271 9929 1
1272 6 1
1272 157 1
1272 417 1
1272 900 1
1272 2438 1
1272 5999 1
1272 7633 1
1273 17 1
1273 368 1
1273 739 1
1273 1123 1
1273 1513 1
1273 1540 1
1273 1780 1
1273 2041 1
1273 5104 1
1273 8226 1
1274 685 1
1274 900 1
1274 1231 1
1274 1237 1
1274 1560 1
1274 2057 1
1274 2276 1
1274 2576 1
1274 2782 1
1274 3142 1
1274 3200 1
1274 3555 1
1274 4731 1
1274 5353 1
1274 5385 1
1274 5886 1
1274 6943 1
1274 8426 1
1275 106 1
1275 226 1
1275 492 1
1275 976 1
1275 1350 1
1275 1735 1
1275 8907 1
1276 390 1
1276 578 1
1276 687 1
1276 744 1
1276 3308 1
1276 3712 1
1276 3847 1
1276 4117 1
1276 4152 1
1276 4655 1
1276 5651 1
1276 7264 1
1276 7324 1
1276 7767 1
1276 8277 1
1277 200 1
1277 601 1
1277 1049 1
1277 1110 1
1277 1558 1
1277 1915 1
1277 2214 1
1277 2352 1
1277 3593 1
1277 3836 1
1277 4180 1
1277 4235 1
1277 4716 1
1277 4805 1
1277 5589 1
1277 5604 1
1277 8489 1
1277 9288 1
1278 81 1
1278 121 1
1278 312 1
1278 971 1
1278 1838 1
1278 6361 1
1278 8833 1
1279 37 1
1279 98 1
1279 597 1
1279 986 1
1279 1399 1
1279 1951 1
1279 2214 1
1279 2269 1
1279 4201 1
1279 4358 1
1279 4997 1
1279 5996 1
1279 7931 1
1279 8143 1
1279 8573 1
1280 17 1
1280 138 1
1280 590 1
1280 1125 1
1280 1343 1
1280 1906 1
1280 3011 1
1280 3079 1
1280 3399 1
1280 3766 1
1280 3816 1
1280 3893 1
1280 6177 1
1280 8158 1
1280 8162 1
1280 8942 1
1280 9096 1
1281 220 1
1281 859 1
1281 926 1
1281 1219 1
1281 1434 1
1281 1615 1
1281 2602 1
1281 3664 1
1281 7303 1
1281 8453 1
1281 8753 1
1282 149 1
1282 225 1
1282 714 1
1282 1217 1
1282 3181 1
1282 6918 1
1282 7931 1
1282 7959 1
1282 8902 1
1282 9434 1
1283 1 1
1283 19 1
1283 71 1
1283 467 1
1283 1285 1
1283 3201 1
1283 3256 1
1284 37 1
1284 197 1
1284 737 1
1284 1047 1
1284 1734 1
1284 3491 1
1284 4561 1
1284 4662 1
1284 5874 1
1284 6498 1
1284 7064 1
1284 7989 1
1284 8185 1
1284 8582 1
1284 9026 1
1285 6 1
1285 226 1
1285 571 1
1285 1283 1
1285 1694 1
1285 1716 1
1285 2648 1
1285 3516 1
1285 3964 1
1285 6420 1
1285 6956 1
1285 6984 1
1286 16 1
1286 142 1
1286 272 1
1286 765 1
1286 1364 1
1286 1717 1
1286 1816 1
1286 1945 1
1286 1996 1
1286 2260 1
1286 3890 1
1286 3930 1
1286 4823 1
1286 4992 1
1286 5276 1
1286 6257 1
1286 7401 1
1286 9755 1
1286 10000 1
1287 121 1
1287 122 1
1287 259 1
1287 765 1
1287 2973 1
1287 4112 1
1287 6891 1
1287 6982 1
1287 8303 1
1287 8516 1
1288 154 1
1288 200 1
1288 356 1
1288 715 1
1288 1687 1
1288 3532 1
1288 3645 1
1288 5091 1
1288 6234 1
1288 7806 1
1288 9269 1
1289 38 1
1289 64 1
1289 563 1
1289 1065 1
1289 1879 1
1289 2315 1
1289 3339 1
1289 3408 1
1289 3665 1
1289 4332 1
1289 6596 1
1289 8683 1
1289 8833 1
1289 9047 1
1289 9432 1
1290 34 1
1290 483 1
1290 1140 1
1290 1192 1
1290 1380 1
1290 1393 1
1290 2028 1
1290 2188 1
1290 3116 1
1290 3497 1
1290 4215 1
1290 5582 1
1290 8023 1
1291 13 1
1291 154 1
1291 233 1
1291 664 1
1291 1806 1
1291 2167 1
1291 5257 1
1291 7015 1
1291 7084 1
1291 7258 1
1291 7687 1
1292 6 1
1292 185 1
1292 424 1
1292 1122 1
1292 1595 1
1292 2497 1
1292 2684 1
1292 4086 1
1292 4285 1
1292 7735 1
1292 9528 1
1293 13 1
1293 150 1
1293 390 1
1293 925 1
1293 1791 1
1293 1860 1
1293 2039 1
1293 2437 1
1293 3228 1
1293 5150 1
1294 667 1
1294 669 1
1294 833 1
1294 1065 1
1294 1467 1
1294 1488 1
1294 3261 1
1294 3968 1
1294 4063 1
1294 4338 1
1294 5617 1
1294 5820 1
1294 6735 1
1294 7527 1
1294 8078 1
1294 8699 1
1294 9411 1
1295 167 1
1295 353 1
1295 461 1
1295 881 1
1295 1483 1
1295 2358 1
1295 2410 1
1295 3269 1
1295 4393 1
1295 4875 1
1295 7132 1
1296 20 1
1296 141 1
1296 184 1
1296 314 1
1296 1365 1
1296 4253 1
1296 5288 1
1296 7804 1
1297 183 1
1297 379 1
1297 719 1
1297 1259 1
1297 1359 1
1297 1639 1
1297 1706 1
1297 2068 1
1297 2525 1
1297 3045 1
1297 3127 1
1297 3262 1
1297 3376 1
1297 3997 1
1297 4263 1
1297 4537 1
1297 4831 1
1297 5826 1
1297 7026 1
1297 7659 1
1297 8302 1
1298 91 1
1298 247 1
1298 610 1
1298 1050 1
1298 1643 1
1298 3084 1
1298 3916 1
1298 7028 1
1298 7766 1
1299 61 1
1299 98 1
1299 118 1
1299 119 1
1299 2217 1
1299 3565 1
1299 7231 1
1299 7803 1
1300 10 1
1300 872 1
1300 1010 1
1300 1158 1
1300 1673 1
1300 2282 1
1300 2331 1
1300 2606 1
1300 3496 1
1300 4084 1
1300 5335 1
1300 6900 1
1300 8624 1
1301 15 1
1301 80 1
1301 212 1
1301 1051 1
1301 1541 1
1301 1569 1
1301 1616 1
1301 2478 1
1301 3037 1
1301 3370 1
1301 4809 1
1301 5217 1
1301 6720 1
1301 6872 1
1301 8363 1
1302 3 1
1302 632 1
1302 728 1
1302 911 1
1302 1508 1
1302 2032 1
1302 2048 1
1302 5763 1
1302 6496 1
1302 9014 1
1303 37 1
1303 91 1
1303 744 1
1303 1195 1
1303 2999 1
1303 7849 1
1304 29 1
1304 312 1
1304 529 1
1304 1003 1
1304 1605 1
1304 1853 1
1304 2342 1
1304 3023 1
1304 3418 1
1304 4600 1
1304 6503 1
1305 218 1
1305 538 1
1305 564 1
1305 703 1
1305 1380 1
1305 1518 1
1305 2326 1
1305 4581 1
1305 5598 1
1305 5632 1
1305 8384 1
1305 8860 1
1306 42 1
1306 143 1
1306 305 1
1306 723 1
1306 2442 1
1306 4514 1
1306 6399 1
1306 7457 1
1306 8555 1
1306 9898 1
1307 149 1
1307 266 1
1307 715 1
1307 1141 1
1307 1317 1
1307 1958 1
1307 1994 1
1307 1998 1
1307 2750 1
1307 3523 1
1307 3555 1
1307 6046 1
1307 8780 1
1308 12 1
1308 256 1
1308 461 1
1308 833 1
1308 1891 1
1308 4407 1
1308 6054 1
1308 7837 1
1309 1 1
1309 10 1
1309 17 1
1309 1115 1
1309 1547 1
1309 2544 1
1309 3194 1
1309 3460 1
1309 7738 1
1309 8181 1
1309 8946 1
1309 9105 1
1309 9495 1
1310 10 1
1310 288 1
1310 980 1
1310 1004 1
1310 1692 1
1310 2428 1
1310 4344 1
1310 7114 1
1310 9157 1
1310 9315 1
1311 11 1
1311 32 1
1311 444 1
1311 581 1
1311 1563 1
1311 2145 1
1311 2415 1
1311 2960 1
1311 3091 1
1311 3320 1
1311 3322 1
1311 4499 1
1311 7887 1
1311 8247 1
1311 9308 1
1311 9550 1
1312 11 1
1312 102 1
1312 609 1
1312 1068 1
1312 1378 1
1312 1396 1
1312 1525 1
1312 2457 1
1312 3520 1
1312 4031 1
1312 4901 1
1312 5332 1
1312 5755 1
1312 6741 1
1312 7708 1
1312 9086 1
1313 6 1
1313 83 1
1313 572 1
1313 683 1
1313 1864 1
1313 3183 1
1313 3636 1
1313 7188 1
1313 9263 1
1314 24 1
1314 69 1
1314 195 1
1314 711 1
1314 1370 1
1314 5099 1
1314 5967 1
1314 7251 1
1315 131 1
1315 239 1
1315 280 1
1315 370 1
1315 1357 1
1315 1595 1
1315 1996 1
1315 2579 1
1315 2604 1
1315 2852 1
1315 5568 1
1315 8940 1
1315 9645 1
1316 74 1
1316 737 1
1316 892 1
1316 1085 1
1317 295 1
1317 440 1
1317 865 1
1317 1307 1
1317 1462 1
1317 1722 1
1317 4081 1
1317 5386 1
1317 6836 1
1317 6987 1
1317 7423 1
1317 8101 1
1317 9277 1
1318 73 1
1318 115 1
1318 220 1
1318 1192 1
1318 2260 1
1318 3242 1
1318 3444 1
1318 5460 1
1318 5717 1
1318 7575 1
1319 288 1
1319 300 1
1319 304 1
1319 584 1
1319 3413 1
1319 3769 1
1319 5088 1
1319 5237 1
1319 5348 1
1319 6058 1
1319 7482 1
1319 7628 1
1319 9639 1
1319 9650 1
1320 12 1
1320 937 1
1320 1134 1
1320 1147 1
1320 1738 1
1320 2308 1
1320 2918 1
1320 3022 1
1320 3540 1
1320 3938 1
1320 6193 1
1320 6457 1
1320 6695 1
1320 7319 1
1320 7507 1
1321 13 1
1321 41 1
1321 149 1
1321 893 1
1321 1680 1
1321 4183 1
1321 4951 1
1321 7049 1
1322 107 1
1322 607 1
1322 636 1
1322 1248 1
1322 2219 1
1322 2366 1
1322 2466 1
1322 3427 1
1322 4803 1
1322 5086 1
1323 149 1
1323 158 1
1323 866 1
1323 934 1
1323 3184 1
1323 9268 1
1323 9472 1
1324 36 1
1324 97 1
1324 689 1
1324 1210 1
1324 1648 1
1324 3761 1
1324 4157 1
1324 4678 1
1324 4804 1
1324 7350 1
1325 258 1
1325 582 1
1325 944 1
1325 1128 1
1325 1592 1
1325 2049 1
1325 2056 1
1325 2681 1
1325 2700 1
1325 3973 1
1325 8678 1
1325 9143 1
1326 28 1
1326 903 1
1326 1023 1
1326 1131 1
1326 1648 1
1326 1905 1
1326 3023 1
1326 3487 1
1326 3591 1
1326 3857 1
1326 4479 1
1326 4709 1
1326 4758 1
1326 7455 1
1327 3 1
1327 897 1
1327 940 1
1327 1239 1
1327 2881 1
1327 2913 1
1327 3546 1
1327 5337 1
1327 8258 1
1328 190 1
1328 729 1
1328 1020 1
1328 1209 1
1328 4814 1
1328 9629 1
1329 39 1
1329 536 1
1329 1034 1
1329 1040 1
1329 3120 1
1329 3378 1
1329 3549 1
1329 5188 1
1329 5955 1
1329 6230 1
1329 6549 1
1329 6818 1
1329 8786 1
1329 9417 1
1330 286 1
1330 319 1
1330 519 1
1330 1248 1
1331 368 1
1331 579 1
1331 831 1
1331 1192 1
1331 2166 1
1331 3545 1
1331 3649 1
1331 9331 1
1332 4 1
1332 295 1
1332 824 1
1332 1100 1
1332 2046 1
1332 4203 1
1332 4889 1
1332 5276 1
1332 5684 1
1332 9593 1
1333 1 1
1333 419 1
1333 528 1
1333 674 1
1333 1399 1
1333 2531 1
1333 4874 1
1333 6526 1
1333 7358 1
1333 7391 1
1333 7516 1
1333 9080 1
1334 22 1
1334 115 1
1334 188 1
1334 599 1
1334 1542 1
1334 2008 1
1334 2940 1
1334 3970 1
1334 4358 1
1334 5908 1
1334 6564 1
1334 6688 1
1335 19 1
1335 226 1
1335 630 1
1335 894 1
1335 1349 1
1335 1378 1
1335 1431 1
1335 1804 1
1335 2927 1
1335 2961 1
1335 3938 1
1335 4861 1
1335 6119 1
1335 8384 1
1335 8602 1
1336 165 1
1336 471 1
1336 619 1
1336 856 1
1336 1553 1
1336 2518 1
1336 2983 1
1336 3641 1
1336 3781 1
1336 3837 1
1336 5471 1
1336 9603 1
1337 11 1
1337 14 1
1337 496 1
1337 690 1
1337 2669 1
1337 5726 1
1337 7341 1
1337 7559 1
1337 8883 1
1338 47 1
1338 166 1
1338 277 1
1338 949 1
1338 2603 1
1338 5327 1
1338 5649 1
1338 6043 1
1339 95 1
1339 188 1
1339 1058 1
1339 1085 1
1339 1729 1
1339 1948 1
1339 2215 1
1339 2583 1
1339 2915 1
1339 3101 1
1339 3124 1
1339 4460 1
1339 7131 1
1339 7720 1
1339 8593 1
1339 8676 1
1339 9430 1
1340 152 1
1340 564 1
1340 909 1
1340 966 1
1340 3047 1
1340 3479 1
1340 4752 1
1340 6300 1
1340 6658 1
1340 6818 1
1340 7973 1
1340 9429 1
1340 9720 1
1341 6 1
1341 523 1
1341 691 1
1341 1180 1
1341 1920 1
1341 3119 1
1341 4954 1
1341 5454 1
1342 112 1
1342 323 1
1342 1056 1
1342 1100 1
1342 1355 1
1342 1759 1
1342 1816 1
1342 2136 1
1342 2363 1
1342 4628 1
1342 4629 1
1342 4989 1
1342 6186 1
1342 6313 1
1342 6942 1
1343 863 1
1343 958 1
1343 1251 1
1343 1280 1
1343 3232 1
1343 3499 1
1343 5088 1
1343 5822 1
1343 6941 1
1343 7816 1
1343 8061 1
1343 9967 1
1344 106 1
1344 306 1
1344 619 1
1344 1088 1
1344 1915 1
1344 2099 1
1344 2753 1
1344 4090 1
1344 7694 1
1345 17 1
1345 66 1
1345 166 1
1345 1270 1
1345 1377 1
1345 7261 1
1346 218 1
1346 502 1
1346 823 1
1346 1098 1
1346 1937 1
1346 5275 1
1346 8860 1
1347 98 1
1347 188 1
1347 1016 1
1347 1118 1
1347 2878 1
1347 3198 1
1347 3772 1
1347 4759 1
1347 5907 1
1347 6123 1
1348 78 1
1348 85 1
1348 140 1
1348 251 1
1348 1756 1
1348 1768 1
1348 2715 1
1348 2872 1
1348 3054 1
1348 3065 1
1348 3079 1
1348 3885 1
1348 4902 1
1348 8702 1
1349 30 1
1349 746 1
1349 894 1
1349 1335 1
1350 152 1
1350 307 1
1350 413 1
1350 1275 1
1350 2285 1
1350 2946 1
1350 3336 1
1350 4215 1
1350 4695 1
1350 6991 1
1350 7386 1
1350 8408 1
1350 8444 1
1350 8946 1
1351 13 1
1351 14 1
1351 861 1
1351 994 1
1351 5071 1
1352 2 1
1352 176 1
1352 916 1
1352 1096 1
1352 2468 1
1352 6797 1
1352 8496 1
1353 6 1
1353 96 1
1353 104 1
1353 578 1
1354 528 1
1354 765 1
1354 836 1
1354 845 1
1354 3411 1
1354 4395 1
1354 4512 1
1354 4659 1
1354 5020 1
1354 5078 1
1354 6363 1
1354 7319 1
1354 7853 1
1354 8308 1
1354 8388 1
1354 9400 1
1354 9447 1
1354 9630 1
1355 3 1
1355 128 1
1355 186 1
1355 1342 1
1355 1777 1
1355 2195 1
1355 2388 1
1355 4000 1
1355 4478 1
1355 5199 1
1355 5412 1
1355 6599 1
1355 6999 1
1355 7782 1
1356 74 1
1356 464 1
1356 1133 1
1356 1206 1
1356 3010 1
1356 5248 1
1356 5743 1
1356 7960 1
1356 8053 1
1357 1 1
1357 3 1
1357 1072 1
1357 1315 1
1357 1455 1
1357 2229 1
1357 2722 1
1357 4653 1
1357 9978 1
1358 68 1
1358 482 1
1358 748 1
1358 935 1
1358 1366 1
1358 1617 1
1358 1782 1
1358 2836 1
1358 3539 1
1358 3950 1
1358 4103 1
1358 4300 1
1358 4400 1
1358 4821 1
1358 6002 1
1358 7573 1
1358 8606 1
1358 9082 1
1358 9339 1
1359 513 1
1359 1036 1
1359 1138 1
1359 1297 1
1359 2994 1
1359 4962 1
1359 5636 1
1360 6 1
1360 98 1
1360 271 1
1360 1108 1
1360 1861 1
1360 2044 1
1360 3154 1
1360 3227 1
1360 4553 1
1360 5809 1
1360 7305 1
1360 7357 1
1361 159 1
1361 182 1
1361 229 1
1361 270 1
1361 1696 1
1361 7340 1
1361 7839 1
1362 13 1
1362 136 1
1362 384 1
1362 429 1
1362 2266 1
1362 2549 1
1362 6328 1
1362 8130 1
1363 42 1
1363 845 1
1363 963 1
1363 1094 1
1363 1873 1
1363 3851 1
1363 4740 1
1363 6376 1
1363 6430 1
1363 9210 1
1364 14 1
1364 441 1
1364 570 1
1364 1286 1
1364 1429 1
1364 2389 1
1364 2933 1
1364 8966 1
1364 9347 1
1364 9725 1
1365 151 1
1365 307 1
1365 369 1
1365 1296 1
1365 4706 1
1365 5890 1
1365 6930 1
1366 229 1
1366 578 1
1366 953 1
1366 1358 1
1366 1620 1
1366 2907 1
1366 4457 1
1366 4542 1
1366 5378 1
1366 6316 1
1366 7003 1
1366 8106 1
1366 9924 1
1367 97 1
1367 297 1
1367 347 1
1367 859 1
1367 1520 1
1367 1559 1
1367 1878 1
1367 2285 1
1367 2561 1
1367 2800 1
1367 3231 1
1367 3410 1
1367 3517 1
1367 3535 1
1367 3854 1
1367 7756 1
1368 9 1
1368 37 1
1368 101 1
1368 984 1
1368 2928 1
1368 3535 1
1368 5028 1
1368 5759 1
1368 5956 1
1368 6298 1
1369 4 1
1369 42 1
1369 146 1
1369 426 1
1369 1412 1
1369 1865 1
1369 1907 1
1369 2835 1
1369 3262 1
1369 4088 1
1369 4796 1
1369 6742 1
1369 7804 1
1369 8046 1
1369 9566 1
1370 144 1
1370 232 1
1370 550 1
1370 1314 1
1370 1721 1
1370 5720 1
1370 7143 1
1371 86 1
1371 100 1
1371 557 1
1371 1142 1
1371 1972 1
1371 4050 1
1371 4064 1
1371 8443 1
1371 9125 1
1371 9154 1
1372 51 1
1372 58 1
1372 214 1
1372 934 1
1372 1583 1
1372 2102 1
1372 3841 1
1372 6310 1
1372 6981 1
1372 8991 1
1373 230 1
1373 372 1
1373 627 1
1373 667 1
1373 2459 1
1373 3298 1
1373 3352 1
1373 3524 1
1373 3533 1
1373 7315 1
1374 14 1
1374 267 1
1374 498 1
1374 1041 1
1374 2162 1
1374 4839 1
1374 8382 1
1375 49 1
1375 151 1
1375 598 1
1375 1046 1
1375 2196 1
1375 2381 1
1375 3907 1
1375 4171 1
1375 5198 1
1375 5574 1
1375 6198 1
1375 6335 1
1375 6607 1
1375 6736 1
1375 7112 1
1375 7393 1
1376 22 1
1376 49 1
1376 85 1
1376 278 1
1376 1933 1
1376 2296 1
1376 2612 1
1376 2826 1
1376 4518 1
1376 4790 1
1376 5121 1
1376 5273 1
1376 5530 1
1376 5735 1
1376 5739 1
1376 9618 1
1376 9744 1
1377 151 1
1377 605 1
1377 1089 1
1377 1345 1
1377 1393 1
1377 1513 1
1377 3294 1
1377 4980 1
1378 135 1
1378 181 1
1378 1312 1
1378 1335 1
1378 2740 1
1378 2969 1
1378 3669 1
1378 8343 1
1378 9170 1
1379 21 1
1379 530 1
1379 873 1
1379 1072 1
1379 2287 1
1379 2953 1
1379 3720 1
1379 5087 1
1379 6276 1
1379 6467 1
1379 6545 1
1379 9933 1
1380 8 1
1380 893 1
1380 1290 1
1380 1305 1
1380 4327 1
1380 5390 1
1380 6976 1
1380 9861 1
1381 777 1
1381 983 1
1381 1044 1
1381 1231 1
1381 1902 1
1381 2067 1
1381 2112 1
1381 3076 1
1381 3487 1
1381 3883 1
1381 4154 1
1381 4208 1
1381 4598 1
1381 5240 1
1381 5573 1
1381 6203 1
1381 6886 1
1381 7370 1
1381 9068 1
1381 9556 1
1381 9651 1
1382 40 1
1382 67 1
1382 275 1
1382 373 1
1382 2132 1
1382 2399 1
1382 3589 1
1382 4047 1
1382 6166 1
1382 7483 1
1382 9861 1
1383 7 1
1383 77 1
1383 142 1
1383 835 1
1383 1538 1
1383 1546 1
1383 1773 1
1383 3680 1
1383 6481 1
1383 9064 1
1384 213 1
1384 219 1
1384 240 1
1384 571 1
1384 2089 1
1384 2859 1
1384 4682 1
1385 12 1
1385 632 1
1385 678 1
1385 690 1
1385 1500 1
1385 3264 1
1385 4347 1
1385 5095 1
1386 443 1
1386 580 1
1386 953 1
1386 1151 1
1386 3272 1
1387 137 1
1387 144 1
1387 154 1
1387 1265 1
1387 2172 1
1387 2667 1
1387 2759 1
1387 2986 1
1387 7218 1
1387 9064 1
1387 9859 1
1388 134 1
1388 272 1
1388 524 1
1388 710 1
1388 3354 1
1388 5410 1
1389 294 1
1389 719 1
1389 1082 1
1389 1224 1
1389 1846 1
1389 3378 1
1389 4056 1
1389 5491 1
1389 7184 1
1389 8195 1
1390 1 1
1390 13 1
1390 201 1
1390 287 1
1390 1844 1
1390 2465 1
1390 2687 1
1390 3775 1
1390 4196 1
1390 7957 1
1391 89 1
1391 504 1
1391 791 1
1391 835 1
1391 2183 1
1391 3883 1
1391 5814 1
1391 9534 1
1392 51 1
1392 58 1
1392 790 1
1392 1112 1
1392 2102 1
1392 2941 1
1392 3107 1
1392 3747 1
1392 4606 1
1392 8282 1
1393 57 1
1393 628 1
1393 1290 1
1393 1377 1
1393 3056 1
1393 6431 1
1393 9701 1
1394 29 1
1394 183 1
1394 463 1
1394 1009 1
1394 3814 1
1394 3947 1
1394 4555 1
1394 6579 1
1394 6725 1
1395 10 1
1395 312 1
1395 358 1
1395 515 1
1395 2544 1
1395 3099 1
1395 3144 1
1395 9991 1
1396 1 1
1396 528 1
1396 859 1
1396 1312 1
1396 2341 1
1396 3559 1
1396 4397 1
1396 4421 1
1396 6073 1
1396 6609 1
1396 6815 1
1396 8933 1
1396 9985 1
1397 8 1
1397 390 1
1397 777 1
1397 1041 1
1397 1434 1
1397 1550 1
1397 1769 1
1397 1812 1
1397 4182 1
1397 6478 1
1397 6713 1
1397 7187 1
1397 8353 1
1398 54 1
1398 73 1
1398 708 1
1398 1198 1
1398 2691 1
1398 3423 1
1398 3768 1
1398 4063 1
1398 4685 1
1398 6046 1
1398 6914 1
1398 8213 1
1399 142 1
1399 365 1
1399 1279 1
1399 1333 1
1399 5763 1
1399 5951 1
1399 7847 1
1399 9957 1
1400 30 1
1400 58 1
1400 281 1
1400 1242 1
1400 2625 1
1400 5425 1
1400 6611 1
1401 34 1
1401 204 1
1401 219 1
1401 417 1
1401 2562 1
1401 3680 1
1401 6017 1
1401 8094 1
1402 5 1
1402 49 1
1402 115 1
1402 345 1
1402 1418 1
1402 6838 1
1403 27 1
1403 33 1
1403 635 1
1403 785 1
1403 1820 1
1403 2108 1
1403 2705 1
1403 3461 1
1403 4161 1
1403 6572 1
1403 8469 1
1403 9867 1
1404 528 1
1404 644 1
1404 937 1
1404 1032 1
1404 2369 1
1404 3070 1
1404 6960 1
1405 6 1
1405 122 1
1405 1188 1
1405 1253 1
1405 2298 1
1405 3367 1
1405 4392 1
1405 4412 1
1405 4954 1
1405 5279 1
1405 7143 1
1405 7211 1
1405 8047 1
1405 8236 1
1405 8330 1
1405 9158 1
1405 9163 1
1405 9376 1
1406 25 1
1406 135 1
1406 220 1
1406 858 1
1406 2144 1
1406 2224 1
1406 2921 1
1406 4827 1
1406 4996 1
1406 5973 1
1406 6659 1
1406 7845 1
1406 7943 1
1406 9012 1
1406 9086 1
1406 9665 1
1407 23 1
1407 152 1
1407 687 1
1407 949 1
1407 2658 1
1407 3232 1
1407 4729 1
1407 5681 1
1407 6562 1
1407 8953 1
1407 9188 1
1407 9909 1
1408 3 1
1408 55 1
1408 1038 1
1408 1132 1
1408 1515 1
1408 1702 1
1408 2352 1
1408 2702 1
1408 3153 1
1408 3357 1
1408 4771 1
1408 4976 1
1408 5289 1
1408 6580 1
1408 6692 1
1408 7018 1
1408 7724 1
1409 125 1
1409 290 1
1409 316 1
1409 786 1
1409 1726 1
1409 1874 1
1409 3049 1
1409 3103 1
1409 3807 1
1409 5843 1
1409 5950 1
1409 7272 1
1409 9113 1
1409 9258 1
1410 66 1
1410 149 1
1410 206 1
1410 489 1
1410 1841 1
1410 2500 1
1410 2786 1
1410 3231 1
1410 3670 1
1410 3855 1
1410 4075 1
1410 4142 1
1410 4334 1
1410 5267 1
1410 5663 1
1411 119 1
1411 247 1
1411 806 1
1411 951 1
1411 1837 1
1411 2126 1
1411 2356 1
1411 2867 1
1411 3030 1
1411 3321 1
1411 4186 1
1411 4895 1
1411 5389 1
1411 5489 1
1411 6664 1
1411 7827 1
1411 8346 1
1412 192 1
1412 759 1
1412 839 1
1412 1369 1
1412 1643 1
1412 2243 1
1412 2302 1
1412 2498 1
1412 2886 1
1412 3012 1
1412 5227 1
1412 5885 1
1412 6819 1
1413 57 1
1413 207 1
1413 275 1
1413 694 1
1413 1774 1
1413 2290 1
1413 3039 1
1413 5431 1
1413 7939 1
1414 13 1
1414 229 1
1414 339 1
1414 766 1
1414 1545 1
1414 2346 1
1414 3086 1
1414 5565 1
1414 5787 1
1414 9531 1
1415 179 1
1415 355 1
1415 692 1
1415 982 1
1415 2198 1
1415 2529 1
1415 4001 1
1415 5224 1
1416 316 1
1416 405 1
1416 541 1
1416 1044 1
1416 1802 1
1416 2217 1
1416 2710 1
1416 2799 1
1416 3133 1
1416 4220 1
1416 4457 1
1416 5415 1
1416 5864 1
1416 6586 1
1416 8209 1
1416 9152 1
1416 9503 1
1416 9681 1
1417 7 1
1417 11 1
1417 527 1
1417 553 1
1417 2112 1
1417 3754 1
1417 4089 1
1417 4423 1
1417 4963 1
1417 5504 1
1417 8514 1
1418 23 1
1418 764 1
1418 901 1
1418 1402 1
1418 1641 1
1418 4145 1
1418 4291 1
1418 8298 1
1418 8395 1
1419 10 1
1419 131 1
1419 181 1
1419 799 1
1419 3933 1
1420 131 1
1420 364 1
1420 820 1
1420 1032 1
1420 1922 1
1420 2062 1
1420 2075 1
1420 2382 1
1420 2430 1
1420 5315 1
1420 5398 1
1420 5953 1
1420 6523 1
1420 7326 1
1420 7831 1
1420 8125 1
1420 8237 1
1421 6 1
1421 553 1
1421 858 1
1421 1234 1
1421 3113 1
1421 4477 1
1421 4609 1
1421 5620 1
1421 8720 1
1422 14 1
1422 244 1
1422 422 1
1422 848 1
1422 1471 1
1422 1578 1
1422 2262 1
1422 2681 1
1422 2992 1
1422 3380 1
1422 3453 1
1422 3493 1
1422 3622 1
1422 3779 1
1422 4655 1
1422 4670 1
1422 5668 1
1422 5828 1
1422 7496 1
1422 7521 1
1422 7977 1
1423 10 1
1423 34 1
1423 661 1
1423 901 1
1423 2351 1
1423 6319 1
1423 7723 1
1424 74 1
1424 152 1
1424 611 1
1424 680 1
1424 4533 1
1424 7562 1
1425 188 1
1425 436 1
1425 572 1
1425 1091 1
1425 2350 1
1425 2590 1
1425 2927 1
1425 4791 1
1425 5454 1
1425 5479 1
1425 5658 1
1425 5678 1
1425 6109 1
1425 6524 1
1425 6597 1
1425 7218 1
1425 7733 1
1425 9597 1
1425 9818 1
1426 65 1
1426 188 1
1426 591 1
1426 762 1
1426 1492 1
1426 1710 1
1426 2502 1
1426 3187 1
1426 3448 1
1426 5591 1
1426 7490 1
1426 8412 1
1426 9578 1
1427 11 1
1427 16 1
1427 303 1
1427 815 1
1427 1677 1
1427 2003 1
1427 3904 1
1427 4733 1
1427 6260 1
1428 84 1
1428 148 1
1428 323 1
1428 912 1
1428 3339 1
1428 8188 1
1429 13 1
1429 414 1
1429 465 1
1429 1364 1
1429 5462 1
1429 5822 1
1429 6916 1
1430 19 1
1430 65 1
1430 390 1
1430 460 1
1430 3123 1
1430 6095 1
1430 6461 1
1430 8305 1
1430 9185 1
1430 9738 1
1431 200 1
1431 1111 1
1431 1158 1
1431 1335 1
1431 2244 1
1431 3192 1
1431 5685 1
1431 9299 1
1432 8 1
1432 172 1
1432 456 1
1432 522 1
1432 3068 1
1432 6308 1
1432 7242 1
1432 7902 1
1433 124 1
1433 176 1
1433 385 1
1433 813 1
1433 2621 1
1433 3794 1
1433 3942 1
1434 659 1
1434 1157 1
1434 1281 1
1434 1397 1
1434 2357 1
1434 7933 1
1435 46 1
1435 102 1
1435 204 1
1435 619 1
1435 1611 1
1435 2036 1
1435 2498 1
1435 3210 1
1435 3506 1
1435 3704 1
1435 7454 1
1435 8008 1
1435 9343 1
1435 9904 1
1436 6 1
1436 132 1
1436 166 1
1436 1253 1
1436 2734 1
1436 6854 1
1437 13 1
1437 760 1
1437 956 1
1437 1106 1
1437 3023 1
1437 4141 1
1438 27 1
1438 118 1
1438 293 1
1438 300 1
1438 3029 1
1438 4465 1
1438 7526 1
1438 8159 1
1438 8459 1
1438 8876 1
1438 9502 1
1438 9810 1
1439 12 1
1439 69 1
1439 289 1
1439 389 1
1439 2359 1
1439 2711 1
1439 3024 1
1439 6335 1
1439 8179 1
1439 8593 1
1439 8900 1
1439 9346 1
1440 1 1
1440 9 1
1440 134 1
1440 823 1
1440 2069 1
1440 5388 1
1440 6320 1
1440 7338 1
1440 9619 1
1441 198 1
1441 444 1
1441 749 1
1441 919 1
1441 1442 1
1441 2695 1
1441 3284 1
1441 7943 1
1442 25 1
1442 81 1
1442 117 1
1442 1441 1
1442 1566 1
1442 1652 1
1442 2330 1
1442 2420 1
1442 2506 1
1442 3604 1
1442 4062 1
1442 4183 1
1442 4573 1
1442 4809 1
1442 5225 1
1442 6243 1
1442 6794 1
1442 7259 1
1442 9182 1
1442 9483 1
1442 9618 1
1443 111 1
1443 337 1
1443 563 1
1443 761 1
1443 1594 1
1443 1780 1
1443 2627 1
1443 3913 1
1443 4247 1
1443 6501 1
1443 6853 1
1443 7618 1
1443 7967 1
1444 57 1
1444 188 1
1444 236 1
1444 243 1
1444 1990 1
1444 2582 1
1444 2731 1
1444 2918 1
1444 3019 1
1444 3230 1
1444 3330 1
1444 3778 1
1444 4663 1
1444 5704 1
1444 5936 1
1444 7527 1
1444 8899 1
1444 9517 1
1444 9759 1
1445 6 1
1445 118 1
1445 153 1
1445 493 1
1445 2337 1
1445 4043 1
1445 4745 1
1445 6188 1
1445 7802 1
1445 8124 1
1445 8603 1
1446 241 1
1446 277 1
1446 594 1
1446 1059 1
1446 1631 1
1446 2250 1
1446 2300 1
1446 4069 1
1446 4336 1
1446 5516 1
1446 8806 1
1446 9178 1
1446 9338 1
1446 9389 1
1447 16 1
1447 90 1
1447 707 1
1447 1265 1
1447 2338 1
1447 5811 1
1447 9318 1
1448 15 1
1448 134 1
1448 910 1
1448 1125 1
1449 401 1
1449 566 1
1449 806 1
1449 962 1
1449 2394 1
1449 3296 1
1449 4552 1
1449 6504 1
1449 6603 1
1449 6820 1
1449 7763 1
1449 9878 1
1450 23 1
1450 28 1
1450 786 1
1450 965 1
1450 1728 1
1450 2013 1
1450 2078 1
1450 3946 1
1450 5342 1
1450 6138 1
1450 6465 1
1451 114 1
1451 123 1
1451 134 1
1451 325 1
1451 1548 1
1451 1613 1
1451 2153 1
1451 2207 1
1451 2517 1
1451 3379 1
1451 3839 1
1451 3849 1
1451 4266 1
1451 4285 1
1451 5311 1
1451 5329 1
1451 6734 1
1451 6983 1
1451 7300 1
1451 7411 1
1451 7604 1
1451 7851 1
1452 10 1
1452 11 1
1452 121 1
1452 860 1
1452 3121 1
1452 6624 1
1453 41 1
1453 152 1
1453 420 1
1453 872 1
1453 2767 1
1453 3028 1
1453 3074 1
1453 3758 1
1453 3793 1
1453 6197 1
1453 6223 1
1453 6577 1
1453 6669 1
1453 7471 1
1453 8442 1
1453 9586 1
1453 9637 1
1454 43 1
1454 434 1
1454 1099 1
1454 1188 1
1454 1603 1
1454 2033 1
1454 2888 1
1454 3921 1
1454 4197 1
1454 5322 1
1454 5338 1
1454 5852 1
1454 6309 1
1454 7690 1
1454 9687 1
1455 20 1
1455 21 1
1455 498 1
1455 1357 1
1455 6245 1
1456 97 1
1456 525 1
1456 994 1
1456 1077 1
1456 3797 1
1456 3850 1
1456 6530 1
1456 6967 1
1456 7711 1
1456 8320 1
1456 8664 1
1457 71 1
1457 226 1
1457 399 1
1457 590 1
1457 1817 1
1457 2383 1
1457 2819 1
1457 5068 1
1457 6264 1
1458 15 1
1458 409 1
1458 454 1
1458 868 1
1458 1465 1
1458 1971 1
1458 2053 1
1458 2590 1
1458 3313 1
1458 4842 1
1458 6366 1
1458 7235 1
1458 9689 1
1459 1 1
1459 230 1
1459 295 1
1459 1258 1
1459 1760 1
1459 2716 1
1459 7715 1
1460 65 1
1460 432 1
1460 966 1
1460 972 1
1460 2481 1
1460 2642 1
1460 3388 1
1460 6173 1
1460 7612 1
1460 9082 1
1461 434 1
1461 661 1
1461 702 1
1461 985 1
1461 2064 1
1461 2115 1
1461 2130 1
1461 2660 1
1461 2802 1
1461 3340 1
1461 4170 1
1461 6296 1
1461 6396 1
1461 8145 1
1461 8352 1
1462 59 1
1462 253 1
1462 618 1
1462 1317 1
1462 1465 1
1462 3692 1
1462 3896 1
1462 4238 1
1462 5682 1
1462 6629 1
1463 132 1
1463 135 1
1463 845 1
1463 855 1
1463 2779 1
1464 60 1
1464 504 1
1464 928 1
1464 1190 1
1464 1491 1
1464 2725 1
1464 3269 1
1464 4014 1
1464 7092 1
1464 7809 1
1464 8006 1
1465 528 1
1465 717 1
1465 1458 1
1465 1462 1
1465 1846 1
1465 2638 1
1465 3061 1
1465 3529 1
1466 282 1
1466 581 1
1466 615 1
1466 868 1
1466 1528 1
1466 2033 1
1466 2175 1
1466 2325 1
1466 3701 1
1466 5156 1
1466 8390 1
1467 6 1
1467 123 1
1467 420 1
1467 1294 1
1467 2221 1
1467 2941 1
1467 3043 1
1467 3404 1
1467 4653 1
1467 6106 1
1467 7452 1
1467 7902 1
1468 10 1
1468 244 1
1468 711 1
1468 786 1
1468 2520 1
1468 4547 1
1468 5709 1
1468 6787 1
1469 105 1
1469 268 1
1469 691 1
1469 1086 1
1469 2049 1
1469 2203 1
1469 3037 1
1469 4771 1
1470 26 1
1470 61 1
1470 289 1
1470 539 1
1470 1853 1
1470 2058 1
1470 2818 1
1470 2921 1
1470 3313 1
1470 8972 1
1471 7 1
1471 279 1
1471 317 1
1471 1422 1
1471 1766 1
1471 4538 1
1471 6387 1
1471 7672 1
1471 8572 1
1472 50 1
1472 121 1
1472 510 1
1472 1009 1
1472 3950 1
1472 6378 1
1472 8370 1
1472 9066 1
1472 9938 1
1473 285 1
1473 470 1
1473 544 1
1473 735 1
1473 8382 1
1474 213 1
1474 267 1
1474 1059 1
1474 1114 1
1474 1586 1
1474 1844 1
1474 2966 1
1474 3640 1
1474 4082 1
1474 4167 1
1474 4405 1
1474 5754 1
1474 5850 1
1474 6901 1
1474 8899 1
1474 9037 1
1474 9558 1
1474 9764 1
1475 120 1
1475 204 1
1475 835 1
1475 1112 1
1475 1990 1
1475 3213 1
1475 3714 1
1475 4637 1
1475 5454 1
1475 5703 1
1476 119 1
1476 646 1
1476 676 1
1476 880 1
1476 1740 1
1476 1885 1
1476 1907 1
1476 4310 1
1476 4468 1
1476 5091 1
1476 5612 1
1476 6674 1
1476 7150 1
1476 7819 1
1476 8925 1
1476 9406 1
1476 9529 1
1477 293 1
1477 359 1
1477 369 1
1477 909 1
1477 3155 1
1477 3233 1
1477 3633 1
1477 3861 1
1477 4889 1
1477 7456 1
1477 7726 1
1477 9856 1
1478 293 1
1478 341 1
1478 807 1
1478 1169 1
1478 1813 1
1478 3028 1
1478 3381 1
1478 3694 1
1478 4613 1
1478 7350 1
1478 7740 1
1478 8960 1
1478 9579 1
1479 566 1
1479 648 1
1479 838 1
1479 955 1
1479 2854 1
1479 3163 1
1479 4872 1
1479 5799 1
1479 6900 1
1479 7275 1
1479 9974 1
1480 151 1
1480 218 1
1480 275 1
1480 480 1
1480 2082 1
1480 3434 1
1480 4240 1
1480 4545 1
1480 6145 1
1480 6288 1
1480 7484 1
1480 7515 1
1480 8864 1
1481 49 1
1481 63 1
1481 315 1
1481 570 1
1481 2869 1
1481 3655 1
1481 3821 1
1481 4470 1
1481 5184 1
1481 8707 1
1481 9392 1
1481 9935 1
1482 22 1
1482 357 1
1482 611 1
1482 1119 1
1482 1848 1
1482 2199 1
1482 2396 1
1482 2508 1
1482 2951 1
1482 3192 1
1482 6630 1
1482 7694 1
1482 7772 1
1482 8016 1
1482 9366 1
1483 9 1
1483 724 1
1483 1035 1
1483 1295 1
1483 2677 1
1483 3805 1
1483 3948 1
1483 4971 1
1483 5789 1
1484 120 1
1484 289 1
1484 694 1
1484 842 1
1484 2848 1
1484 3655 1
1484 4291 1
1484 4789 1
1484 5868 1
1484 6274 1
1484 6376 1
1484 6528 1
1484 9351 1
1484 9644 1
1485 6 1
1485 140 1
1485 256 1
1485 1004 1
1485 2899 1
1485 4766 1
1485 5300 1
1485 8737 1
1485 9266 1
1485 9761 1
1486 148 1
1486 223 1
1486 297 1
1486 1203 1
1486 3136 1
1486 3433 1
1486 3938 1
1486 5327 1
1486 6882 1
1486 9164 1
1487 322 1
1487 385 1
1487 709 1
1487 925 1
1487 1975 1
1487 4612 1
1487 5618 1
1487 7689 1
1487 9022 1
1487 9646 1
1487 9936 1
1488 491 1
1488 914 1
1488 945 1
1488 1294 1
1488 2731 1
1488 5152 1
1488 6991 1
1489 20 1
1489 114 1
1489 142 1
1489 266 1
1489 3212 1
1489 4595 1
1489 5231 1
1489 5625 1
1489 9119 1
1490 127 1
1490 150 1
1490 708 1
1490 839 1
1490 9927 1
1491 22 1
1491 81 1
1491 273 1
1491 1464 1
1491 6604 1
1491 7171 1
1492 122 1
1492 168 1
1492 298 1
1492 1426 1
1492 2283 1
1492 2759 1
1492 3025 1
1492 3305 1
1492 3702 1
1492 6099 1
1492 6348 1
1492 6417 1
1493 20 1
1493 117 1
1493 792 1
1493 1026 1
1493 1808 1
1493 2997 1
1493 3470 1
1493 4369 1
1493 4555 1
1493 7073 1
1493 7798 1
1493 8590 1
1494 6 1
1494 96 1
1494 166 1
1494 961 1
1494 1883 1
1494 2096 1
1494 2303 1
1494 4257 1
1494 6417 1
1494 8093 1
1494 9527 1
1495 3 1
1495 75 1
1495 368 1
1495 746 1
1495 1565 1
1495 1954 1
1495 2311 1
1495 3453 1
1495 7690 1
1495 8369 1
1495 8600 1
1495 9046 1
1496 3 1
1496 105 1
1496 1013 1
1496 1069 1
1496 1531 1
1496 3512 1
1496 4532 1
1497 8 1
1497 314 1
1497 495 1
1497 1271 1
1497 4350 1
1497 5400 1
1497 6285 1
1497 6471 1
1497 7046 1
1498 117 1
1498 463 1
1498 576 1
1498 789 1
1498 2402 1
1498 3137 1
1498 3313 1
1498 4032 1
1498 4642 1
1498 4753 1
1498 4754 1
1498 6692 1
1498 6732 1
1498 6764 1
1498 7048 1
1498 7344 1
1499 30 1
1499 56 1
1499 605 1
1499 886 1
1499 1664 1
1499 4340 1
1499 4963 1
1499 6598 1
1499 7195 1
1499 8281 1
1499 9496 1
1500 29 1
1500 229 1
1500 1229 1
1500 1385 1
1500 3695 1
1500 3864 1
1500 5426 1
1500 7105 1
1501 685 1
1501 838 1
1501 939 1
1501 1259 1
1501 1512 1
1501 4027 1
1501 7530 1
1501 7840 1
1501 9068 1
1502 3 1
1502 97 1
1502 250 1
1502 487 1
1502 1856 1
1502 2257 1
1502 2448 1
1502 5916 1
1502 7015 1
1503 327 1
1503 513 1
1503 569 1
1503 983 1
1503 2406 1
1503 3167 1
1503 4924 1
1503 7589 1
1503 8640 1
1504 29 1
1504 335 1
1504 680 1
1504 1066 1
1504 1532 1
1504 4367 1
1504 4515 1
1504 4983 1
1504 5357 1
1504 7834 1
1504 9282 1
1505 88 1
1505 124 1
1505 255 1
1505 271 1
1505 2433 1
1505 2489 1
1505 2707 1
1505 3536 1
1505 4906 1
1505 5399 1
1505 6667 1
1505 7311 1
1505 8567 1
1505 8977 1
1506 36 1
1506 120 1
1506 500 1
1506 520 1
1506 2915 1
1506 2995 1
1506 5524 1
1506 5868 1
1506 7955 1
1506 8182 1
1506 8698 1
1507 9 1
1507 230 1
1507 570 1
1507 728 1
1507 2117 1
1507 3473 1
1507 3768 1
1507 3843 1
1507 4139 1
1507 4519 1
1507 5406 1
1507 5436 1
1507 6403 1
1507 8879 1
1507 8918 1
1508 39 1
1508 259 1
1508 278 1
1508 1302 1
1508 1777 1
1508 5944 1
1508 6875 1
1509 62 1
1509 372 1
1509 426 1
1509 711 1
1509 1667 1
1509 2177 1
1509 6637 1
1509 7606 1
1509 9563 1
1510 9 1
1510 12 1
1510 31 1
1510 994 1
1510 1537 1
1510 1640 1
1510 1985 1
1510 6071 1
1510 6809 1
1510 7812 1
1510 7863 1
1511 8 1
1511 65 1
1511 402 1
1511 1193 1
1511 1716 1
1511 2127 1
1511 4324 1
1511 5506 1
1511 6619 1
1512 12 1
1512 13 1
1512 63 1
1512 1501 1
1512 1572 1
1512 2969 1
1512 4940 1
1512 5430 1
1512 6775 1
1512 6940 1
1512 8079 1
1512 8102 1
1512 9127 1
1512 9169 1
1513 26 1
1513 142 1
1513 1273 1
1513 1377 1
1513 2417 1
1513 2544 1
1513 3110 1
1513 3377 1
1513 3465 1
1513 4029 1
1513 5940 1
1513 7346 1
1513 8042 1
1513 8199 1
1513 8746 1
1513 9463 1
1514 319 1
1514 919 1
1514 938 1
1514 1212 1
1514 3173 1
1514 4117 1
1514 7542 1
1515 557 1
1515 745 1
1515 1173 1
1515 1408 1
1515 1613 1
1515 1760 1
1515 1821 1
1515 1992 1
1515 2265 1
1515 3851 1
1515 5346 1
1515 5580 1
1516 8 1
1516 453 1
1516 791 1
1516 983 1
1516 3888 1
1516 5005 1
1516 5159 1
1516 7062 1
1516 7167 1
1516 7954 1
1517 65 1
1517 330 1
1517 456 1
1517 470 1
1517 5202 1
1517 7061 1
1517 7608 1
1518 527 1
1518 932 1
1518 1253 1
1518 1305 1
1518 3371 1
1518 4186 1
1518 5386 1
1518 7072 1
1518 9806 1
1519 48 1
1519 590 1
1519 623 1
1519 1172 1
1519 2208 1
1519 5367 1
1520 17 1
1520 107 1
1520 154 1
1520 1367 1
1520 1768 1
1520 1840 1
1520 1975 1
1520 2282 1
1520 2507 1
1520 2696 1
1520 6885 1
1520 7586 1
1520 7893 1
1520 9088 1
1520 9116 1
1520 9345 1
1521 49 1
1521 120 1
1521 297 1
1521 673 1
1521 1803 1
1521 4822 1
1521 5950 1
1522 266 1
1522 378 1
1522 425 1
1522 711 1
1522 1896 1
1522 1924 1
1522 3580 1
1522 3903 1
1522 6029 1
1522 6562 1
1522 7786 1
1522 9269 1
1523 3 1
1523 34 1
1523 139 1
1523 156 1
1523 1788 1
1523 1958 1
1523 2489 1
1523 3180 1
1523 4505 1
1523 5469 1
1524 535 1
1524 736 1
1524 1155 1
1524 1211 1
1524 6160 1
1524 7543 1
1524 8166 1
1524 8649 1
1525 89 1
1525 108 1
1525 638 1
1525 1312 1
1525 3437 1
1526 124 1
1526 714 1
1526 964 1
1526 1147 1
1526 1944 1
1526 3333 1
1526 4568 1
1526 5663 1
1526 6244 1
1526 6336 1
1526 9561 1
1527 5 1
1527 14 1
1527 750 1
1527 775 1
1527 1755 1
1527 2096 1
1527 2275 1
1527 2277 1
1527 2456 1
1527 3096 1
1527 4004 1
1527 4902 1
1527 5315 1
1527 6905 1
1527 9648 1
1528 81 1
1528 120 1
1528 211 1
1528 1466 1
1528 2296 1
1528 2478 1
1528 3209 1
1528 3468 1
1528 3666 1
1528 4931 1
1528 5376 1
1528 5426 1
1528 6822 1
1528 7335 1
1528 7552 1
1529 11 1
1529 498 1
1529 807 1
1529 1000 1
1529 1570 1
1529 1857 1
1529 2471 1
1529 2837 1
1529 3443 1
1529 4995 1
1529 5299 1
1529 5326 1
1529 5717 1
1529 5952 1
1529 9283 1
1529 9437 1
1529 9785 1
1530 9 1
1530 22 1
1530 210 1
1530 277 1
1530 2295 1
1530 2414 1
1530 2564 1
1530 2580 1
1530 2748 1
1530 2979 1
1530 3659 1
1530 3886 1
1530 4440 1
1530 4936 1
1530 4977 1
1530 5161 1
1530 5495 1
1530 6107 1
1530 6560 1
1530 7899 1
1530 8401 1
1530 9202 1
1530 9329 1
1530 9633 1
1531 25 1
1531 1114 1
1531 1192 1
1531 1496 1
1531 1765 1
1531 2363 1
1531 2488 1
1531 3446 1
1531 3464 1
1531 8827 1
1532 486 1
1532 533 1
1532 646 1
1532 1504 1
1532 1697 1
1532 1890 1
1532 1906 1
1532 1967 1
1532 1988 1
1532 2977 1
1532 3139 1
1532 3539 1
1532 3879 1
1532 5430 1
1532 5818 1
1532 7050 1
1532 8187 1
1533 9 1
1533 313 1
1533 703 1
1533 1068 1
1533 2392 1
1533 2806 1
1533 3028 1
1533 3108 1
1533 3297 1
1533 6701 1
1534 121 1
1534 597 1
1534 1132 1
1534 1223 1
1534 2733 1
1534 3948 1
1534 4404 1
1534 5459 1
1534 5565 1
1534 6669 1
1534 7306 1
1534 9831 1
1535 14 1
1535 25 1
1535 93 1
1535 891 1
1535 2688 1
1535 3599 1
1535 3648 1
1535 4052 1
1535 4659 1
1535 6613 1
1535 6626 1
1535 7377 1
1535 7892 1
1535 8251 1
1535 9118 1
1535 9941 1
1536 3 1
1536 35 1
1536 293 1
1536 502 1
1536 3049 1
1536 3337 1
1536 8693 1
1536 9062 1
1537 505 1
1537 994 1
1537 1076 1
1537 1510 1
1538 41 1
1538 72 1
1538 197 1
1538 1383 1
1538 3198 1
1538 4187 1
1538 5323 1
1538 6151 1
1538 6931 1
1538 9194 1
1539 14 1
1539 224 1
1539 539 1
1539 788 1
1539 1616 1
1539 2373 1
1539 2494 1
1539 2577 1
1539 2780 1
1539 2926 1
1539 3196 1
1539 3615 1
1539 3848 1
1539 4400 1
1539 4748 1
1539 5167 1
1539 6778 1
1539 7099 1
1539 9264 1
1539 9585 1
1539 9776 1
1540 5 1
1540 136 1
1540 179 1
1540 1273 1
1540 2554 1
1540 2608 1
1540 5848 1
1540 8324 1
1541 8 1
1541 12 1
1541 814 1
1541 1301 1
1541 1597 1
1541 2012 1
1541 2511 1
1541 3451 1
1541 4018 1
1541 4725 1
1541 5547 1
1541 5689 1
1541 6249 1
1541 7067 1
1541 7389 1
1541 7644 1
1541 8733 1
1541 9574 1
1542 258 1
1542 480 1
1542 679 1
1542 1334 1
1542 5974 1
1543 33 1
1543 188 1
1543 1160 1
1543 1211 1
1543 2543 1
1543 2898 1
1543 3700 1
1543 6415 1
1543 7658 1
1543 8331 1
1544 120 1
1544 220 1
1544 935 1
1544 958 1
1544 3110 1
1544 3434 1
1544 3632 1
1544 4613 1
1544 5181 1
1544 5262 1
1544 5284 1
1544 5443 1
1544 5729 1
1544 5927 1
1544 6162 1
1544 7166 1
1544 7387 1
1544 9665 1
1544 9827 1
1545 55 1
1545 122 1
1545 1270 1
1545 1414 1
1545 3898 1
1545 5517 1
1545 6876 1
1545 9069 1
1545 9545 1
1545 9973 1
1546 20 1
1546 293 1
1546 515 1
1546 1383 1
1546 2323 1
1546 2833 1
1546 3354 1
1546 5268 1
1546 7559 1
1546 8023 1
1547 160 1
1547 260 1
1547 997 1
1547 1309 1
1547 1691 1
1547 2591 1
1547 4093 1
1547 4677 1
1548 6 1
1548 68 1
1548 760 1
1548 1451 1
1548 1719 1
1548 1818 1
1548 2076 1
1548 2806 1
1548 3674 1
1548 4108 1
1548 4843 1
1548 4997 1
1548 5444 1
1548 6894 1
1548 7888 1
1548 8610 1
1549 268 1
1549 593 1
1549 1049 1
1549 1174 1
1549 6042 1
1549 8401 1
1550 56 1
1550 117 1
1550 1089 1
1550 1397 1
1550 2663 1
1550 2931 1
1550 3436 1
1550 4060 1
1550 4692 1
1550 6104 1
1550 8499 1
1551 5 1
1551 24 1
1551 383 1
1551 719 1
1551 4007 1
1551 4826 1
1551 4931 1
1552 153 1
1552 155 1
1552 651 1
1552 1012 1
1552 1871 1
1552 1907 1
1552 3300 1
1552 3520 1
1552 3751 1
1552 4406 1
1552 5930 1
1552 6447 1
1552 8517 1
1552 8720 1
1552 9033 1
1553 27 1
1553 275 1
1553 1054 1
1553 1336 1
1553 2379 1
1553 3354 1
1553 5274 1
1553 5673 1
1553 5676 1
1553 5757 1
1553 5811 1
1553 5812 1
1553 6429 1
1553 8246 1
1554 19 1
1554 67 1
1554 755 1
1554 1225 1
1554 5859 1
1554 9730 1
1555 63 1
1555 411 1
1555 622 1
1555 818 1
1555 3286 1
1555 3361 1
1555 4049 1
1555 5297 1
1555 9913 1
1556 24 1
1556 157 1
1556 844 1
1556 1195 1
1556 1932 1
1556 2071 1
1556 2132 1
1556 3272 1
1556 4313 1
1556 5899 1
1556 6996 1
1556 7724 1
1556 8003 1
1557 117 1
1557 183 1
1557 260 1
1557 483 1
1557 2200 1
1557 3097 1
1557 4671 1
1557 5082 1
1557 9536 1
1557 9632 1
1558 425 1
1558 651 1
1558 1203 1
1558 1277 1
1558 1792 1
1558 1935 1
1558 1966 1
1558 1982 1
1558 2470 1
1558 2963 1
1558 3478 1
1558 3517 1
1558 5123 1
1558 5780 1
1558 6618 1
1558 7398 1
1558 9044 1
1559 338 1
1559 383 1
1559 1263 1
1559 1367 1
1559 3195 1
1559 3410 1
1559 7546 1
1560 24 1
1560 617 1
1560 1233 1
1560 1274 1
1560 1776 1
1560 2914 1
1560 3976 1
1560 7529 1
1560 8079 1
1560 8239 1
1561 34 1
1561 365 1
1561 407 1
1561 813 1
1561 2369 1
1561 2644 1
1561 2931 1
1561 3020 1
1561 3327 1
1561 4269 1
1561 5915 1
1561 9593 1
1562 6 1
1562 7 1
1562 27 1
1562 1068 1
1562 4261 1
1562 4343 1
1562 7078 1
1562 9234 1
1563 206 1
1563 402 1
1563 909 1
1563 1311 1
1563 1802 1
1563 2533 1
1563 2747 1
1563 3308 1
1563 3634 1
1563 3725 1
1563 5779 1
1563 6573 1
1563 6749 1
1564 68 1
1564 146 1
1564 720 1
1564 895 1
1564 4625 1
1564 7663 1
1564 9504 1
1565 62 1
1565 728 1
1565 1031 1
1565 1495 1
1565 1705 1
1565 3957 1
1565 4111 1
1565 4698 1
1565 4708 1
1565 4859 1
1565 6813 1
1565 8357 1
1565 8871 1
1565 9312 1
1566 57 1
1566 165 1
1566 440 1
1566 1442 1
1566 5573 1
1566 6997 1
1566 7348 1
1566 8461 1
1567 229 1
1567 244 1
1567 559 1
1567 891 1
1567 1603 1
1567 1974 1
1567 2536 1
1567 3155 1
1567 4708 1
1567 4841 1
1567 5843 1
1568 72 1
1568 280 1
1568 527 1
1568 1215 1
1568 2140 1
1568 2413 1
1568 2560 1
1568 3548 1
1568 3588 1
1568 3808 1
1568 3890 1
1568 4331 1
1568 4802 1
1569 83 1
1569 277 1
1569 1246 1
1569 1301 1
1569 2671 1
1569 4723 1
1569 4791 1
1569 5607 1
1569 5683 1
1569 6688 1
1569 7517 1
1569 8460 1
1569 9912 1
1570 194 1
1570 211 1
1570 383 1
1570 1529 1
1570 2030 1
1570 4229 1
1570 7384 1
1571 340 1
1571 580 1
1571 850 1
1571 1241 1
1571 1966 1
1571 7701 1
1572 413 1
1572 483 1
1572 1257 1
1572 1512 1
1572 1632 1
1572 1930 1
1572 2191 1
1573 58 1
1573 173 1
1573 597 1
1573 628 1
1573 1696 1
1573 2333 1
1573 2714 1
1573 3607 1
1573 3699 1
1573 4160 1
1573 4336 1
1573 4911 1
1573 6249 1
1573 6703 1
1573 6962 1
1573 8950 1
1573 9552 1
1574 15 1
1574 125 1
1574 179 1
1574 1238 1
1574 1673 1
1574 1730 1
1574 2209 1
1574 4169 1
1575 13 1
1575 23 1
1575 233 1
1575 845 1
1575 1926 1
1575 2861 1
1575 3568 1
1575 4617 1
1575 8165 1
1575 8938 1
1576 1 1
1576 12 1
1576 127 1
1576 203 1
1576 1847 1
1576 2232 1
1576 2627 1
1576 3189 1
1576 3510 1
1576 3685 1
1576 6699 1
1576 7328 1
1576 9063 1
1576 9806 1
1577 43 1
1577 629 1
1577 750 1
1577 856 1
1577 2983 1
1577 3960 1
1578 13 1
1578 137 1
1578 889 1
1578 1422 1
1578 2506 1
1578 2730 1
1578 5767 1
1578 6953 1
1578 7615 1
1578 8987 1
1578 9166 1
1579 37 1
1579 134 1
1579 1026 1
1579 1066 1
1579 1886 1
1579 2083 1
1579 3671 1
1579 4020 1
1579 4285 1
1579 4323 1
1579 5052 1
1579 5546 1
1579 7787 1
1579 9037 1
1580 149 1
1580 286 1
1580 368 1
1580 463 1
1580 2640 1
1580 2944 1
1580 4717 1
1580 4758 1
1580 6611 1
1580 7024 1
1580 8104 1
1580 9647 1
1581 213 1
1581 604 1
1581 944 1
1581 990 1
1581 1880 1
1581 2272 1
1581 2461 1
1581 3003 1
1581 3036 1
1581 4216 1
1581 5499 1
1581 7388 1
1581 7740 1
1581 7914 1
1581 7927 1
1581 9243 1
1582 67 1
1582 756 1
1582 912 1
1582 1166 1
1582 5657 1
1582 8358 1
1582 9765 1
1583 3 1
1583 870 1
1583 876 1
1583 1372 1
1583 2294 1
1583 2385 1
1583 3961 1
1583 5301 1
1583 6066 1
1583 6136 1
1583 7318 1
1583 8850 1
1584 127 1
1584 282 1
1584 599 1
1584 690 1
1584 4647 1
1584 9023 1
1585 16 1
1585 85 1
1585 339 1
1585 615 1
1585 1616 1
1585 1810 1
1585 6021 1
1585 8303 1
1585 8856 1
1586 26 1
1586 66 1
1586 182 1
1586 1474 1
1586 4625 1
1587 1 1
1587 20 1
1587 202 1
1587 943 1
1587 2404 1
1587 3574 1
1587 6288 1
1587 8716 1
1588 352 1
1588 409 1
1588 629 1
1588 925 1
1588 1612 1
1588 1958 1
1589 105 1
1589 151 1
1589 200 1
1589 580 1
1589 2306 1
1589 2678 1
1589 2841 1
1589 2912 1
1589 3017 1
1589 3348 1
1589 5557 1
1589 5909 1
1590 8 1
1590 259 1
1590 328 1
1590 925 1
1590 1862 1
1590 3022 1
1590 4943 1
1590 5380 1
1590 5806 1
1590 6014 1
1590 6358 1
1590 6710 1
1590 7936 1
1590 7978 1
1591 16 1
1591 275 1
1591 591 1
1591 619 1
1591 1948 1
1591 3999 1
1591 5631 1
1591 9603 1
1592 152 1
1592 373 1
1592 1214 1
1592 1325 1
1592 2029 1
1592 3452 1
1592 5518 1
1593 265 1
1593 415 1
1593 816 1
1593 1167 1
1593 1947 1
1593 2142 1
1593 2936 1
1593 4221 1
1593 6450 1
1593 6651 1
1593 7499 1
1593 8779 1
1594 324 1
1594 872 1
1594 1212 1
1594 1443 1
1594 2183 1
1594 2302 1
1595 1 1
1595 3 1
1595 1292 1
1595 1315 1
1595 2701 1
1595 8234 1
1596 850 1
1596 862 1
1596 1087 1
1596 1234 1
1596 2360 1
1596 2692 1
1596 3207 1
1596 3891 1
1596 4480 1
1596 4584 1
1596 4663 1
1596 5087 1
1596 5294 1
1596 5784 1
1596 6287 1
1596 6496 1
1596 8201 1
1596 8304 1
1596 8536 1
1596 9629 1
1597 29 1
1597 380 1
1597 726 1
1597 1541 1
1597 1605 1
1597 1807 1
1597 1969 1
1597 3671 1
1597 4605 1
1597 6899 1
1598 243 1
1598 321 1
1598 349 1
1598 1189 1
1598 1789 1
1598 2355 1
1598 3741 1
1598 4872 1
1598 4883 1
1598 6047 1
1598 6052 1
1598 7305 1
1598 7880 1
1598 8880 1
1599 14 1
1599 471 1
1599 719 1
1599 849 1
1599 1953 1
1599 2384 1
1599 3054 1
1599 4920 1
1599 5077 1
1599 5524 1
1600 17 1
1600 359 1
1600 361 1
1600 599 1
1600 2963 1
1600 3236 1
1600 3293 1
1600 3328 1
1600 3387 1
1600 3636 1
1600 4337 1
1600 4887 1
1600 8130 1
1600 8927 1
1600 9547 1
1601 1 1
1601 14 1
1601 21 1
1601 26 1
1601 2553 1
1601 5757 1
1601 6935 1
1601 9725 1
1602 19 1
1602 242 1
1602 390 1
1602 1032 1
1602 1718 1
1602 4229 1
1602 5942 1
1602 6201 1
1602 6583 1
1602 6661 1
1602 8258 1
1602 8537 1
1602 8926 1
1602 9010 1
1602 9393 1
1603 78 1
1603 706 1
1603 1454 1
1603 1567 1
1603 3917 1
1603 4853 1
1603 5541 1
1603 6459 1
1603 8264 1
1604 136 1
1604 465 1
1604 545 1
1604 700 1
1604 1918 1
1604 1976 1
1604 2418 1
1604 4316 1
1604 5137 1
1604 6554 1
1604 7254 1
1604 7603 1
1604 8193 1
1604 8537 1
1604 8689 1
1604 9346 1
1604 9464 1
1605 118 1
1605 1023 1
1605 1304 1
1605 1597 1
1605 4607 1
1605 5049 1
1605 9055 1
1606 172 1
1606 731 1
1606 795 1
1606 1150 1
1606 1949 1
1606 2923 1
1606 3235 1
1606 3551 1
1606 3740 1
1606 3860 1
1606 3964 1
1606 4208 1
1606 9410 1
1607 56 1
1607 95 1
1607 513 1
1607 1215 1
1607 2443 1
1607 3287 1
1607 4307 1
1607 5459 1
1607 5601 1
1607 5674 1
1607 5716 1
1607 6881 1
1607 7097 1
1607 7719 1
1607 8970 1
1607 9049 1
1607 9378 1
1607 9823 1
1608 2 1
1608 5 1
1608 24 1
1608 31 1
1608 2615 1
1608 3093 1
1608 5338 1
1608 5366 1
1608 5600 1
1608 5775 1
1608 5777 1
1608 9948 1
1609 33 1
1609 142 1
1609 209 1
1609 394 1
1609 1864 1
1609 2446 1
1609 2495 1
1609 2574 1
1609 3485 1
1609 3583 1
1609 5326 1
1609 5720 1
1609 6306 1
1609 8483 1
1610 10 1
1610 37 1
1610 256 1
1610 417 1
1610 3244 1
1610 3603 1
1610 8287 1
1611 6 1
1611 416 1
1611 975 1
1611 1435 1
1611 2587 1
1611 3018 1
1611 3597 1
1611 3628 1
1611 3688 1
1611 5262 1
1611 5483 1
1611 6953 1
1611 7732 1
1611 8008 1
1611 8654 1
1612 402 1
1612 854 1
1612 947 1
1612 1588 1
1612 5571 1
1612 6923 1
1612 8155 1
1612 9442 1
1613 230 1
1613 1076 1
1613 1451 1
1613 1515 1
1613 6311 1
1613 6709 1
1614 20 1
1614 103 1
1614 198 1
1614 769 1
1614 2267 1
1614 3911 1
1614 4404 1
1614 4564 1
1614 5439 1
1614 6282 1
1614 7684 1
1614 8237 1
1615 183 1
1615 242 1
1615 633 1
1615 1281 1
1615 2149 1
1615 2162 1
1615 2955 1
1615 4560 1
1615 6163 1
1615 6351 1
1615 9149 1
1616 71 1
1616 1301 1
1616 1539 1
1616 1585 1
1616 2065 1
1616 2837 1
1616 3289 1
1616 3409 1
1616 4431 1
1616 4519 1
1616 8646 1
1616 9531 1
1617 24 1
1617 95 1
1617 674 1
1617 1358 1
1617 4768 1
1617 7205 1
1618 102 1
1618 138 1
1618 518 1
1618 1118 1
1618 1778 1
1618 4623 1
1618 5135 1
1619 19 1
1619 65 1
1619 364 1
1619 785 1
1619 2842 1
1619 4210 1
1619 5017 1
1619 5333 1
1619 5858 1
1619 6015 1
1619 6143 1
1619 7308 1
1619 7316 1
1620 149 1
1620 335 1
1620 1136 1
1620 1366 1
1620 2614 1
1620 2622 1
1620 3089 1
1620 4730 1
1620 4928 1
1620 5352 1
1620 5545 1
1620 5638 1
1621 639 1
1621 691 1
1621 1047 1
1621 1232 1
1621 1824 1
1621 2063 1
1621 4765 1
1621 6620 1
1621 9969 1
1622 95 1
1622 470 1
1622 938 1
1622 949 1
1622 9083 1
1623 43 1
1623 322 1
1623 949 1
1623 1107 1
1623 2096 1
1623 2377 1
1623 2582 1
1623 3667 1
1623 3802 1
1623 3868 1
1623 5069 1
1624 70 1
1624 176 1
1624 340 1
1624 754 1
1624 1642 1
1624 4836 1
1624 7700 1
1624 9028 1
1625 39 1
1625 139 1
1625 654 1
1625 1125 1
1625 2303 1
1625 2781 1
1625 3064 1
1625 3606 1
1625 4076 1
1625 4377 1
1625 6391 1
1625 7126 1
1625 9672 1
1626 221 1
1626 246 1
1626 279 1
1626 867 1
1626 1960 1
1626 2283 1
1626 2942 1
1626 3888 1
1626 4770 1
1626 4923 1
1626 5465 1
1626 5576 1
1626 5682 1
1626 6397 1
1626 7933 1
1626 9179 1
1626 9661 1
1627 10 1
1627 37 1
1627 361 1
1627 1259 1
1627 7537 1
1627 8948 1
1628 77 1
1628 256 1
1628 529 1
1628 1259 1
1628 1668 1
1628 2299 1
1628 3334 1
1628 3553 1
1628 4226 1
1628 6086 1
1629 210 1
1629 213 1
1629 587 1
1629 972 1
1629 5272 1
1630 93 1
1630 174 1
1630 265 1
1630 860 1
1631 81 1
1631 147 1
1631 357 1
1631 1446 1
1631 2790 1
1631 4629 1
1631 4965 1
1631 5791 1
1631 5837 1
1632 114 1
1632 411 1
1632 882 1
1632 1572 1
1632 4366 1
1632 6166 1
1632 7806 1
1633 31 1
1633 213 1
1633 696 1
1633 1195 1
1633 1700 1
1633 1726 1
1633 2452 1
1633 3570 1
1633 5445 1
1633 6241 1
1633 6359 1
1633 7562 1
1633 9987 1
1634 13 1
1634 124 1
1634 918 1
1634 960 1
1634 1721 1
1634 2001 1
1634 2532 1
1634 2592 1
1634 2612 1
1634 2805 1
1634 2951 1
1634 3215 1
1634 5553 1
1634 5599 1
1634 5896 1
1634 6013 1
1634 6106 1
1634 6740 1
1634 7115 1
1634 7234 1
1634 7336 1
1634 7347 1
1634 7511 1
1634 7656 1
1634 8022 1
1634 8671 1
1634 8764 1
1634 8817 1
1634 9057 1
1634 9191 1
1634 9196 1
1635 155 1
1635 192 1
1635 561 1
1635 1100 1
1635 1677 1
1635 2331 1
1635 4474 1
1635 5047 1
1635 7936 1
1636 31 1
1636 197 1
1636 629 1
1636 1092 1
1636 1666 1
1636 1693 1
1636 2017 1
1636 2227 1
1636 2440 1
1636 3725 1
1636 7777 1
1637 57 1
1637 491 1
1637 531 1
1637 747 1
1637 2257 1
1637 2981 1
1637 9981 1
1638 65 1
1638 114 1
1638 577 1
1638 1030 1
1638 8741 1
1639 124 1
1639 125 1
1639 659 1
1639 1297 1
1639 2535 1
1639 3404 1
1639 4750 1
1639 9766 1
1640 55 1
1640 643 1
1640 709 1
1640 1510 1
1640 5408 1
1640 5412 1
1641 63 1
1641 1147 1
1641 1196 1
1641 1418 1
1641 1675 1
1641 2370 1
1641 2833 1
1641 3992 1
1642 156 1
1642 413 1
1642 663 1
1642 1624 1
1642 3921 1
1642 5003 1
1642 5159 1
1642 6704 1
1642 7264 1
1642 9463 1
1643 387 1
1643 910 1
1643 1298 1
1643 1412 1
1644 62 1
1644 210 1
1644 455 1
1644 559 1
1644 1780 1
1644 2234 1
1644 3059 1
1644 3895 1
1644 3925 1
1644 5286 1
1645 76 1
1645 204 1
1645 268 1
1645 272 1
1645 2381 1
1646 76 1
1646 264 1
1646 406 1
1646 663 1
1646 2750 1
1646 3258 1
1647 71 1
1647 84 1
1647 367 1
1647 389 1
1647 2300 1
1647 5701 1
1647 8725 1
1648 914 1
1648 1152 1
1648 1324 1
1648 1326 1
1648 2779 1
1648 3935 1
1648 4406 1
1648 9256 1
1648 9509 1
1649 263 1
1649 296 1
1649 829 1
1649 1068 1
1649 6731 1
1650 52 1
1650 247 1
1650 372 1
1650 484 1
1650 2380 1
1650 5974 1
1650 6547 1
1650 6947 1
1651 14 1
1651 74 1
1651 123 1
1651 192 1
1651 3114 1
1651 5749 1
1652 43 1
1652 463 1
1652 726 1
1652 1442 1
1652 1808 1
1652 2308 1
1652 4496 1
1652 5210 1
1652 6026 1
1652 8975 1
1652 9193 1
1653 8 1
1653 131 1
1653 188 1
1653 199 1
1653 3087 1
1653 5004 1
1653 5281 1
1653 5345 1
1653 7463 1
1653 9292 1
1654 6 1
1654 39 1
1654 707 1
1654 770 1
1654 5346 1
1655 9 1
1655 31 1
1655 117 1
1655 358 1
1656 67 1
1656 138 1
1656 171 1
1656 631 1
1656 9244 1
1657 13 1
1657 121 1
1657 1165 1
1657 1261 1
1657 3918 1
1657 7884 1
1657 9530 1
1658 7 1
1658 393 1
1658 599 1
1658 954 1
1658 1688 1
1658 2281 1
1658 4448 1
1658 6268 1
1658 8601 1
1658 9190 1
1659 151 1
1659 188 1
1659 959 1
1659 1042 1
1659 1674 1
1659 3075 1
1659 3109 1
1659 5321 1
1659 8614 1
1660 140 1
1660 210 1
1660 273 1
1660 649 1
1660 4360 1
1660 5665 1
1660 7353 1
1661 346 1
1661 767 1
1661 902 1
1661 991 1
1661 1781 1
1661 2305 1
1661 4094 1
1661 7333 1
1661 9501 1
1662 17 1
1662 461 1
1662 718 1
1662 1107 1
1662 1758 1
1662 2307 1
1662 4966 1
1662 5252 1
1662 5851 1
1662 6973 1
1662 7272 1
1662 7470 1
1663 41 1
1663 56 1
1663 73 1
1663 134 1
1663 1787 1
1663 2143 1
1663 2269 1
1663 2495 1
1663 8795 1
1664 195 1
1664 483 1
1664 1260 1
1664 1499 1
1664 1727 1
1664 1790 1
1664 1798 1
1664 2379 1
1664 4860 1
1664 5976 1
1664 6049 1
1664 6247 1
1664 7961 1
1665 9 1
1665 319 1
1665 701 1
1665 917 1
1665 3060 1
1665 3692 1
1665 5079 1
1665 5369 1
1665 6966 1
1666 334 1
1666 476 1
1666 1022 1
1666 1636 1
1666 2340 1
1666 2772 1
1666 2928 1
1666 4349 1
1666 5577 1
1666 7458 1
1666 8198 1
1666 9032 1
1666 9219 1
1666 9476 1
1667 266 1
1667 390 1
1667 440 1
1667 1509 1
1667 1691 1
1667 1718 1
1668 20 1
1668 584 1
1668 1248 1
1668 1628 1
1668 3510 1
1668 4948 1
1668 6519 1
1668 8108 1
1668 9057 1
1668 9115 1
1668 9333 1
1669 19 1
1669 344 1
1669 781 1
1669 845 1
1669 3015 1
1669 9191 1
1670 21 1
1670 66 1
1670 365 1
1670 440 1
1670 1708 1
1670 3286 1
1670 3797 1
1670 5925 1
1670 6563 1
1670 7592 1
1671 168 1
1671 505 1
1671 758 1
1671 766 1
1671 1738 1
1671 2450 1
1671 2741 1
1671 4115 1
1671 4919 1
1671 5590 1
1671 7422 1
1671 7651 1
1671 8639 1
1671 9060 1
1671 9838 1
1672 13 1
1672 581 1
1672 599 1
1672 726 1
1672 6701 1
1672 7672 1
1672 8615 1
1672 9358 1
1672 9417 1
1673 121 1
1673 983 1
1673 1300 1
1673 1574 1
1673 5711 1
1673 6179 1
1673 6904 1
1674 11 1
1674 20 1
1674 493 1
1674 1659 1
1674 3263 1
1674 3372 1
1674 4771 1
1674 4854 1
1674 6471 1
1674 6480 1
1674 6744 1
1674 7040 1
1674 8308 1
1675 107 1
1675 664 1
1675 839 1
1675 1641 1
1675 4143 1
1675 7460 1
1675 9828 1
1676 14 1
1676 233 1
1676 426 1
1676 812 1
1676 1809 1
1676 5179 1
1676 5331 1
1677 11 1
1677 20 1
1677 1427 1
1677 1635 1
1677 1848 1
1677 2856 1
1677 5052 1
1677 6073 1
1677 8278 1
1677 9909 1
1678 60 1
1678 401 1
1678 494 1
1678 953 1
1678 4696 1
1678 5201 1
1678 5930 1
1678 7746 1
1679 113 1
1679 207 1
1679 888 1
1679 932 1
1679 3766 1
1680 599 1
1680 822 1
1680 852 1
1680 1321 1
1680 4572 1
1681 97 1
1681 102 1
1681 316 1
1681 694 1
1681 2066 1
1681 3188 1
1681 3355 1
1681 3372 1
1681 3705 1
1681 3972 1
1681 4055 1
1681 4108 1
1681 4775 1
1681 5151 1
1681 5342 1
1681 7117 1
1681 7570 1
1681 7748 1
1681 7912 1
1681 9058 1
1681 9401 1
1682 39 1
1682 483 1
1682 862 1
1682 1036 1
1682 1927 1
1682 2441 1
1682 2508 1
1682 3237 1
1682 3305 1
1682 5024 1
1682 5656 1
1682 5766 1
1682 7283 1
1683 1 1
1683 188 1
1683 219 1
1683 718 1
1683 3293 1
1683 3926 1
1683 4356 1
1683 5644 1
1683 6468 1
1684 197 1
1684 313 1
1684 374 1
1684 451 1
1684 2374 1
1684 3219 1
1684 4160 1
1684 5978 1
1684 9152 1
1684 9260 1
1685 28 1
1685 81 1
1685 185 1
1685 575 1
1685 1923 1
1685 3368 1
1686 14 1
1686 274 1
1686 368 1
1686 378 1
1686 3536 1
1686 8992 1
1687 115 1
1687 178 1
1687 574 1
1687 1288 1
1687 2357 1
1687 7177 1
1688 810 1
1688 969 1
1688 994 1
1688 1658 1
1688 1806 1
1688 3353 1
1688 3503 1
1688 3625 1
1688 3881 1
1688 4396 1
1688 4982 1
1688 5625 1
1688 6408 1
1688 8575 1
1688 8875 1
1689 318 1
1689 519 1
1689 620 1
1689 1078 1
1689 2275 1
1689 2527 1
1689 3646 1
1689 3734 1
1689 3865 1
1689 4872 1
1689 6140 1
1689 6203 1
1689 6373 1
1689 7847 1
1689 9233 1
1690 22 1
1690 524 1
1690 599 1
1690 1024 1
1690 1783 1
1690 2683 1
1690 3194 1
1690 3348 1
1690 8364 1
1691 134 1
1691 865 1
1691 1547 1
1691 1667 1
1691 6080 1
1691 6886 1
1691 8182 1
1692 1 1
1692 39 1
1692 97 1
1692 1310 1
1692 1728 1
1692 2638 1
1692 5006 1
1692 5651 1
1692 6338 1
1693 2 1
1693 288 1
1693 527 1
1693 1636 1
1693 1722 1
1693 2107 1
1693 2508 1
1693 3069 1
1693 3229 1
1693 4129 1
1693 4310 1
1693 4579 1
1693 5386 1
1693 6486 1
1693 6500 1
1693 6643 1
1693 6667 1
1693 7085 1
1693 8284 1
1693 8309 1
1693 9144 1
1693 9657 1
1694 1 1
1694 114 1
1694 362 1
1694 1285 1
1694 1781 1
1694 4260 1
1694 6421 1
1694 8154 1
1694 9276 1
1695 135 1
1695 160 1
1695 775 1
1695 1002 1
1695 1986 1
1695 1996 1
1695 3162 1
1695 4417 1
1695 8156 1
1696 17 1
1696 479 1
1696 1361 1
1696 1573 1
1696 2671 1
1696 4401 1
1696 5893 1
1696 7096 1
1696 8127 1
1696 9463 1
1697 5 1
1697 48 1
1697 816 1
1697 1532 1
1697 1766 1
1697 2025 1
1697 3553 1
1697 4192 1
1697 4556 1
1697 8543 1
1698 549 1
1698 625 1
1698 1171 1
1698 1234 1
1699 41 1
1699 132 1
1699 265 1
1699 910 1
1699 2894 1
1699 3593 1
1699 3903 1
1699 4125 1
1699 4374 1
1699 4618 1
1699 5510 1
1699 6273 1
1699 6296 1
1699 6331 1
1699 6974 1
1699 8001 1
1699 8062 1
1699 8076 1
1699 9259 1
1699 9866 1
1700 22 1
1700 68 1
1700 691 1
1700 1633 1
1700 2724 1
1700 3080 1
1700 3798 1
1700 7846 1
1701 190 1
1701 308 1
1701 714 1
1701 969 1
1701 2455 1
1701 5605 1
1701 6515 1
1701 8143 1
1702 1 1
1702 142 1
1702 794 1
1702 1408 1
1702 2531 1
1702 3115 1
1702 4096 1
1702 4127 1
1702 5289 1
1702 5751 1
1702 6434 1
1702 7242 1
1703 6 1
1703 13 1
1703 28 1
1703 80 1
1703 2789 1
1703 5461 1
1703 5522 1
1703 7306 1
1703 8326 1
1704 15 1
1704 168 1
1704 505 1
1704 927 1
1704 2978 1
1704 8000 1
1705 201 1
1705 323 1
1705 1184 1
1705 1565 1
1705 3400 1
1705 5347 1
1705 6358 1
1705 7207 1
1705 8056 1
1706 12 1
1706 227 1
1706 744 1
1706 1297 1
1706 2831 1
1706 8441 1
1706 9849 1
1707 49 1
1707 432 1
1707 761 1
1707 1062 1
1707 1885 1
1707 2421 1
1707 3246 1
1707 3505 1
1707 4698 1
1707 5437 1
1707 7010 1
1707 7057 1
1707 9506 1
1708 120 1
1708 504 1
1708 690 1
1708 1670 1
1708 2184 1
1708 2879 1
1708 3659 1
1708 4458 1
1708 5578 1
1708 6741 1
1708 8222 1
1709 78 1
1709 314 1
1709 843 1
1709 1075 1
1709 2496 1
1709 2694 1
1709 3285 1
1710 11 1
1710 14 1
1710 15 1
1710 1426 1
1710 2105 1
1710 2501 1
1710 3397 1
1710 3645 1
1710 4030 1
1710 4088 1
1710 4228 1
1710 4420 1
1710 5137 1
1710 9701 1
1710 9997 1
1711 16 1
1711 34 1
1711 83 1
1711 1267 1
1711 4860 1
1711 7126 1
1711 8114 1
1712 94 1
1712 140 1
1712 243 1
1712 290 1
1712 4099 1
1712 6488 1
1712 6899 1
1713 20 1
1713 175 1
1713 339 1
1713 372 1
1713 2281 1
1713 7770 1
1714 57 1
1714 256 1
1714 340 1
1714 1263 1
1714 1780 1
1714 4832 1
1714 6936 1
1714 7522 1
1715 17 1
1715 325 1
1715 850 1
1715 1110 1
1715 3818 1
1715 5755 1
1715 5820 1
1715 8030 1
1715 8269 1
1715 8780 1
1715 9540 1
1715 9954 1
1716 308 1
1716 516 1
1716 1285 1
1716 1511 1
1716 2092 1
1716 3248 1
1716 3606 1
1716 7431 1
1716 7747 1
1716 8385 1
1716 9798 1
1717 10 1
1717 546 1
1717 635 1
1717 1286 1
1717 4045 1
1717 5008 1
1717 6635 1
1717 9233 1
1717 9548 1
1718 427 1
1718 492 1
1718 1602 1
1718 1667 1
1718 2307 1
1718 2354 1
1718 3375 1
1718 8338 1
1719 335 1
1719 618 1
1719 1108 1
1719 1548 1
1719 2858 1
1719 3283 1
1719 4468 1
1719 4564 1
1719 4873 1
1719 6021 1
1719 6433 1
1719 6925 1
1720 57 1
1720 503 1
1720 586 1
1720 738 1
1720 1889 1
1720 2238 1
1720 2926 1
1720 9424 1
1721 85 1
1721 616 1
1721 1370 1
1721 1634 1
1721 2043 1
1721 2254 1
1721 2884 1
1721 3152 1
1721 3278 1
1721 3320 1
1721 3652 1
1721 4354 1
1721 5524 1
1721 5934 1
1722 14 1
1722 1056 1
1722 1317 1
1722 1693 1
1722 2233 1
1722 6664 1
1722 7939 1
1723 12 1
1723 302 1
1723 487 1
1723 998 1
1723 3911 1
1723 5125 1
1723 6295 1
1723 7094 1
1723 7661 1
1723 9147 1
1723 9940 1
1724 14 1
1724 211 1
1724 383 1
1724 856 1
1724 1829 1
1724 2234 1
1724 2303 1
1724 3207 1
1724 3395 1
1724 3567 1
1724 3627 1
1724 3699 1
1724 3803 1
1724 4404 1
1724 4889 1
1724 4891 1
1724 5272 1
1724 6711 1
1724 7375 1
1724 7506 1
1724 7516 1
1724 7609 1
1724 7715 1
1724 7751 1
1724 8602 1
1724 9169 1
1724 9828 1
1725 200 1
1725 289 1
1725 358 1
1725 1211 1
1725 2147 1
1725 2289 1
1725 2658 1
1725 7255 1
1725 9192 1
1725 9918 1
1726 56 1
1726 201 1
1726 1409 1
1726 1633 1
1726 2916 1
1726 9130 1
1726 9999 1
1727 490 1
1727 632 1
1727 917 1
1727 1664 1
1727 2344 1
1727 4378 1
1727 4675 1
1727 5982 1
1727 7124 1
1727 8232 1
1728 407 1
1728 550 1
1728 1450 1
1728 1692 1
1728 2646 1
1728 3500 1
1728 5186 1
1728 6626 1
1729 117 1
1729 1047 1
1729 1185 1
1729 1339 1
1729 1812 1
1729 1999 1
1729 2003 1
1729 2837 1
1729 5076 1
1729 5434 1
1729 5808 1
1729 6572 1
1729 6965 1
1729 7640 1
1729 7890 1
1729 9098 1
1729 9154 1
1729 9345 1
1729 9949 1
1730 7 1
1730 594 1
1730 1167 1
1730 1574 1
1730 4397 1
1730 5116 1
1730 5261 1
1730 5415 1
1730 8040 1
1730 8214 1
1731 168 1
1731 598 1
1731 690 1
1731 1251 1
1731 2111 1
1732 19 1
1732 20 1
1732 96 1
1732 740 1
1732 2343 1
1732 3021 1
1732 8240 1
1733 2 1
1733 83 1
1733 1059 1
1733 1238 1
1733 5500 1
1733 6436 1
1734 48 1
1734 517 1
1734 1232 1
1734 1284 1
1734 1745 1
1734 3711 1
1734 7398 1
1735 157 1
1735 219 1
1735 1041 1
1735 1275 1
1735 3653 1
1735 8631 1
1736 203 1
1736 794 1
1736 1126 1
1736 1165 1
1737 6 1
1737 46 1
1737 174 1
1737 1046 1
1737 2407 1
1737 2571 1
1737 2808 1
1737 3285 1
1737 3730 1
1737 4161 1
1737 4270 1
1737 4402 1
1737 4535 1
1737 6592 1
1737 8452 1
1737 9120 1
1738 477 1
1738 1065 1
1738 1320 1
1738 1671 1
1738 1759 1
1738 2356 1
1738 2772 1
1738 3912 1
1738 5391 1
1738 5477 1
1738 6053 1
1738 6470 1
1738 7620 1
1739 11 1
1739 13 1
1739 255 1
1739 1198 1
1739 3435 1
1739 3875 1
1739 4023 1
1739 7647 1
1740 81 1
1740 271 1
1740 906 1
1740 1476 1
1740 1933 1
1740 2908 1
1740 3277 1
1740 4312 1
1740 5007 1
1740 8254 1
1740 9103 1
1741 135 1
1741 314 1
1741 465 1
1741 523 1
1741 3069 1
1741 4194 1
1741 4543 1
1741 5422 1
1741 5981 1
1741 6610 1
1741 9116 1
1742 352 1
1742 1103 1
1742 1145 1
1742 1199 1
1742 1901 1
1742 2915 1
1742 5029 1
1742 9808 1
1743 641 1
1743 758 1
1743 904 1
1743 1264 1
1743 2068 1
1743 2830 1
1743 3196 1
1743 3553 1
1743 3969 1
1743 4097 1
1743 7962 1
1743 9615 1
1744 132 1
1744 382 1
1744 714 1
1744 1131 1
1744 4196 1
1744 4205 1
1744 5162 1
1744 6737 1
1745 873 1
1745 1196 1
1745 1255 1
1745 1734 1
1745 1869 1
1745 5043 1
1745 5827 1
1745 7684 1
1745 8742 1
1745 8916 1
1746 83 1
1746 157 1
1746 914 1
1746 1261 1
1746 3331 1
1746 3595 1
1746 4171 1
1746 5705 1
1746 7543 1
1746 9442 1
1747 95 1
1747 342 1
1747 655 1
1747 842 1
1748 60 1
1748 272 1
1748 489 1
1748 970 1
1748 2494 1
1748 2985 1
1748 4098 1
1748 7399 1
1749 86 1
1749 527 1
1749 555 1
1749 656 1
1749 2264 1
1749 2743 1
1749 4575 1
1749 5734 1
1749 8504 1
1749 8682 1
1750 124 1
1750 237 1
1750 894 1
1750 1069 1
1750 2787 1
1750 3057 1
1750 3941 1
1750 5195 1
1750 6100 1
1750 7030 1
1750 7119 1
1750 8179 1
1750 8256 1
1751 482 1
1751 491 1
1751 690 1
1751 1060 1
1751 1927 1
1751 1936 1
1751 2220 1
1751 2929 1
1751 3044 1
1751 4616 1
1751 5422 1
1751 9837 1
1752 80 1
1752 93 1
1752 356 1
1752 937 1
1752 4347 1
1752 7676 1
1752 7824 1
1753 15 1
1753 285 1
1753 433 1
1753 936 1
1753 1817 1
1753 2648 1
1753 3307 1
1753 4065 1
1753 6102 1
1753 7135 1
1753 7243 1
1753 7427 1
1753 7579 1
1753 9804 1
1754 363 1
1754 398 1
1754 651 1
1754 1190 1
1754 2162 1
1754 2237 1
1754 2362 1
1754 3193 1
1754 3199 1
1754 3722 1
1754 5920 1
1755 31 1
1755 338 1
1755 715 1
1755 1527 1
1755 3440 1
1755 4069 1
1755 5547 1
1755 5718 1
1756 5 1
1756 13 1
1756 200 1
1756 1348 1
1756 2240 1
1756 3283 1
1756 3899 1
1756 4179 1
1756 4238 1
1756 6518 1
1756 8284 1
1756 9126 1
1757 10 1
1757 142 1
1757 159 1
1757 250 1
1757 1761 1
1757 1876 1
1757 2407 1
1757 2811 1
1757 3009 1
1757 3231 1
1757 3458 1
1757 3472 1
1757 4476 1
1757 4498 1
1757 4674 1
1757 5384 1
1757 5551 1
1757 5826 1
1757 6056 1
1757 6100 1
1757 6163 1
1757 7660 1
1757 7829 1
1757 8581 1
1757 8629 1
1757 8765 1
1757 8970 1
1757 9589 1
1758 66 1
1758 365 1
1758 998 1
1758 1662 1
1758 1850 1
1758 2096 1
1758 2586 1
1758 3221 1
1758 3609 1
1758 5351 1
1758 7890 1
1758 8437 1
1758 8677 1
1758 9000 1
1758 9747 1
1759 25 1
1759 286 1
1759 1342 1
1759 1738 1
1759 3632 1
1759 7044 1
1759 8807 1
1760 47 1
1760 401 1
1760 1459 1
1760 1515 1
1760 2087 1
1760 5711 1
1760 6773 1
1760 6861 1
1760 7535 1
1761 17 1
1761 81 1
1761 838 1
1761 1757 1
1761 1767 1
1761 1989 1
1761 2017 1
1761 2324 1
1761 3508 1
1761 3892 1
1761 4590 1
1761 9174 1
1762 49 1
1762 515 1
1762 945 1
1762 968 1
1762 4327 1
1762 4522 1
1762 6539 1
1762 7826 1
1762 8806 1
1763 6 1
1763 12 1
1763 153 1
1763 316 1
1763 2360 1
1763 2484 1
1763 2629 1
1763 2745 1
1763 4414 1
1763 5307 1
1763 5434 1
1763 5449 1
1763 6505 1
1763 6719 1
1763 6757 1
1763 6817 1
1763 7547 1
1763 8397 1
1763 9470 1
1764 320 1
1764 404 1
1764 594 1
1764 784 1
1764 3551 1
1764 5728 1
1764 7030 1
1764 8166 1
1765 421 1
1765 777 1
1765 896 1
1765 1531 1
1765 7683 1
1766 1082 1
1766 1134 1
1766 1471 1
1766 1697 1
1766 1810 1
1766 1895 1
1766 2450 1
1766 2642 1
1766 3268 1
1767 138 1
1767 176 1
1767 1210 1
1767 1761 1
1767 2202 1
1767 3858 1
1767 4531 1
1767 5143 1
1767 5202 1
1767 6034 1
1767 7285 1
1768 7 1
1768 881 1
1768 1348 1
1768 1520 1
1768 1845 1
1768 2424 1
1768 2976 1
1768 3464 1
1768 3955 1
1768 4009 1
1768 4641 1
1768 4731 1
1768 6663 1
1768 7833 1
1768 8002 1
1768 8737 1
1768 8773 1
1768 8813 1
1768 9553 1
1769 11 1
1769 380 1
1769 889 1
1769 1397 1
1769 4981 1
1769 9612 1
1770 66 1
1770 535 1
1770 642 1
1770 953 1
1770 2798 1
1770 3760 1
1770 4121 1
1770 4437 1
1770 4783 1
1770 7645 1
1771 7 1
1771 22 1
1771 1061 1
1771 1128 1
1771 4453 1
1771 4792 1
1771 7610 1
1772 2 1
1772 17 1
1772 84 1
1772 286 1
1772 1844 1
1772 3254 1
1772 3984 1
1772 4327 1
1772 5244 1
1772 8626 1
1772 9891 1
1773 49 1
1773 601 1
1773 838 1
1773 1383 1
1773 1987 1
1773 6832 1
1773 9911 1
1774 30 1
1774 530 1
1774 1028 1
1774 1413 1
1775 156 1
1775 264 1
1775 521 1
1775 1156 1
1775 2662 1
1775 2937 1
1775 3349 1
1775 3498 1
1775 5763 1
1775 7419 1
1775 9563 1
1776 751 1
1776 761 1
1776 1261 1
1776 1560 1
1776 2213 1
1776 6706 1
1776 7535 1
1776 7783 1
1776 9176 1
1777 12 1
1777 992 1
1777 1355 1
1777 1508 1
1777 1900 1
1777 3490 1
1777 4230 1
1777 4428 1
1777 5817 1
1777 6014 1
1777 6089 1
1777 7043 1
1777 7386 1
1777 8507 1
1777 8759 1
1777 9344 1
1778 22 1
1778 148 1
1778 426 1
1778 1618 1
1778 2314 1
1778 2764 1
1778 3527 1
1778 4021 1
1778 6597 1
1778 6636 1
1779 39 1
1779 280 1
1779 355 1
1779 1124 1
1779 2348 1
1779 2423 1
1779 3366 1
1779 3979 1
1779 5243 1
1779 8029 1
1779 9183 1
1779 9733 1
1780 1273 1
1780 1443 1
1780 1644 1
1780 1714 1
1780 1833 1
1780 2181 1
1780 2675 1
1780 2763 1
1780 2795 1
1780 2985 1
1780 3300 1
1780 3711 1
1780 5137 1
1780 5851 1
1780 7344 1
1780 8259 1
1781 599 1
1781 840 1
1781 1661 1
1781 1694 1
1781 4350 1
1781 5186 1
1781 8575 1
1782 1 1
1782 230 1
1782 375 1
1782 1358 1
1782 5995 1
1783 29 1
1783 133 1
1783 523 1
1783 1690 1
1783 1851 1
1783 2766 1
1783 9881 1
1784 267 1
1784 422 1
1784 477 1
1784 914 1
1784 1846 1
1784 1981 1
1784 2224 1
1784 4911 1
1784 5020 1
1784 5852 1
1784 6061 1
1784 8721 1
1785 404 1
1785 690 1
1785 876 1
1785 1162 1
1785 2057 1
1785 2058 1
1785 4089 1
1785 5623 1
1785 5663 1
1785 6676 1
1785 7296 1
1785 8359 1
1785 8761 1
1786 68 1
1786 95 1
1786 679 1
1786 1042 1
1786 1831 1
1786 3202 1
1786 3520 1
1786 4784 1
1786 5375 1
1786 8050 1
1787 113 1
1787 298 1
1787 615 1
1787 1663 1
1787 1882 1
1787 3044 1
1787 8920 1
1788 637 1
1788 1125 1
1788 1258 1
1788 1523 1
1788 1939 1
1788 2553 1
1788 2772 1
1788 2804 1
1788 4116 1
1788 4349 1
1788 7005 1
1789 166 1
1789 430 1
1789 693 1
1789 1598 1
1789 3052 1
1789 4273 1
1789 5185 1
1789 5383 1
1789 6460 1
1789 6987 1
1789 8642 1
1790 237 1
1790 329 1
1790 369 1
1790 1664 1
1790 3813 1
1790 3973 1
1790 6242 1
1791 20 1
1791 31 1
1791 84 1
1791 1293 1
1791 3817 1
1791 3878 1
1791 5823 1
1791 6052 1
1791 6515 1
1791 6793 1
1791 8327 1
1791 8720 1
1791 9388 1
1791 9873 1
1792 11 1
1792 513 1
1792 947 1
1792 1558 1
1792 2490 1
1792 3224 1
1792 3575 1
1792 3611 1
1792 4296 1
1792 4914 1
1792 6228 1
1792 6246 1
1792 6692 1
1792 8452 1
1792 8766 1
1792 9128 1
1792 9920 1
1792 9963 1
1793 14 1
1793 346 1
1793 695 1
1793 950 1
1793 4209 1
1794 81 1
1794 134 1
1794 238 1
1794 785 1
1794 4524 1
1794 9373 1
1795 13 1
1795 320 1
1795 790 1
1795 845 1
1795 2894 1
1795 3882 1
1795 6527 1
1796 3 1
1796 8 1
1796 290 1
1796 891 1
1796 2812 1
1796 5319 1
1796 6493 1
1796 6518 1
1796 6795 1
1796 7380 1
1796 7866 1
1797 32 1
1797 199 1
1797 238 1
1797 282 1
1797 2139 1
1797 2457 1
1797 2561 1
1797 3128 1
1797 4834 1
1797 5352 1
1797 5807 1
1797 6181 1
1797 6372 1
1797 8426 1
1797 8655 1
1797 9726 1
1797 9781 1
1798 8 1
1798 401 1
1798 739 1
1798 1664 1
1798 2216 1
1798 3031 1
1798 3618 1
1798 3872 1
1798 4061 1
1798 5981 1
1798 6553 1
1798 6840 1
1798 7632 1
1798 7764 1
1798 8278 1
1798 8633 1
1798 9871 1
1799 9 1
1799 142 1
1799 589 1
1799 1201 1
1799 2154 1
1799 7508 1
1799 8518 1
1799 9510 1
1800 281 1
1800 390 1
1800 920 1
1800 1039 1
1800 2095 1
1800 3380 1
1800 3614 1
1800 5630 1
1800 6985 1
1800 7576 1
1800 8971 1
1801 6 1
1801 82 1
1801 161 1
1801 375 1
1801 8360 1
1802 63 1
1802 389 1
1802 1416 1
1802 1563 1
1802 4368 1
1802 8520 1
1803 323 1
1803 518 1
1803 1184 1
1803 1521 1
1803 2333 1
1803 2351 1
1803 2606 1
1803 3406 1
1803 7355 1
1803 7641 1
1803 8197 1
1803 8228 1
1804 1 1
1804 12 1
1804 588 1
1804 1335 1
1804 3360 1
1804 3905 1
1805 10 1
1805 72 1
1805 516 1
1805 643 1
1805 2076 1
1805 2105 1
1805 2397 1
1805 5779 1
1805 5988 1
1805 6245 1
1805 7550 1
1805 8281 1
1806 229 1
1806 1076 1
1806 1291 1
1806 1688 1
1807 49 1
1807 277 1
1807 1208 1
1807 1597 1
1807 1958 1
1807 2725 1
1807 3390 1
1807 7244 1
1808 441 1
1808 823 1
1808 1493 1
1808 1652 1
1809 288 1
1809 487 1
1809 737 1
1809 1676 1
1809 7872 1
1810 9 1
1810 566 1
1810 1585 1
1810 1766 1
1810 1811 1
1810 3021 1
1810 4719 1
1811 5 1
1811 149 1
1811 813 1
1811 1810 1
1811 4769 1
1811 9814 1
1812 34 1
1812 400 1
1812 1397 1
1812 1729 1
1812 2377 1
1812 3802 1
1812 8505 1
1812 9741 1
1813 459 1
1813 805 1
1813 931 1
1813 1478 1
1813 2415 1
1813 3862 1
1813 3953 1
1813 4451 1
1813 7230 1
1813 7810 1
1813 7840 1
1813 8309 1
1814 272 1
1814 905 1
1814 1255 1
1814 1270 1
1814 2171 1
1814 4264 1
1814 4938 1
1814 6193 1
1814 7584 1
1814 7959 1
1815 35 1
1815 135 1
1815 932 1
1815 1193 1
1815 1826 1
1815 3469 1
1815 5097 1
1815 5793 1
1815 5975 1
1815 6724 1
1815 8184 1
1815 9053 1
1815 9973 1
1816 254 1
1816 671 1
1816 1286 1
1816 1342 1
1816 3386 1
1816 3775 1
1816 4085 1
1816 4911 1
1816 6111 1
1816 7394 1
1816 9557 1
1817 96 1
1817 294 1
1817 1457 1
1817 1753 1
1817 2892 1
1817 4070 1
1817 7173 1
1817 7616 1
1818 94 1
1818 342 1
1818 915 1
1818 1548 1
1818 2772 1
1818 5768 1
1818 6844 1
1818 7342 1
1818 8922 1
1819 55 1
1819 154 1
1819 177 1
1819 786 1
1819 2022 1
1819 4825 1
1820 6 1
1820 97 1
1820 285 1
1820 1403 1
1820 1823 1
1820 3420 1
1820 4786 1
1820 6239 1
1820 6875 1
1820 7138 1
1821 181 1
1821 251 1
1821 1041 1
1821 1515 1
1821 2192 1
1821 2364 1
1821 2688 1
1821 3185 1
1821 4477 1
1821 5148 1
1821 5158 1
1821 5170 1
1821 5324 1
1821 6443 1
1821 6615 1
1821 7879 1
1821 8565 1
1821 9380 1
1822 295 1
1822 419 1
1822 531 1
1822 891 1
1822 2249 1
1822 2610 1
1822 4561 1
1822 6404 1
1822 9274 1
1823 33 1
1823 441 1
1823 914 1
1823 1820 1
1823 2220 1
1823 2993 1
1824 180 1
1824 794 1
1824 946 1
1824 1621 1
1824 1935 1
1824 2006 1
1824 2698 1
1824 5432 1
1824 5525 1
1824 8742 1
1824 9737 1
1825 351 1
1825 822 1
1825 866 1
1825 939 1
1825 2104 1
1825 4725 1
1825 6063 1
1825 6590 1
1825 9770 1
1826 118 1
1826 341 1
1826 382 1
1826 1815 1
1826 3085 1
1826 5075 1
1826 6115 1
1826 7489 1
1826 8089 1
1826 9825 1
1827 147 1
1827 711 1
1827 758 1
1827 1104 1
1827 2245 1
1827 2947 1
1827 4315 1
1827 4865 1
1827 4998 1
1827 8189 1
1827 8739 1
1827 8814 1
1827 9469 1
1827 9732 1
1828 53 1
1828 60 1
1828 132 1
1828 708 1
1828 2548 1
1828 3687 1
1828 4356 1
1828 9299 1
1829 337 1
1829 374 1
1829 1154 1
1829 1724 1
1829 1928 1
1829 2024 1
1829 3676 1
1829 3955 1
1829 5370 1
1829 6425 1
1829 8180 1
1830 355 1
1830 486 1
1830 928 1
1830 983 1
1830 4675 1
1830 7910 1
1830 8509 1
1831 1 1
1831 3 1
1831 303 1
1831 1786 1
1831 6746 1
1831 7582 1
1831 8097 1
1832 11 1
1832 63 1
1832 1066 1
1832 1270 1
1832 2259 1
1832 5234 1
1832 8830 1
1833 43 1
1833 231 1
1833 1008 1
1833 1780 1
1833 2289 1
1833 2857 1
1833 3058 1
1833 4322 1
1833 4833 1
1833 4861 1
1833 6005 1
1833 6096 1
1833 8205 1
1833 9954 1
1834 44 1
1834 98 1
1834 226 1
1834 1226 1
1834 3902 1
1834 5416 1
1834 7534 1
1835 174 1
1835 563 1
1835 714 1
1835 980 1
1835 1998 1
1835 2458 1
1835 4149 1
1835 6428 1
1835 6436 1
1835 7250 1
1835 9304 1
1836 298 1
1836 329 1
1836 819 1
1836 975 1
1836 5200 1
1836 5908 1
1836 6604 1
1836 6617 1
1836 7806 1
1836 8168 1
1836 9090 1
1837 142 1
1837 521 1
1837 952 1
1837 1411 1
1837 1870 1
1837 4255 1
1837 6479 1
1837 8553 1
1837 8662 1
1838 365 1
1838 463 1
1838 833 1
1838 1278 1
1838 9171 1
1839 191 1
1839 270 1
1839 436 1
1839 519 1
1839 2649 1
1839 3199 1
1839 3319 1
1839 4009 1
1839 5021 1
1839 6509 1
1839 8768 1
1839 9706 1
1839 9741 1
1839 9877 1
1840 122 1
1840 274 1
1840 854 1
1840 1520 1
1840 3771 1
1841 55 1
1841 452 1
1841 484 1
1841 1410 1
1841 1859 1
1841 1878 1
1841 3891 1
1842 150 1
1842 597 1
1842 1040 1
1842 1126 1
1842 2323 1
1842 2392 1
1842 8636 1
1842 8851 1
1843 134 1
1843 551 1
1843 584 1
1843 648 1
1843 1929 1
1843 2694 1
1843 2868 1
1843 4072 1
1843 4274 1
1843 4684 1
1843 5799 1
1843 6913 1
1843 7116 1
1843 9238 1
1844 398 1
1844 1390 1
1844 1474 1
1844 1772 1
1844 3120 1
1844 3956 1
1844 3984 1
1844 7644 1
1844 9201 1
1845 1 1
1845 24 1
1845 1109 1
1845 1768 1
1845 3249 1
1845 6610 1
1845 6907 1
1846 30 1
1846 1389 1
1846 1465 1
1846 1784 1
1846 8587 1
1846 9738 1
1847 54 1
1847 98 1
1847 300 1
1847 1576 1
1847 1893 1
1847 4045 1
1847 9184 1
1847 9386 1
1847 9939 1
1848 1 1
1848 149 1
1848 1482 1
1848 1677 1
1848 2522 1
1848 2615 1
1848 4389 1
1848 4767 1
1848 5772 1
1849 1 1
1849 186 1
1849 326 1
1849 365 1
1849 2317 1
1849 3182 1
1849 3605 1
1849 5263 1
1849 5966 1
1849 9992 1
1850 27 1
1850 176 1
1850 281 1
1850 1758 1
1850 2474 1
1850 2649 1
1850 2684 1
1850 2977 1
1850 5652 1
1850 7159 1
1851 29 1
1851 107 1
1851 881 1
1851 1783 1
1851 3232 1
1851 5247 1
1851 6109 1
1851 7060 1
1851 7252 1
1851 8718 1
1852 148 1
1852 279 1
1852 642 1
1852 1022 1
1852 3700 1
1852 4053 1
1852 4335 1
1852 5709 1
1853 498 1
1853 1158 1
1853 1304 1
1853 1470 1
1853 9004 1
1854 13 1
1854 17 1
1854 31 1
1854 53 1
1854 2016 1
1854 2905 1
1855 386 1
1855 445 1
1855 482 1
1855 683 1
1855 7336 1
1855 7838 1
1856 13 1
1856 308 1
1856 829 1
1856 1502 1
1856 2033 1
1856 2344 1
1856 2975 1
1856 4039 1
1856 5180 1
1856 6766 1
1856 7268 1
1856 7495 1
1856 8795 1
1856 8907 1
1856 9119 1
1857 303 1
1857 599 1
1857 845 1
1857 1529 1
1857 2839 1
1857 2847 1
1857 9391 1
1858 31 1
1858 95 1
1858 491 1
1858 1193 1
1858 5798 1
1858 8106 1
1858 8686 1
1858 9920 1
1859 10 1
1859 19 1
1859 441 1
1859 1841 1
1859 8314 1
1860 173 1
1860 380 1
1860 850 1
1860 1293 1
1860 1996 1
1860 2469 1
1860 2867 1
1860 2948 1
1860 5863 1
1860 5925 1
1860 6678 1
1860 7810 1
1860 7958 1
1860 8783 1
1860 9912 1
1861 71 1
1861 194 1
1861 1177 1
1861 1360 1
1861 4320 1
1861 5593 1
1862 34 1
1862 168 1
1862 1195 1
1862 1590 1
1862 1870 1
1862 2002 1
1862 2318 1
1862 2776 1
1862 4347 1
1862 5185 1
1862 5702 1
1862 7122 1
1862 7856 1
1863 32 1
1863 74 1
1863 306 1
1863 768 1
1863 2194 1
1863 2284 1
1863 3789 1
1863 4774 1
1863 6256 1
1863 7397 1
1863 9472 1
1864 49 1
1864 108 1
1864 1313 1
1864 1609 1
1864 3050 1
1864 3485 1
1864 3783 1
1864 5350 1
1864 6228 1
1864 8533 1
1864 9224 1
1865 753 1
1865 970 1
1865 1200 1
1865 1369 1
1865 3035 1
1865 3375 1
1865 4229 1
1865 4577 1
1865 6849 1
1865 8214 1
1866 434 1
1866 562 1
1866 1065 1
1866 1125 1
1866 1947 1
1866 3443 1
1866 3876 1
1866 9713 1
1867 104 1
1867 123 1
1867 209 1
1867 372 1
1867 2527 1
1867 3825 1
1867 4041 1
1867 4299 1
1867 4862 1
1867 6587 1
1868 52 1
1868 246 1
1868 529 1
1868 1261 1
1868 1893 1
1868 2404 1
1868 2490 1
1868 2747 1
1868 3105 1
1868 3106 1
1868 3909 1
1868 5169 1
1868 5219 1
1868 7828 1
1869 4 1
1869 188 1
1869 487 1
1869 1745 1
1869 6405 1
1869 8444 1
1870 42 1
1870 691 1
1870 1837 1
1870 1862 1
1870 2071 1
1870 3631 1
1870 7256 1
1870 7385 1
1870 7424 1
1870 8165 1
1871 143 1
1871 628 1
1871 794 1
1871 1552 1
1871 5743 1
1871 6409 1
1871 6544 1
1872 2 1
1872 81 1
1872 88 1
1872 607 1
1872 3701 1
1872 5014 1
1872 6118 1
1872 6911 1
1872 7711 1
1872 8064 1
1872 9499 1
1872 9790 1
1873 628 1
1873 758 1
1873 1148 1
1873 1363 1
1873 2106 1
1873 2390 1
1873 4101 1
1873 4146 1
1873 4258 1
1873 8381 1
1873 9880 1
1874 8 1
1874 315 1
1874 691 1
1874 1409 1
1874 2523 1
1874 6056 1
1874 7693 1
1875 157 1
1875 446 1
1875 519 1
1875 1062 1
1875 2426 1
1875 5704 1
1875 6186 1
1875 6512 1
1876 204 1
1876 231 1
1876 1101 1
1876 1757 1
1876 3617 1
1876 9628 1
1877 281 1
1877 319 1
1877 346 1
1877 1209 1
1877 2007 1
1877 2324 1
1877 3480 1
1877 5957 1
1878 6 1
1878 45 1
1878 1367 1
1878 1841 1
1878 1911 1
1878 2294 1
1878 2699 1
1878 3513 1
1878 3726 1
1878 4749 1
1878 5253 1
1878 7263 1
1878 7621 1
1878 8419 1
1878 9009 1
1879 80 1
1879 579 1
1879 819 1
1879 1289 1
1879 7556 1
1879 7763 1
1880 46 1
1880 218 1
1880 570 1
1880 1581 1
1880 3310 1
1880 5280 1
1880 5476 1
1880 6334 1
1880 7047 1
1880 7875 1
1880 9199 1
1881 4 1
1881 15 1
1881 38 1
1881 203 1
1881 5147 1
1881 6725 1
1881 7361 1
1881 9339 1
1882 212 1
1882 688 1
1882 1204 1
1882 1787 1
1882 4368 1
1883 131 1
1883 339 1
1883 931 1
1883 1494 1
1883 2699 1
1883 2786 1
1883 4122 1
1883 7952 1
1883 9350 1
1884 23 1
1884 48 1
1884 72 1
1884 915 1
1884 5894 1
1884 6112 1
1884 6841 1
1884 7555 1
1884 8994 1
1885 459 1
1885 889 1
1885 1476 1
1885 1707 1
1885 2609 1
1885 8124 1
1885 8218 1
1886 523 1
1886 719 1
1886 874 1
1886 1579 1
1886 5643 1
1886 9128 1
1886 9485 1
1887 12 1
1887 235 1
1887 392 1
1887 643 1
1887 5405 1
1887 9571 1
1888 243 1
1888 327 1
1888 379 1
1888 540 1
1888 2601 1
1888 6172 1
1888 6656 1
1889 33 1
1889 256 1
1889 313 1
1889 1720 1
1889 3364 1
1889 4978 1
1889 7752 1
1889 8591 1
1890 6 1
1890 592 1
1890 1032 1
1890 1532 1
1890 2521 1
1890 3703 1
1890 4086 1
1890 4895 1
1890 5941 1
1890 7169 1
1891 380 1
1891 389 1
1891 791 1
1891 1308 1
1891 6287 1
1892 28 1
1892 309 1
1892 519 1
1892 836 1
1892 2250 1
1892 3484 1
1892 5316 1
1892 6171 1
1893 67 1
1893 1056 1
1893 1847 1
1893 1868 1
1893 2351 1
1893 2500 1
1893 2689 1
1893 2876 1
1893 3743 1
1893 4194 1
1893 5565 1
1893 5782 1
1893 5962 1
1893 6790 1
1893 8917 1
1894 1 1
1894 5 1
1894 229 1
1894 706 1
1894 2107 1
1894 3060 1
1894 4975 1
1894 6112 1
1894 8101 1
1894 8751 1
1895 184 1
1895 362 1
1895 877 1
1895 1766 1
1895 8746 1
1895 9368 1
1896 95 1
1896 1045 1
1896 1138 1
1896 1522 1
1896 1912 1
1896 1919 1
1896 3006 1
1896 3292 1
1896 4607 1
1896 4829 1
1896 5900 1
1896 6389 1
1896 7155 1
1896 7345 1
1896 7441 1
1896 8296 1
1896 9940 1
1897 1 1
1897 147 1
1897 377 1
1897 515 1
1897 2282 1
1897 3908 1
1897 4564 1
1897 4710 1
1897 5207 1
1897 6237 1
1897 6910 1
1897 6937 1
1897 7126 1
1897 7268 1
1898 178 1
1898 347 1
1898 662 1
1898 691 1
1898 2596 1
1898 4131 1
1898 4692 1
1898 7054 1
1898 7451 1
1898 8200 1
1899 6 1
1899 281 1
1899 924 1
1899 1056 1
1899 5082 1
1900 49 1
1900 725 1
1900 897 1
1900 1777 1
1900 2314 1
1900 4624 1
1900 5091 1
1901 289 1
1901 456 1
1901 1209 1
1901 1742 1
1901 2387 1
1901 3967 1
1901 5764 1
1901 5934 1
1901 6426 1
1901 6908 1
1901 7136 1
1901 8687 1
1902 21 1
1902 23 1
1902 1121 1
1902 1381 1
1902 2156 1
1902 2236 1
1902 6677 1
1902 7933 1
1903 58 1
1903 427 1
1903 441 1
1903 1003 1
1903 2803 1
1903 3687 1
1903 3821 1
1904 6 1
1904 68 1
1904 477 1
1904 962 1
1904 5221 1
1905 102 1
1905 383 1
1905 832 1
1905 1326 1
1905 4720 1
1905 5731 1
1905 6445 1
1905 7802 1
1905 8838 1
1905 8890 1
1905 9245 1
1905 9374 1
1905 9895 1
1906 168 1
1906 896 1
1906 1280 1
1906 1532 1
1907 391 1
1907 1369 1
1907 1476 1
1907 1552 1
1907 2211 1
1907 5050 1
1907 7707 1
1908 1 1
1908 406 1
1908 529 1
1908 682 1
1908 2338 1
1908 2903 1
1908 3110 1
1908 3518 1
1908 4014 1
1908 5153 1
1908 5407 1
1908 6011 1
1908 6060 1
1908 6680 1
1908 6691 1
1909 55 1
1909 325 1
1909 485 1
1909 620 1
1909 2969 1
1909 4300 1
1909 4912 1
1909 5788 1
1909 7367 1
1909 7501 1
1910 1 1
1910 57 1
1910 124 1
1910 147 1
1910 3233 1
1910 8460 1
1911 17 1
1911 27 1
1911 504 1
1911 1878 1
1911 2405 1
1911 2478 1
1911 3223 1
1911 3516 1
1911 3838 1
1911 4149 1
1911 4629 1
1911 6429 1
1911 7259 1
1911 8012 1
1911 9890 1
1912 72 1
1912 561 1
1912 580 1
1912 1896 1
1912 2313 1
1912 2432 1
1912 2788 1
1912 3737 1
1912 4213 1
1912 4231 1
1912 4801 1
1912 4887 1
1912 5012 1
1912 5563 1
1912 7086 1
1912 7322 1
1912 7665 1
1912 7686 1
1912 9783 1
1913 429 1
1913 436 1
1913 463 1
1913 1039 1
1913 4333 1
1913 7190 1
1914 7 1
1914 14 1
1914 370 1
1914 958 1
1914 2664 1
1914 4329 1
1915 1 1
1915 28 1
1915 1277 1
1915 1344 1
1915 5772 1
1915 7556 1
1915 8732 1
1915 9747 1
1916 11 1
1916 81 1
1916 241 1
1916 426 1
1916 2912 1
1916 4929 1
1916 5331 1
1916 5942 1
1916 8191 1
1917 55 1
1917 243 1
1917 663 1
1917 690 1
1917 9622 1
1918 26 1
1918 72 1
1918 504 1
1918 1604 1
1918 2533 1
1918 5494 1
1918 5771 1
1918 8354 1
1919 6 1
1919 305 1
1919 605 1
1919 1896 1
1919 2869 1
1919 3149 1
1919 5164 1
1919 6138 1
1920 120 1
1920 615 1
1920 945 1
1920 1341 1
1920 5108 1
1920 5255 1
1921 109 1
1921 119 1
1921 153 1
1921 808 1
1921 2021 1
1921 2100 1
1921 2961 1
1921 3140 1
1921 3755 1
1921 4085 1
1921 4818 1
1921 8113 1
1921 8815 1
1921 8825 1
1922 63 1
1922 80 1
1922 120 1
1922 1420 1
1922 2736 1
1922 2834 1
1922 3594 1
1922 3871 1
1922 4293 1
1922 4484 1
1922 4594 1
1922 4673 1
1922 4922 1
1922 4958 1
1922 5308 1
1922 5310 1
1922 6098 1
1923 54 1
1923 477 1
1923 1019 1
1923 1685 1
1923 2540 1
1923 2599 1
1923 3168 1
1923 3185 1
1923 7365 1
1923 8924 1
1924 11 1
1924 12 1
1924 591 1
1924 1522 1
1924 2337 1
1924 2472 1
1924 2667 1
1924 3720 1
1924 3896 1
1924 4674 1
1924 5496 1
1925 301 1
1925 557 1
1925 1048 1
1925 1056 1
1925 3302 1
1925 4463 1
1925 9079 1
1926 11 1
1926 273 1
1926 422 1
1926 1575 1
1926 2692 1
1926 3116 1
1926 3193 1
1926 3291 1
1926 3710 1
1926 4529 1
1926 4961 1
1926 9069 1
1926 9413 1
1927 335 1
1927 990 1
1927 1682 1
1927 1751 1
1927 2232 1
1927 2642 1
1927 5232 1
1927 7047 1
1927 7734 1
1928 84 1
1928 180 1
1928 1246 1
1928 1829 1
1928 1963 1
1928 2132 1
1928 5070 1
1928 5336 1
1928 5390 1
1928 5761 1
1928 5904 1
1928 6098 1
1928 6779 1
1928 9284 1
1929 63 1
1929 599 1
1929 1089 1
1929 1843 1
1929 1941 1
1929 2367 1
1929 2509 1
1929 2566 1
1929 4259 1
1929 4946 1
1929 6879 1
1929 8991 1
1930 33 1
1930 782 1
1930 850 1
1930 1572 1
1930 8017 1
1931 6 1
1931 393 1
1931 583 1
1931 1073 1
1931 2755 1
1931 2898 1
1931 4665 1
1931 5023 1
1931 7528 1
1931 7624 1
1932 9 1
1932 22 1
1932 287 1
1932 1556 1
1932 3677 1
1932 4073 1
1932 4249 1
1932 4463 1
1933 198 1
1933 330 1
1933 1376 1
1933 1740 1
1933 2231 1
1933 3670 1
1933 5191 1
1933 5468 1
1933 7525 1
1933 8846 1
1933 9379 1
1934 91 1
1934 489 1
1934 992 1
1934 994 1
1934 8055 1
1935 734 1
1935 796 1
1935 1558 1
1935 1824 1
1935 2170 1
1935 7482 1
1936 20 1
1936 253 1
1936 599 1
1936 1751 1
1936 2685 1
1936 3560 1
1937 143 1
1937 210 1
1937 669 1
1937 1346 1
1937 6338 1
1937 6745 1
1938 104 1
1938 113 1
1938 543 1
1938 998 1
1938 2682 1
1939 414 1
1939 477 1
1939 1164 1
1939 1788 1
1939 4197 1
1939 5984 1
1939 6065 1
1940 162 1
1940 852 1
1940 855 1
1940 899 1
1940 2415 1
1940 3839 1
1940 3922 1
1940 4198 1
1940 5332 1
1940 6329 1
1940 8921 1
1941 6 1
1941 107 1
1941 159 1
1941 1929 1
1941 2365 1
1941 2604 1
1941 2911 1
1941 3164 1
1941 3679 1
1941 3924 1
1941 4373 1
1941 4817 1
1941 5716 1
1941 6579 1
1941 7581 1
1941 7746 1
1941 8324 1
1941 9680 1
1941 9772 1
1942 1 1
1942 16 1
1942 256 1
1942 578 1
1942 2378 1
1942 8200 1
1943 87 1
1943 123 1
1943 159 1
1943 935 1
1943 1950 1
1943 3301 1
1943 3582 1
1943 4903 1
1943 5264 1
1943 6642 1
1943 8856 1
1944 3 1
1944 56 1
1944 271 1
1944 1526 1
1944 4680 1
1944 4830 1
1944 6084 1
1945 862 1
1945 943 1
1945 1145 1
1945 1286 1
1945 2530 1
1945 4610 1
1945 5849 1
1945 6472 1
1945 8267 1
1945 8927 1
1946 62 1
1946 338 1
1946 412 1
1946 1127 1
1946 4026 1
1946 7507 1
1946 9621 1
1947 345 1
1947 927 1
1947 1593 1
1947 1866 1
1947 2013 1
1947 3881 1
1947 7182 1
1947 7826 1
1948 45 1
1948 998 1
1948 1339 1
1948 1591 1
1948 4886 1
1948 5360 1
1948 6610 1
1948 9697 1
1949 31 1
1949 690 1
1949 879 1
1949 1606 1
1949 3823 1
1949 7912 1
1950 220 1
1950 994 1
1950 1103 1
1950 1943 1
1950 2436 1
1950 6217 1
1950 6497 1
1950 7750 1
1951 383 1
1951 651 1
1951 1047 1
1951 1279 1
1951 2857 1
1951 3575 1
1951 4121 1
1951 4679 1
1951 6984 1
1951 7964 1
1952 28 1
1952 70 1
1952 77 1
1952 937 1
1952 2269 1
1952 2532 1
1952 4226 1
1952 4481 1
1952 4675 1
1952 8892 1
1953 397 1
1953 574 1
1953 884 1
1953 1599 1
1953 2607 1
1953 4236 1
1953 4523 1
1953 5189 1
1954 36 1
1954 400 1
1954 485 1
1954 1495 1
1954 2164 1
1954 2425 1
1954 5679 1
1955 34 1
1955 117 1
1955 206 1
1955 537 1
1955 3853 1
1955 9305 1
1956 1 1
1956 12 1
1956 48 1
1956 381 1
1956 5145 1
1957 8 1
1957 69 1
1957 348 1
1957 1099 1
1957 2378 1
1957 2623 1
1957 5004 1
1957 5687 1
1957 5854 1
1957 6143 1
1957 6195 1
1957 7261 1
1957 7423 1
1957 9332 1
1958 1307 1
1958 1523 1
1958 1588 1
1958 1807 1
1958 4395 1
1958 9025 1
1958 9457 1
1958 9812 1
1959 3 1
1959 267 1
1959 332 1
1959 828 1
1959 2680 1
1959 3308 1
1959 3442 1
1959 3599 1
1959 4761 1
1959 7316 1
1959 8748 1
1960 10 1
1960 15 1
1960 521 1
1960 1626 1
1960 5333 1
1960 7024 1
1961 6 1
1961 113 1
1961 131 1
1961 309 1
1961 2237 1
1961 4317 1
1962 81 1
1962 133 1
1962 193 1
1962 251 1
1962 3994 1
1962 5482 1
1962 6857 1
1962 7825 1
1963 7 1
1963 160 1
1963 904 1
1963 1928 1
1963 1987 1
1963 2147 1
1963 7359 1
1963 8654 1
1964 54 1
1964 160 1
1964 433 1
1964 599 1
1964 3613 1
1964 4222 1
1964 6347 1
1964 8999 1
1965 45 1
1965 500 1
1965 909 1
1965 994 1
1965 3321 1
1965 4680 1
1965 8335 1
1965 8932 1
1966 758 1
1966 958 1
1966 1558 1
1966 1571 1
1967 71 1
1967 86 1
1967 124 1
1967 1532 1
1967 2848 1
1967 3358 1
1967 7180 1
1967 9713 1
1968 15 1
1968 134 1
1968 786 1
1968 824 1
1968 2169 1
1968 2308 1
1968 3050 1
1968 4013 1
1968 4719 1
1968 6526 1
1968 6599 1
1968 6698 1
1968 9675 1
1969 40 1
1969 338 1
1969 1192 1
1969 1597 1
1969 2028 1
1969 2753 1
1969 2856 1
1969 3016 1
1969 3510 1
1969 4123 1
1969 4185 1
1969 4424 1
1969 4813 1
1969 5619 1
1969 6293 1
1969 8038 1
1969 8787 1
1970 6 1
1970 259 1
1970 753 1
1970 1082 1
1970 2022 1
1970 2154 1
1970 3359 1
1970 5434 1
1970 5515 1
1970 7266 1
1970 7710 1
1970 7918 1
1970 8027 1
1970 8394 1
1970 8633 1
1970 8732 1
1970 8933 1
1970 9012 1
1970 9820 1
1970 9826 1
1971 221 1
1971 342 1
1971 845 1
1971 1458 1
1971 2442 1
1971 2966 1
1971 3808 1
1972 11 1
1972 966 1
1972 1026 1
1972 1371 1
1972 2020 1
1972 2292 1
1972 2474 1
1972 3467 1
1972 3749 1
1972 3877 1
1972 5787 1
1972 7316 1
1973 56 1
1973 337 1
1973 414 1
1973 1117 1
1973 9286 1
1974 45 1
1974 411 1
1974 456 1
1974 1567 1
1974 2970 1
1974 3180 1
1974 3587 1
1974 4421 1
1974 5983 1
1974 8713 1
1975 14 1
1975 443 1
1975 1487 1
1975 1520 1
1975 6022 1
1975 6307 1
1975 6908 1
1975 7016 1
1975 7897 1
1975 8719 1
1975 8821 1
1975 9658 1
1976 20 1
1976 100 1
1976 445 1
1976 1604 1
1976 2205 1
1976 3396 1
1976 3589 1
1976 4704 1
1976 5284 1
1976 5380 1
1976 6832 1
1976 7418 1
1976 9663 1
1977 5 1
1977 351 1
1977 362 1
1977 807 1
1977 2099 1
1977 2599 1
1977 3266 1
1977 4824 1
1977 4847 1
1977 6107 1
1977 6467 1
1977 6680 1
1977 7987 1
1977 8889 1
1978 120 1
1978 166 1
1978 322 1
1978 610 1
1978 2194 1
1978 2222 1
1978 3190 1
1978 5965 1
1978 9375 1
1979 71 1
1979 90 1
1979 104 1
1979 607 1
1979 3732 1
1979 6129 1
1980 6 1
1980 115 1
1980 333 1
1980 1240 1
1980 2042 1
1980 3708 1
1980 5608 1
1980 6411 1
1980 8466 1
1981 75 1
1981 460 1
1981 1215 1
1981 1784 1
1981 2334 1
1981 3765 1
1981 5395 1
1981 5816 1
1981 9486 1
1982 211 1
1982 1029 1
1982 1270 1
1982 1558 1
1982 3174 1
1982 4232 1
1982 4408 1
1983 13 1
1983 285 1
1983 294 1
1983 323 1
1983 2821 1
1983 3227 1
1983 3897 1
1983 4149 1
1984 27 1
1984 537 1
1984 749 1
1984 1120 1
1984 2445 1
1984 5704 1
1984 6745 1
1984 6935 1
1984 7479 1
1984 8404 1
1985 23 1
1985 84 1
1985 294 1
1985 1510 1
1985 3201 1
1985 3356 1
1985 3450 1
1985 3524 1
1986 26 1
1986 104 1
1986 750 1
1986 1695 1
1986 2129 1
1986 3192 1
1986 6241 1
1987 610 1
1987 1221 1
1987 1773 1
1987 1963 1
1987 2195 1
1987 2472 1
1987 2637 1
1987 3829 1
1987 4110 1
1987 6311 1
1987 7113 1
1987 8948 1
1988 31 1
1988 550 1
1988 735 1
1988 1532 1
1988 2922 1
1988 2924 1
1988 8680 1
1988 8740 1
1988 8828 1
1989 295 1
1989 415 1
1989 730 1
1989 1761 1
1989 4516 1
1990 182 1
1990 535 1
1990 1444 1
1990 1475 1
1990 2845 1
1990 3088 1
1990 3884 1
1990 4293 1
1990 5655 1
1990 5815 1
1990 9856 1
1991 99 1
1991 197 1
1991 533 1
1991 851 1
1991 5346 1
1991 7038 1
1991 7789 1
1991 8123 1
1991 8339 1
1991 9378 1
1992 33 1
1992 135 1
1992 1253 1
1992 1515 1
1992 6964 1
1993 3 1
1993 56 1
1993 80 1
1993 243 1
1993 5407 1
1994 81 1
1994 294 1
1994 487 1
1994 1307 1
1994 5225 1
1994 5314 1
1994 9191 1
1995 26 1
1995 336 1
1995 599 1
1995 1188 1
1995 2575 1
1995 4904 1
1995 9238 1
1996 1286 1
1996 1315 1
1996 1695 1
1996 1860 1
1996 4127 1
1996 6868 1
1997 24 1
1997 169 1
1997 181 1
1997 632 1
1997 2097 1
1997 2186 1
1997 4054 1
1997 5383 1
1997 6170 1
1997 7020 1
1997 7881 1
1997 8043 1
1997 9340 1
1997 9667 1
1998 181 1
1998 502 1
1998 1307 1
1998 1835 1
1998 3515 1
1998 7579 1
1999 43 1
1999 435 1
1999 568 1
1999 1729 1
1999 2018 1
1999 2111 1
1999 3289 1
1999 4361 1
1999 8322 1
1999 9095 1
2000 1 1
2000 46 1
2000 72 1
2000 923 1
2000 2417 1
2000 3249 1
2000 3605 1
2000 4224 1
2000 5484 1
2000 5996 1
2000 6497 1
2000 8456 1
2000 8479 1
2001 383 1
2001 397 1
2001 724 1
2001 1634 1
2001 7938 1
2001 8154 1
2002 258 1
2002 415 1
2002 688 1
2002 1862 1
2002 2361 1
2002 3221 1
2002 4355 1
2002 6590 1
2002 6831 1
2002 7011 1
2003 2 1
2003 1203 1
2003 1427 1
2003 1729 1
2003 4712 1
2003 4799 1
2003 5363 1
2003 7900 1
2004 6 1
2004 212 1
2004 560 1
2004 1226 1
2004 2276 1
2004 2668 1
2004 3337 1
2004 6281 1
2004 6999 1
2004 7233 1
2005 95 1
2005 1011 1
2005 1160 1
2005 1221 1
2005 2426 1
2005 3016 1
2005 3186 1
2005 5291 1
2005 5959 1
2005 6823 1
2005 7497 1
2005 9192 1
2005 9996 1
2006 49 1
2006 254 1
2006 469 1
2006 1824 1
2006 2627 1
2006 3657 1
2006 3780 1
2006 4075 1
2006 4869 1
2006 6253 1
2007 7 1
2007 48 1
2007 234 1
2007 1877 1
2007 2121 1
2007 2211 1
2007 2471 1
2007 2581 1
2007 2860 1
2007 2883 1
2007 4802 1
2007 5479 1
2007 5595 1
2007 5937 1
2007 6865 1
2007 8314 1
2007 8594 1
2007 9117 1
2007 9492 1
2008 29 1
2008 958 1
2008 1230 1
2008 1334 1
2008 2086 1
2008 2098 1
2008 2902 1
2008 4133 1
2008 5543 1
2008 5559 1
2008 6880 1
2008 7468 1
2009 264 1
2009 281 1
2009 1138 1
2009 1178 1
2009 2054 1
2009 2055 1
2009 2521 1
2009 3153 1
2009 3626 1
2009 4000 1
2009 4046 1
2009 5101 1
2009 5724 1
2009 6882 1
2009 8219 1
2009 9757 1
2010 49 1
2010 466 1
2010 490 1
2010 680 1
2010 2408 1
2010 3112 1
2010 3397 1
2010 3924 1
2010 4002 1
2010 6801 1
2010 7080 1
2010 8208 1
2010 8291 1
2010 9235 1
2011 56 1
2011 755 1
2011 945 1
2011 1070 1
2011 2258 1
2011 4314 1
2011 5073 1
2012 277 1
2012 577 1
2012 714 1
2012 1541 1
2012 2276 1
2012 2974 1
2012 4079 1
2012 4179 1
2012 6121 1
2013 194 1
2013 1027 1
2013 1450 1
2013 1947 1
2013 2126 1
2013 2315 1
2013 2588 1
2013 3067 1
2013 6084 1
2013 6765 1
2013 7723 1
2013 8962 1
2014 1 1
2014 272 1
2014 276 1
2014 398 1
2014 2797 1
2014 6451 1
2014 9438 1
2015 72 1
2015 531 1
2015 599 1
2015 1253 1
2015 6435 1
2015 7584 1
2015 9892 1
2016 67 1
2016 244 1
2016 848 1
2016 1854 1
2016 2168 1
2016 2439 1
2016 3611 1
2016 5472 1
2016 5692 1
2016 6029 1
2016 6640 1
2016 6909 1
2016 8608 1
2016 8612 1
2016 9163 1
2017 225 1
2017 844 1
2017 1636 1
2017 1761 1
2017 4464 1
2017 5939 1
2018 19 1
2018 275 1
2018 325 1
2018 1999 1
2018 4445 1
2018 5911 1
2018 6244 1
2018 7161 1
2018 7244 1
2018 7607 1
2019 65 1
2019 80 1
2019 115 1
2019 535 1
2019 2633 1
2019 4265 1
2019 4846 1
2020 21 1
2020 77 1
2020 717 1
2020 1972 1
2020 2964 1
2020 5096 1
2020 6089 1
2020 6230 1
2020 6868 1
2020 8224 1
2021 324 1
2021 651 1
2021 1108 1
2021 1921 1
2021 4934 1
2021 6461 1
2021 7560 1
2022 57 1
2022 319 1
2022 1819 1
2022 1970 1
2022 5602 1
2022 5959 1
2022 8218 1
2022 8760 1
2023 515 1
2023 782 1
2023 980 1
2023 1098 1
2023 2034 1
2023 3312 1
2023 4406 1
2023 5924 1
2024 100 1
2024 213 1
2024 774 1
2024 1829 1
2024 2032 1
2024 4585 1
2024 8938 1
2025 42 1
2025 345 1
2025 420 1
2025 1697 1
2025 2860 1
2025 4615 1
2025 4644 1
2025 8018 1
2026 259 1
2026 423 1
2026 749 1
2026 878 1
2026 5254 1
2026 7239 1
2026 8971 1
2027 58 1
2027 233 1
2027 271 1
2027 1229 1
2027 2072 1
2027 2109 1
2027 3462 1
2028 34 1
2028 880 1
2028 1290 1
2028 1969 1
2028 3233 1
2028 3877 1
2029 14 1
2029 971 1
2029 983 1
2029 1592 1
2029 2279 1
2029 2799 1
2029 2942 1
2029 3978 1
2029 4218 1
2029 4333 1
2029 4546 1
2029 4659 1
2029 4721 1
2029 5184 1
2029 5674 1
2029 8717 1
2029 9004 1
2029 9873 1
2030 13 1
2030 542 1
2030 732 1
2030 1570 1
2030 2376 1
2030 6227 1
2030 8873 1
2030 9243 1
2031 154 1
2031 398 1
2031 507 1
2031 1266 1
2031 3334 1
2031 5413 1
2031 5748 1
2031 8150 1
2031 8854 1
2031 9198 1
2031 9516 1
2032 20 1
2032 831 1
2032 1302 1
2032 2024 1
2032 2425 1
2032 5404 1
2032 7364 1
2032 8772 1
2032 9735 1
2033 80 1
2033 1454 1
2033 1466 1
2033 1856 1
2033 3599 1
2033 4683 1
2034 43 1
2034 70 1
2034 863 1
2034 2023 1
2034 2225 1
2034 2293 1
2034 2395 1
2034 3518 1
2034 4213 1
2034 6178 1
2034 6828 1
2034 8233 1
2034 8533 1
2034 9638 1
2035 1 1
2035 180 1
2035 531 1
2035 926 1
2035 9196 1
2036 13 1
2036 298 1
2036 609 1
2036 1435 1
2036 7614 1
2036 7971 1
2037 12 1
2037 52 1
2037 124 1
2037 1044 1
2037 2660 1
2037 3220 1
2037 4142 1
2037 4724 1
2037 8441 1
2037 8467 1
2038 228 1
2038 322 1
2038 539 1
2038 1005 1
2038 2286 1
2038 2993 1
2039 14 1
2039 285 1
2039 411 1
2039 1293 1
2039 2728 1
2039 5502 1
2040 3 1
2040 6 1
2040 303 1
2040 498 1
2040 2173 1
2040 3910 1
2040 5493 1
2040 6768 1
2041 478 1
2041 489 1
2041 599 1
2041 1273 1
2041 2176 1
2041 5982 1
2041 6108 1
2041 7734 1
2041 8724 1
2042 25 1
2042 188 1
2042 611 1
2042 1980 1
2042 2172 1
2042 2190 1
2042 2193 1
2042 7241 1
2042 7953 1
2043 152 1
2043 166 1
2043 739 1
2043 1721 1
2043 2087 1
2043 2516 1
2043 3421 1
2043 3901 1
2043 6522 1
2043 7098 1
2043 8169 1
2043 9217 1
2043 9467 1
2044 13 1
2044 148 1
2044 1246 1
2044 1360 1
2044 2152 1
2044 2672 1
2044 3717 1
2044 4892 1
2044 5290 1
2044 5689 1
2044 6878 1
2044 6976 1
2044 9213 1
2045 76 1
2045 188 1
2045 256 1
2045 487 1
2045 3966 1
2045 6898 1
2045 9833 1
2046 1 1
2046 95 1
2046 138 1
2046 1332 1
2046 3058 1
2046 5328 1
2046 6233 1
2046 9668 1
2046 9816 1
2047 6 1
2047 203 1
2047 368 1
2047 794 1
2047 2101 1
2047 6507 1
2047 7548 1
2048 394 1
2048 567 1
2048 1044 1
2048 1302 1
2048 2754 1
2048 4236 1
2048 4593 1
2048 4889 1
2048 5086 1
2049 202 1
2049 267 1
2049 1325 1
2049 1469 1
2049 2254 1
2049 3120 1
2050 21 1
2050 65 1
2050 372 1
2050 1106 1
2050 4898 1
2051 1 1
2051 8 1
2051 9 1
2051 281 1
2051 2181 1
2051 2941 1
2051 6395 1
2051 7732 1
2052 13 1
2052 424 1
2052 436 1
2052 995 1
2052 2689 1
2052 2967 1
2052 3247 1
2052 4362 1
2052 5544 1
2052 7831 1
2052 7839 1
2052 9015 1
2053 502 1
2053 691 1
2053 993 1
2053 1458 1
2053 3451 1
2053 4014 1
2053 5804 1
2053 7830 1
2053 9715 1
2054 10 1
2054 165 1
2054 594 1
2054 2009 1
2054 3138 1
2054 6369 1
2055 17 1
2055 307 1
2055 607 1
2055 2009 1
2055 3410 1
2055 3657 1
2055 3797 1
2055 6180 1
2055 8939 1
2056 76 1
2056 250 1
2056 1021 1
2056 1325 1
2056 7525 1
2056 8839 1
2057 145 1
2057 1165 1
2057 1274 1
2057 1785 1
2057 2410 1
2057 2719 1
2057 4169 1
2057 4545 1
2057 4671 1
2057 5437 1
2057 6983 1
2058 1 1
2058 19 1
2058 1470 1
2058 1785 1
2058 2135 1
2058 3059 1
2058 4031 1
2058 5794 1
2058 7364 1
2058 9011 1
2059 45 1
2059 341 1
2059 415 1
2059 622 1
2059 3288 1
2059 3903 1
2059 8156 1
2060 3 1
2060 41 1
2060 483 1
2060 1005 1
2060 2806 1
2060 3248 1
2060 3335 1
2060 5425 1
2060 8451 1
2060 9656 1
2061 3 1
2061 13 1
2061 323 1
2061 607 1
2061 2629 1
2061 3291 1
2061 3844 1
2061 4897 1
2061 5373 1
2061 5382 1
2061 5490 1
2061 7082 1
2061 7372 1
2061 8006 1
2061 8333 1
2061 9565 1
2062 489 1
2062 989 1
2062 1038 1
2062 1420 1
2062 2784 1
2062 3111 1
2062 4239 1
2062 4334 1
2062 4836 1
2062 5977 1
2063 134 1
2063 388 1
2063 647 1
2063 1621 1
2063 2586 1
2063 2705 1
2063 4828 1
2063 5955 1
2063 8030 1
2064 7 1
2064 432 1
2064 1048 1
2064 1461 1
2064 4218 1
2064 4882 1
2064 9848 1
2065 21 1
2065 331 1
2065 601 1
2065 1616 1
2065 2170 1
2065 2364 1
2065 2429 1
2065 2805 1
2065 3861 1
2065 4796 1
2065 4900 1
2065 5009 1
2065 5403 1
2065 5441 1
2065 5965 1
2065 7504 1
2065 8277 1
2065 8328 1
2065 9312 1
2065 9719 1
2066 1 1
2066 141 1
2066 256 1
2066 1681 1
2066 3222 1
2066 4654 1
2066 5602 1
2066 7679 1
2066 7758 1
2067 32 1
2067 240 1
2067 664 1
2067 1381 1
2067 4184 1
2067 9676 1
2068 6 1
2068 943 1
2068 1297 1
2068 1743 1
2068 2998 1
2068 3160 1
2068 4780 1
2068 5140 1
2068 8580 1
2069 3 1
2069 562 1
2069 960 1
2069 1440 1
2069 4079 1
2069 5717 1
2069 6386 1
2069 6483 1
2069 6807 1
2069 8885 1
2069 8905 1
2069 9844 1
2069 9877 1
2070 16 1
2070 48 1
2070 660 1
2070 735 1
2070 2369 1
2070 2529 1
2070 6117 1
2070 6175 1
2070 6647 1
2070 6748 1
2071 664 1
2071 1213 1
2071 1556 1
2071 1870 1
2071 3003 1
2071 3174 1
2071 3248 1
2071 4057 1
2071 4407 1
2071 5894 1
2071 7097 1
2072 19 1
2072 295 1
2072 549 1
2072 2027 1
2072 7236 1
2072 8362 1
2073 3 1
2073 118 1
2073 390 1
2073 398 1
2074 6 1
2074 24 1
2074 769 1
2074 952 1
2074 2161 1
2075 180 1
2075 254 1
2075 1190 1
2075 1420 1
2075 3754 1
2075 4467 1
2075 6453 1
2075 6586 1
2075 8507 1
2075 9042 1
2075 9697 1
2076 413 1
2076 458 1
2076 1548 1
2076 1805 1
2076 4586 1
2077 28 1
2077 123 1
2077 550 1
2077 1013 1
2077 2937 1
2077 8343 1
2078 335 1
2078 634 1
2078 1009 1
2078 1450 1
2078 2191 1
2078 5703 1
2079 9 1
2079 149 1
2079 267 1
2079 827 1
2080 219 1
2080 586 1
2080 603 1
2080 640 1
2080 2098 1
2080 2653 1
2080 2814 1
2080 3228 1
2080 3994 1
2080 4106 1
2080 4326 1
2080 4352 1
2080 5067 1
2080 5089 1
2080 5108 1
2080 6635 1
2080 7777 1
2080 8712 1
2080 9136 1
2081 75 1
2081 176 1
2081 295 1
2081 1250 1
2081 2296 1
2081 2863 1
2081 4857 1
2082 330 1
2082 513 1
2082 793 1
2082 1480 1
2082 5338 1
2082 9066 1
2083 13 1
2083 98 1
2083 131 1
2083 1579 1
2083 2978 1
2083 7468 1
2083 9247 1
2084 17 1
2084 50 1
2084 81 1
2084 287 1
2084 2161 1
2084 2601 1
2084 2628 1
2084 3050 1
2084 8762 1
2085 3 1
2085 6 1
2085 80 1
2085 622 1
2085 2774 1
2085 3683 1
2085 5102 1
2085 5492 1
2086 383 1
2086 529 1
2086 815 1
2086 2008 1
2086 3364 1
2086 3980 1
2086 5028 1
2086 5832 1
2086 6781 1
2086 7139 1
2086 7442 1
2086 9263 1
2086 9805 1
2086 9969 1
2087 174 1
2087 950 1
2087 1760 1
2087 2043 1
2087 3256 1
2087 3797 1
2087 3833 1
2087 7406 1
2088 110 1
2088 323 1
2088 886 1
2088 992 1
2088 3496 1
2088 6953 1
2088 7177 1
2088 7435 1
2089 10 1
2089 448 1
2089 936 1
2089 1384 1
2089 7359 1
2089 8483 1
2089 8547 1
2089 8597 1
2089 9326 1
2090 1 1
2090 10 1
2090 202 1
2090 330 1
2090 4677 1
2090 7317 1
2091 15 1
2091 378 1
2091 862 1
2091 1195 1
2091 3430 1
2091 9357 1
2092 422 1
2092 529 1
2092 1037 1
2092 1716 1
2092 7034 1
2092 7811 1
2092 7911 1
2093 140 1
2093 213 1
2093 835 1
2093 1037 1
2093 4272 1
2093 6129 1
2093 9032 1
2094 142 1
2094 166 1
2094 793 1
2094 1158 1
2094 9705 1
2095 55 1
2095 229 1
2095 812 1
2095 1800 1
2095 4860 1
2095 5097 1
2095 6319 1
2095 7524 1
2095 8342 1
2095 8695 1
2095 9204 1
2096 1494 1
2096 1527 1
2096 1623 1
2096 1758 1
2096 2353 1
2096 4133 1
2097 343 1
2097 421 1
2097 1126 1
2097 1997 1
2097 5133 1
2097 9175 1
2098 597 1
2098 964 1
2098 2008 1
2098 2080 1
2098 5692 1
2098 6563 1
2099 213 1
2099 338 1
2099 1344 1
2099 1977 1
2099 2409 1
2099 3053 1
2099 9314 1
2100 39 1
2100 527 1
2100 722 1
2100 1921 1
2101 25 1
2101 91 1
2101 278 1
2101 2047 1
2101 2912 1
2102 706 1
2102 831 1
2102 1372 1
2102 1392 1
2103 16 1
2103 295 1
2103 882 1
2103 1189 1
2103 6987 1
2103 7454 1
2103 8329 1
2103 8694 1
2104 24 1
2104 263 1
2104 714 1
2104 1825 1
2104 2317 1
2104 3178 1
2104 3603 1
2104 5094 1
2104 5715 1
2104 6491 1
2104 7529 1
2104 7569 1
2105 298 1
2105 412 1
2105 1710 1
2105 1805 1
2105 4212 1
2105 6114 1
2105 6737 1
2105 9615 1
2106 10 1
2106 605 1
2106 712 1
2106 1873 1
2106 3567 1
2106 6285 1
2107 43 1
2107 755 1
2107 1693 1
2107 1894 1
2107 2438 1
2107 2810 1
2107 3034 1
2107 3782 1
2107 3867 1
2107 4006 1
2107 4324 1
2107 7382 1
2107 7394 1
2107 9666 1
2107 9786 1
2108 254 1
2108 360 1
2108 893 1
2108 1403 1
2108 2948 1
2108 3821 1
2108 5913 1
2109 544 1
2109 1068 1
2109 1138 1
2109 2027 1
2109 2465 1
2109 4480 1
2109 7195 1
2109 7530 1
2109 9459 1
2110 181 1
2110 529 1
2110 1047 1
2110 1158 1
2111 261 1
2111 494 1
2111 1731 1
2111 1999 1
2111 2539 1
2111 2572 1
2111 2587 1
2111 3105 1
2111 3171 1
2111 4108 1
2111 4591 1
2111 5167 1
2111 5393 1
2111 5543 1
2111 6963 1
2111 8262 1
2111 9261 1
2111 9633 1
2112 273 1
2112 785 1
2112 1381 1
2112 1417 1
2112 2189 1
2112 2304 1
2112 3514 1
2112 3723 1
2112 3859 1
2112 4596 1
2112 5715 1
2112 5845 1
2112 6393 1
2112 6480 1
2112 6676 1
2112 9237 1
2113 54 1
2113 87 1
2113 92 1
2113 854 1
2113 2789 1
2113 3585 1
2113 4243 1
2113 4473 1
2113 4486 1
2113 4892 1
2113 5076 1
2113 5764 1
2113 6309 1
2113 9418 1
2113 9779 1
2114 119 1
2114 134 1
2114 689 1
2114 815 1
2114 3522 1
2114 4101 1
2115 78 1
2115 114 1
2115 309 1
2115 1461 1
2115 3481 1
2115 8274 1
2116 197 1
2116 940 1
2116 1092 1
2116 1129 1
2116 3038 1
2116 4971 1
2116 5179 1
2116 5336 1
2116 7116 1
2116 8123 1
2116 9516 1
2117 1 1
2117 204 1
2117 249 1
2117 1507 1
2117 2349 1
2117 2407 1
2117 5080 1
2117 5742 1
2117 5968 1
2117 6262 1
2118 19 1
2118 83 1
2118 302 1
2118 635 1
2118 2965 1
2118 3492 1
2118 4144 1
2118 8321 1
2118 8910 1
2119 57 1
2119 166 1
2119 362 1
2119 994 1
2119 2482 1
2119 2541 1
2119 3869 1
2119 6012 1
2119 6318 1
2119 6796 1
2119 7170 1
2119 7802 1
2119 8000 1
2119 8508 1
2119 8960 1
2119 9398 1
2120 24 1
2120 452 1
2120 752 1
2120 1041 1
2120 2199 1
2120 4673 1
2121 134 1
2121 312 1
2121 1100 1
2121 2007 1
2121 5880 1
2121 7071 1
2122 6 1
2122 62 1
2122 173 1
2122 263 1
2122 4845 1
2122 8417 1
2122 9194 1
2123 235 1
2123 333 1
2123 837 1
2123 867 1
2123 6068 1
2123 7740 1
2123 8361 1
2124 176 1
2124 218 1
2124 273 1
2124 1078 1
2124 2339 1
2124 2653 1
2124 3733 1
2124 4521 1
2125 91 1
2125 159 1
2125 347 1
2125 1068 1
2125 2648 1
2125 2851 1
2125 2868 1
2125 2874 1
2125 3220 1
2125 3230 1
2125 3513 1
2125 3939 1
2125 4131 1
2125 5797 1
2125 7967 1
2126 180 1
2126 523 1
2126 1411 1
2126 2013 1
2126 2487 1
2126 2859 1
2126 2889 1
2126 3827 1
2126 4089 1
2126 5475 1
2126 6295 1
2126 6313 1
2126 6752 1
2126 7206 1
2126 7548 1
2126 7857 1
2126 8468 1
2126 9249 1
2126 9926 1
2127 13 1
2127 416 1
2127 1028 1
2127 1511 1
2127 2216 1
2127 2226 1
2127 2872 1
2127 4807 1
2127 4881 1
2127 6272 1
2128 27 1
2128 48 1
2128 335 1
2128 1149 1
2128 3121 1
2128 3405 1
2128 3733 1
2128 7983 1
2128 8034 1
2128 8637 1
2129 534 1
2129 711 1
2129 1260 1
2129 1986 1
2129 2954 1
2130 3 1
2130 39 1
2130 331 1
2130 1461 1
2130 5067 1
2130 5754 1
2131 15 1
2131 26 1
2131 336 1
2131 1004 1
2131 2144 1
2131 2359 1
2131 2476 1
2131 3880 1
2131 4200 1
2131 5362 1
2131 5464 1
2131 6948 1
2131 8010 1
2131 8299 1
2132 142 1
2132 1382 1
2132 1556 1
2132 1928 1
2132 2467 1
2132 8632 1
2132 8931 1
2132 9722 1
2133 112 1
2133 309 1
2133 631 1
2133 715 1
2133 3121 1
2133 3664 1
2134 3 1
2134 11 1
2134 281 1
2134 572 1
2134 2473 1
2134 7814 1
2134 8793 1
2135 11 1
2135 263 1
2135 668 1
2135 2058 1
2135 3988 1
2135 6869 1
2135 7370 1
2136 29 1
2136 59 1
2136 935 1
2136 1342 1
2136 2510 1
2136 2552 1
2136 4879 1
2136 5660 1
2136 5699 1
2136 7277 1
2136 7503 1
2137 6 1
2137 13 1
2137 34 1
2137 926 1
2137 2743 1
2137 4392 1
2137 4454 1
2138 17 1
2138 99 1
2138 706 1
2138 1012 1
2138 4827 1
2138 6968 1
2138 7835 1
2139 49 1
2139 264 1
2139 1048 1
2139 1797 1
2139 2477 1
2139 2624 1
2139 3310 1
2139 3506 1
2139 7051 1
2139 8663 1
2139 8816 1
2140 426 1
2140 1135 1
2140 1157 1
2140 1568 1
2140 2418 1
2140 3559 1
2140 3719 1
2140 8244 1
2140 9824 1
2141 8 1
2141 147 1
2141 167 1
2141 243 1
2141 2531 1
2141 2683 1
2141 3200 1
2141 4926 1
2141 5620 1
2141 6475 1
2141 9986 1
2142 407 1
2142 594 1
2142 1081 1
2142 1593 1
2142 2188 1
2142 2312 1
2142 2872 1
2142 4981 1
2142 5162 1
2142 6343 1
2142 7320 1
2142 9405 1
2143 14 1
2143 194 1
2143 304 1
2143 1663 1
2143 2904 1
2143 3180 1
2143 3856 1
2143 3954 1
2143 5569 1
2143 7280 1
2143 7794 1
2143 8628 1
2144 256 1
2144 886 1
2144 1406 1
2144 2131 1
2144 2208 1
2144 3282 1
2144 3357 1
2144 3391 1
2144 7898 1
2144 8458 1
2144 9004 1
2144 9935 1
2145 172 1
2145 488 1
2145 515 1
2145 1311 1
2145 5375 1
2145 5462 1
2146 10 1
2146 150 1
2146 171 1
2146 494 1
2146 2333 1
2146 2753 1
2146 3821 1
2146 3953 1
2146 6665 1
2146 7007 1
2146 9157 1
2147 458 1
2147 612 1
2147 1725 1
2147 1963 1
2147 3199 1
2147 3989 1
2147 5484 1
2147 6183 1
2147 7404 1
2147 7466 1
2148 78 1
2148 129 1
2148 297 1
2148 813 1
2148 9614 1
2149 6 1
2149 265 1
2149 377 1
2149 1615 1
2149 4003 1
2149 5544 1
2149 8551 1
2149 9646 1
2150 306 1
2150 372 1
2150 599 1
2150 1193 1
2150 4364 1
2150 5991 1
2150 7314 1
2150 7771 1
2151 341 1
2151 482 1
2151 647 1
2151 945 1
2151 3254 1
2151 3402 1
2151 8207 1
2152 95 1
2152 481 1
2152 496 1
2152 2044 1
2152 2347 1
2152 2556 1
2152 2580 1
2152 2880 1
2152 3852 1
2152 4848 1
2152 8933 1
2153 393 1
2153 822 1
2153 1218 1
2153 1451 1
2153 2661 1
2153 3382 1
2153 6592 1
2154 43 1
2154 142 1
2154 1799 1
2154 1970 1
2154 4994 1
2154 8056 1
2155 6 1
2155 390 1
2155 678 1
2155 1040 1
2155 2349 1
2155 2685 1
2155 3061 1
2155 3424 1
2155 3694 1
2155 4091 1
2155 6242 1
2155 6637 1
2155 7674 1
2155 8378 1
2156 5 1
2156 482 1
2156 762 1
2156 1902 1
2156 2938 1
2156 4707 1
2156 5190 1
2156 5817 1
2156 6846 1
2156 7046 1
2156 7075 1
2156 8452 1
2157 266 1
2157 339 1
2157 796 1
2157 1078 1
2157 3256 1
2157 6923 1
2157 8667 1
2158 316 1
2158 970 1
2158 971 1
2158 1170 1
2158 2320 1
2158 2859 1
2158 3876 1
2158 3956 1
2158 5100 1
2158 6041 1
2159 96 1
2159 343 1
2159 493 1
2159 828 1
2159 3032 1
2159 3253 1
2159 3311 1
2159 6531 1
2159 7919 1
2159 8807 1
2160 13 1
2160 198 1
2160 230 1
2160 296 1
2160 4073 1
2160 4756 1
2160 5237 1
2160 6087 1
2160 9903 1
2161 74 1
2161 601 1
2161 2074 1
2161 2084 1
2161 2370 1
2161 3093 1
2161 4417 1
2161 4755 1
2161 5159 1
2161 5719 1
2161 6386 1
2161 6776 1
2161 6825 1
2161 8422 1
2161 8539 1
2161 8611 1
2162 188 1
2162 1374 1
2162 1615 1
2162 1754 1
2162 9198 1
2163 235 1
2163 512 1
2163 862 1
2163 1104 1
2163 2353 1
2163 3147 1
2163 4663 1
2163 4766 1
2163 5072 1
2163 5271 1
2163 7990 1
2163 8490 1
2163 9105 1
2163 9373 1
2164 14 1
2164 46 1
2164 547 1
2164 1954 1
2164 3392 1
2164 3715 1
2164 4180 1
2164 5128 1
2165 835 1
2165 869 1
2165 879 1
2165 1207 1
2165 2210 1
2165 3867 1
2165 4492 1
2165 6647 1
2165 6692 1
2165 8017 1
2165 9886 1
2166 12 1
2166 297 1
2166 329 1
2166 1331 1
2166 2200 1
2166 2325 1
2166 2752 1
2166 4898 1
2166 5220 1
2166 5488 1
2166 6037 1
2166 6401 1
2166 7267 1
2166 7784 1
2166 8987 1
2166 9404 1
2167 8 1
2167 17 1
2167 129 1
2167 1291 1
2168 124 1
2168 197 1
2168 953 1
2168 2016 1
2168 5204 1
2169 26 1
2169 28 1
2169 703 1
2169 1968 1
2169 2816 1
2169 3253 1
2169 4762 1
2169 4777 1
2170 102 1
2170 535 1
2170 1935 1
2170 2065 1
2170 3322 1
2170 5473 1
2170 8135 1
2171 184 1
2171 305 1
2171 730 1
2171 1814 1
2171 2406 1
2171 7798 1
2171 8420 1
2172 492 1
2172 885 1
2172 1387 1
2172 2042 1
2172 3248 1
2172 4619 1
2172 4717 1
2172 7416 1
2172 7966 1
2173 64 1
2173 448 1
2173 726 1
2173 2040 1
2173 2182 1
2173 5487 1
2173 5608 1
2173 5888 1
2173 7040 1
2174 61 1
2174 542 1
2174 1058 1
2174 1233 1
2175 266 1
2175 905 1
2175 1210 1
2175 1466 1
2175 2715 1
2175 5682 1
2175 5857 1
2175 6227 1
2175 7352 1
2175 8749 1
2176 47 1
2176 577 1
2176 1044 1
2176 2041 1
2176 2616 1
2177 264 1
2177 815 1
2177 981 1
2177 1509 1
2177 3994 1
2177 4260 1
2177 4581 1
2177 6216 1
2177 7177 1
2177 7332 1
2177 8140 1
2177 8553 1
2178 13 1
2178 630 1
2178 1025 1
2178 1246 1
2178 2422 1
2178 5566 1
2178 6988 1
2178 7587 1
2178 7803 1
2179 16 1
2179 60 1
2179 174 1
2179 864 1
2179 2840 1
2179 3415 1
2179 3989 1
2179 4575 1
2179 5784 1
2179 7643 1
2180 26 1
2180 127 1
2180 495 1
2180 616 1
2180 2329 1
2180 4382 1
2180 5670 1
2180 7335 1
2181 364 1
2181 484 1
2181 1780 1
2181 2051 1
2181 2328 1
2181 2754 1
2181 2792 1
2182 3 1
2182 56 1
2182 486 1
2182 2173 1
2182 2262 1
2183 330 1
2183 469 1
2183 1391 1
2183 1594 1
2183 2219 1
2183 4340 1
2183 4639 1
2184 198 1
2184 232 1
2184 1021 1
2184 1708 1
2184 3560 1
2184 3786 1
2184 4797 1
2184 5963 1
2184 6127 1
2184 9799 1
2185 267 1
2185 411 1
2185 566 1
2185 848 1
2185 3266 1
2185 3693 1
2185 3881 1
2185 4739 1
2185 6441 1
2185 9077 1
2185 9358 1
2186 10 1
2186 172 1
2186 341 1
2186 1997 1
2187 50 1
2187 155 1
2187 261 1
2187 498 1
2187 3191 1
2187 5065 1
2187 7590 1
2187 8679 1
2188 398 1
2188 1048 1
2188 1290 1
2188 2142 1
2188 2630 1
2188 2724 1
2188 2962 1
2188 4083 1
2188 4998 1
2188 6645 1
2188 7216 1
2188 7781 1
2189 33 1
2189 65 1
2189 1271 1
2189 2112 1
2189 2650 1
2189 3822 1
2189 5094 1
2189 6646 1
2190 3 1
2190 63 1
2190 869 1
2190 2042 1
2190 2404 1
2190 2649 1
2191 5 1
2191 416 1
2191 1572 1
2191 2078 1
2191 2268 1
2191 3055 1
2192 64 1
2192 226 1
2192 508 1
2192 1821 1
2192 3169 1
2192 6168 1
2192 7535 1
2193 231 1
2193 284 1
2193 314 1
2193 2042 1
2194 39 1
2194 1142 1
2194 1863 1
2194 1978 1
2194 2881 1
2194 3185 1
2194 3270 1
2194 3406 1
2194 3478 1
2194 5978 1
2194 7617 1
2194 8430 1
2195 24 1
2195 137 1
2195 1355 1
2195 1987 1
2195 6240 1
2195 6258 1
2195 6509 1
2195 8272 1
2196 135 1
2196 463 1
2196 1125 1
2196 1375 1
2196 2597 1
2196 3900 1
2196 4670 1
2196 6348 1
2197 6 1
2197 29 1
2197 369 1
2197 867 1
2197 2591 1
2197 2625 1
2197 3824 1
2197 3985 1
2197 4409 1
2197 4557 1
2197 8116 1
2197 8996 1
2197 9380 1
2198 257 1
2198 395 1
2198 1001 1
2198 1415 1
2198 2213 1
2198 7312 1
2198 7955 1
2199 690 1
2199 912 1
2199 1482 1
2199 2120 1
2199 2558 1
2199 3630 1
2199 5616 1
2199 7870 1
2199 8239 1
2199 8952 1
2200 993 1
2200 1108 1
2200 1557 1
2200 2166 1
2200 2751 1
2200 2763 1
2200 3040 1
2200 4394 1
2200 4463 1
2200 4616 1
2200 5127 1
2200 6202 1
2200 8094 1
2200 9080 1
2201 261 1
2201 415 1
2201 858 1
2201 913 1
2201 2593 1
2201 2603 1
2201 6897 1
2202 199 1
2202 663 1
2202 1126 1
2202 1767 1
2202 2443 1
2202 2586 1
2202 3477 1
2202 3513 1
2202 3772 1
2202 9236 1
2203 194 1
2203 846 1
2203 1268 1
2203 1469 1
2203 6797 1
2203 8028 1
2204 10 1
2204 16 1
2204 719 1
2204 897 1
2204 2491 1
2205 21 1
2205 218 1
2205 725 1
2205 1976 1
2205 2420 1
2205 5810 1
2205 5997 1
2206 11 1
2206 1030 1
2206 1139 1
2206 1156 1
2206 4209 1
2206 6751 1
2206 6976 1
2206 7363 1
2207 11 1
2207 241 1
2207 832 1
2207 1451 1
2207 2387 1
2207 8034 1
2207 8650 1
2208 328 1
2208 1147 1
2208 1519 1
2208 2144 1
2208 9073 1
2208 9483 1
2209 62 1
2209 987 1
2209 1258 1
2209 1574 1
2209 3359 1
2209 6082 1
2209 6512 1
2209 7218 1
2209 9798 1
2210 6 1
2210 86 1
2210 968 1
2210 2165 1
2210 2724 1
2210 4107 1
2210 4587 1
2210 4816 1
2210 8756 1
2210 9537 1
2210 9674 1
2211 191 1
2211 373 1
2211 1907 1
2211 2007 1
2211 5016 1
2211 8840 1
2212 11 1
2212 32 1
2212 1051 1
2212 1074 1
2212 2663 1
2212 2840 1
2212 3161 1
2212 3461 1
2212 5096 1
2212 5152 1
2212 5953 1
2212 8543 1
2212 8772 1
2213 120 1
2213 402 1
2213 1776 1
2213 2198 1
2213 4344 1
2214 81 1
2214 119 1
2214 1277 1
2214 1279 1
2214 2589 1
2214 5190 1
2215 142 1
2215 1184 1
2215 1246 1
2215 1339 1
2215 2878 1
2215 5147 1
2216 29 1
2216 1035 1
2216 1798 1
2216 2127 1
2216 2842 1
2216 3143 1
2216 3276 1
2216 3543 1
2216 3817 1
2216 4052 1
2216 4690 1
2216 5105 1
2216 7073 1
2216 9724 1
2217 286 1
2217 519 1
2217 1299 1
2217 1416 1
2217 2692 1
2217 8063 1
2217 8352 1
2218 154 1
2218 230 1
2218 928 1
2218 1131 1
2218 4316 1
2218 6212 1
2219 29 1
2219 95 1
2219 1322 1
2219 2183 1
2219 3025 1
2219 3590 1
2219 3919 1
2219 6468 1
2219 6723 1
2219 7363 1
2219 8262 1
2219 8799 1
2220 639 1
2220 1180 1
2220 1751 1
2220 1823 1
2220 2630 1
2220 2821 1
2220 6102 1
2220 6567 1
2220 7618 1
2220 8297 1
2220 9317 1
2221 21 1
2221 903 1
2221 952 1
2221 1467 1
2221 3064 1
2221 3485 1
2221 5805 1
2221 6527 1
2221 7212 1
2221 8271 1
2222 78 1
2222 284 1
2222 571 1
2222 1978 1
2222 6796 1
2223 38 1
2223 67 1
2223 461 1
2223 531 1
2223 3227 1
2223 4611 1
2223 6165 1
2223 8498 1
2223 8936 1
2224 7 1
2224 273 1
2224 1406 1
2224 1784 1
2224 3009 1
2224 4214 1
2225 8 1
2225 37 1
2225 568 1
2225 2034 1
2225 7718 1
2226 114 1
2226 822 1
2226 1253 1
2226 2127 1
2226 6114 1
2226 9188 1
2227 1 1
2227 104 1
2227 904 1
2227 1636 1
2227 2388 1
2227 5607 1
2227 7730 1
2228 270 1
2228 294 1
2228 767 1
2228 1012 1
2228 2843 1
2228 3755 1
2228 6510 1
2229 473 1
2229 572 1
2229 1106 1
2229 1357 1
2229 2909 1
2229 4459 1
2229 5031 1
2229 6159 1
2229 6555 1
2229 7619 1
2229 7625 1
2229 7970 1
2230 65 1
2230 178 1
2230 295 1
2230 517 1
2230 8887 1
2231 453 1
2231 917 1
2231 962 1
2231 1933 1
2231 2807 1
2231 3952 1
2231 4155 1
2231 4825 1
2231 5044 1
2231 5145 1
2231 8593 1
2231 9802 1
2232 182 1
2232 680 1
2232 1576 1
2232 1927 1
2232 2318 1
2232 2470 1
2232 4999 1
2232 8057 1
2233 44 1
2233 188 1
2233 227 1
2233 1722 1
2233 5377 1
2233 6357 1
2234 490 1
2234 1022 1
2234 1644 1
2234 1724 1
2234 2260 1
2234 2986 1
2234 3185 1
2234 3432 1
2234 4121 1
2234 4875 1
2234 5001 1
2234 7181 1
2234 8017 1
2234 8287 1
2235 275 1
2235 390 1
2235 527 1
2235 847 1
2235 3327 1
2235 5189 1
2235 6540 1
2235 8312 1
2235 8857 1
2236 165 1
2236 272 1
2236 975 1
2236 1902 1
2236 2867 1
2236 2952 1
2236 3057 1
2236 3882 1
2236 4115 1
2236 6390 1
2236 9455 1
2236 9845 1
2236 9920 1
2237 10 1
2237 143 1
2237 1754 1
2237 1961 1
2237 2933 1
2237 3333 1
2237 8888 1
2238 182 1
2238 234 1
2238 436 1
2238 1720 1
2239 8 1
2239 690 1
2239 1125 1
2239 1217 1
2239 3557 1
2239 6418 1
2239 7064 1
2240 219 1
2240 720 1
2240 968 1
2240 1756 1
2240 3044 1
2240 3741 1
2240 3897 1
2240 4377 1
2240 9668 1
2241 243 1
2241 418 1
2241 487 1
2241 1130 1
2241 7965 1
2242 28 1
2242 120 1
2242 213 1
2242 1197 1
2242 3479 1
2242 4601 1
2242 4742 1
2243 13 1
2243 416 1
2243 560 1
2243 1412 1
2244 66 1
2244 91 1
2244 187 1
2244 1431 1
2244 2480 1
2244 2973 1
2244 3417 1
2244 4948 1
2244 5938 1
2244 8925 1
2245 280 1
2245 358 1
2245 626 1
2245 1827 1
2245 3555 1
2245 4646 1
2245 7598 1
2246 27 1
2246 477 1
2246 493 1
2246 600 1
2246 3032 1
2246 5112 1
2246 6345 1
2246 6469 1
2246 7779 1
2247 26 1
2247 89 1
2247 124 1
2247 173 1
2247 2450 1
2247 3208 1
2247 3242 1
2247 4763 1
2247 6627 1
2247 7324 1
2247 7834 1
2248 16 1
2248 1127 1
2248 1209 1
2248 1224 1
2248 2441 1
2248 2957 1
2248 5673 1
2248 8367 1
2249 21 1
2249 743 1
2249 1073 1
2249 1822 1
2249 2411 1
2249 2829 1
2249 6149 1
2249 9925 1
2250 128 1
2250 888 1
2250 1446 1
2250 1892 1
2250 3179 1
2250 3453 1
2250 5160 1
2250 6029 1
2250 6547 1
2250 8678 1
2251 10 1
2251 188 1
2251 435 1
2251 990 1
2251 7772 1
2252 176 1
2252 224 1
2252 253 1
2252 547 1
2252 2920 1
2252 3293 1
2252 4183 1
2252 4426 1
2252 6582 1
2252 7180 1
2252 7195 1
2252 9295 1
2253 140 1
2253 265 1
2253 432 1
2253 1133 1
2253 4305 1
2253 5300 1
2253 6862 1
2253 6934 1
2253 7373 1
2253 8112 1
2253 9020 1
2253 9611 1
2254 718 1
2254 750 1
2254 1721 1
2254 2049 1
2254 2661 1
2254 2883 1
2254 3026 1
2254 6944 1
2255 51 1
2255 142 1
2255 267 1
2255 1242 1
2255 6488 1
2255 8171 1
2255 8789 1
2256 24 1
2256 804 1
2256 910 1
2256 1158 1
2256 3509 1
2256 4147 1
2256 5409 1
2256 5837 1
2256 6739 1
2256 7680 1
2257 19 1
2257 660 1
2257 1502 1
2257 1637 1
2257 2840 1
2257 2906 1
2257 3419 1
2257 3536 1
2257 4800 1
2257 6717 1
2257 6754 1
2257 7010 1
2257 7717 1
2257 8499 1
2257 9116 1
2257 9414 1
2258 79 1
2258 114 1
2258 487 1
2258 2011 1
2258 4897 1
2259 11 1
2259 1172 1
2259 1212 1
2259 1832 1
2259 2362 1
2259 3764 1
2259 4792 1
2260 260 1
2260 1286 1
2260 1318 1
2260 2234 1
2260 3936 1
2260 7489 1
2261 24 1
2261 225 1
2261 807 1
2261 959 1
2261 3083 1
2261 7999 1
2262 81 1
2262 438 1
2262 1422 1
2262 2182 1
2262 2984 1
2262 5453 1
2262 5929 1
2262 7092 1
2262 8427 1
2262 9218 1
2262 9267 1
2263 23 1
2263 114 1
2263 661 1
2263 944 1
2263 2675 1
2263 3038 1
2263 4643 1
2263 5133 1
2263 5720 1
2263 6509 1
2263 7295 1
2263 8470 1
2263 8779 1
2264 95 1
2264 227 1
2264 275 1
2264 1749 1
2264 3363 1
2264 5640 1
2264 7425 1
2264 7754 1
2265 116 1
2265 670 1
2265 991 1
2265 1515 1
2265 2792 1
2265 5747 1
2265 6862 1
2265 7270 1
2266 127 1
2266 1079 1
2266 1099 1
2266 1362 1
2266 2268 1
2266 6163 1
2266 6548 1
2266 8238 1
2267 7 1
2267 95 1
2267 1251 1
2267 1614 1
2267 3871 1
2267 4785 1
2267 5960 1
2267 7812 1
2268 335 1
2268 377 1
2268 2191 1
2268 2266 1
2268 3110 1
2268 3235 1
2268 3990 1
2268 5888 1
2268 6128 1
2268 6137 1
2268 6420 1
2268 8041 1
2268 8392 1
2268 9149 1
2269 550 1
2269 1279 1
2269 1663 1
2269 1952 1
2269 7244 1
2270 82 1
2270 288 1
2270 295 1
2270 718 1
2270 2360 1
2270 9991 1
2271 160 1
2271 847 1
2271 1035 1
2271 1105 1
2271 4689 1
2271 7997 1
2272 74 1
2272 316 1
2272 389 1
2272 1581 1
2272 3073 1
2272 7922 1
2272 9737 1
2273 8 1
2273 926 1
2273 945 1
2273 947 1
2273 3626 1
2273 6152 1
2274 60 1
2274 310 1
2274 539 1
2274 615 1
2274 2438 1
2274 2555 1
2274 3060 1
2274 3417 1
2274 3654 1
2274 4153 1
2274 4355 1
2274 4821 1
2274 5282 1
2274 5958 1
2274 7161 1
2274 8489 1
2274 8945 1
2275 4 1
2275 1069 1
2275 1527 1
2275 1689 1
2275 2779 1
2275 7199 1
2275 7358 1
2275 8253 1
2276 145 1
2276 1274 1
2276 2004 1
2276 2012 1
2276 2388 1
2276 4526 1
2276 6315 1
2276 7683 1
2276 9500 1
2276 9692 1
2277 197 1
2277 493 1
2277 1089 1
2277 1527 1
2277 3056 1
2277 6003 1
2277 6027 1
2278 152 1
2278 194 1
2278 339 1
2278 1057 1
2278 2388 1
2278 3361 1
2278 3614 1
2278 6242 1
2278 6385 1
2278 8257 1
2279 139 1
2279 753 1
2279 949 1
2279 2029 1
2280 98 1
2280 122 1
2280 138 1
2280 1169 1
2281 212 1
2281 298 1
2281 1658 1
2281 1713 1
2281 2717 1
2281 4559 1
2281 5647 1
2282 107 1
2282 1300 1
2282 1520 1
2282 1897 1
2282 2453 1
2282 3150 1
2282 5614 1
2282 5915 1
2282 6672 1
2282 8707 1
2282 9570 1
2283 244 1
2283 402 1
2283 1492 1
2283 1626 1
2283 2758 1
2283 4521 1
2283 6127 1
2283 8684 1
2283 8769 1
2284 41 1
2284 415 1
2284 600 1
2284 1863 1
2284 2355 1
2284 6667 1
2284 8949 1
2284 8952 1
2284 9481 1
2285 3 1
2285 202 1
2285 1350 1
2285 1367 1
2285 3519 1
2285 4467 1
2285 7821 1
2285 8965 1
2286 115 1
2286 644 1
2286 960 1
2286 2038 1
2287 581 1
2287 623 1
2287 690 1
2287 1379 1
2287 2940 1
2287 3170 1
2287 3835 1
2287 4746 1
2287 5655 1
2287 6060 1
2287 6858 1
2287 7574 1
2287 8943 1
2287 9375 1
2288 21 1
2288 375 1
2288 591 1
2288 734 1
2288 2574 1
2288 3218 1
2288 5134 1
2288 5344 1
2288 7337 1
2288 7864 1
2288 8163 1
2289 619 1
2289 1162 1
2289 1725 1
2289 1833 1
2289 3076 1
2289 8044 1
2289 9677 1
2290 78 1
2290 261 1
2290 849 1
2290 1413 1
2290 2514 1
2290 4238 1
2290 5296 1
2291 81 1
2291 360 1
2291 570 1
2291 983 1
2291 4115 1
2292 122 1
2292 310 1
2292 539 1
2292 1972 1
2292 3580 1
2292 4572 1
2292 5825 1
2292 6285 1
2292 7972 1
2293 23 1
2293 305 1
2293 569 1
2293 2034 1
2293 2714 1
2293 3140 1
2293 3229 1
2293 5171 1
2293 6648 1
2293 8116 1
2294 17 1
2294 28 1
2294 1583 1
2294 1878 1
2294 2307 1
2294 3125 1
2294 3323 1
2294 3709 1
2294 5361 1
2294 5629 1
2294 6249 1
2294 9478 1
2295 254 1
2295 528 1
2295 777 1
2295 1530 1
2295 2970 1
2295 3998 1
2295 6887 1
2295 7214 1
2295 9355 1
2296 1261 1
2296 1376 1
2296 1528 1
2296 2081 1
2296 3688 1
2296 5479 1
2296 9413 1
2297 227 1
2297 244 1
2297 386 1
2297 644 1
2297 9147 1
2298 9 1
2298 48 1
2298 823 1
2298 1405 1
2298 2664 1
2299 202 1
2299 773 1
2299 971 1
2299 1628 1
2299 6353 1
2300 6 1
2300 1148 1
2300 1446 1
2300 1647 1
2300 4544 1
2300 9051 1
2301 9 1
2301 659 1
2301 883 1
2301 1113 1
2301 4141 1
2301 5242 1
2301 7030 1
2301 9328 1
2302 64 1
2302 489 1
2302 1412 1
2302 1594 1
2302 5647 1
2302 6079 1
2302 9228 1
2302 9694 1
2303 323 1
2303 1494 1
2303 1625 1
2303 1724 1
2303 2617 1
2303 3205 1
2303 5265 1
2303 6788 1
2304 13 1
2304 228 1
2304 856 1
2304 2112 1
2304 3014 1
2304 7588 1
2304 9138 1
2304 9774 1
2305 6 1
2305 367 1
2305 553 1
2305 1661 1
2305 3814 1
2305 6464 1
2305 7636 1
2305 8607 1
2306 17 1
2306 868 1
2306 1206 1
2306 1589 1
2306 7031 1
2307 521 1
2307 1662 1
2307 1718 1
2307 2294 1
2307 3894 1
2308 515 1
2308 1320 1
2308 1652 1
2308 1968 1
2308 2820 1
2308 5656 1
2308 6941 1
2308 8462 1
2309 428 1
2309 593 1
2309 648 1
2309 696 1
2309 3988 1
2309 6303 1
2309 8847 1
2310 40 1
2310 182 1
2310 669 1
2310 1135 1
2310 2604 1
2310 3203 1
2310 6630 1
2310 6739 1
2310 7017 1
2310 7790 1
2311 161 1
2311 410 1
2311 580 1
2311 1495 1
2311 2468 1
2311 4458 1
2312 2 1
2312 501 1
2312 934 1
2312 2142 1
2312 2511 1
2312 7633 1
2313 240 1
2313 566 1
2313 1111 1
2313 1912 1
2313 6170 1
2314 172 1
2314 758 1
2314 1778 1
2314 1900 1
2314 3472 1
2314 4935 1
2314 8269 1
2315 1 1
2315 139 1
2315 1289 1
2315 2013 1
2315 8631 1
2316 6 1
2316 20 1
2316 313 1
2316 651 1
2316 3819 1
2316 7768 1
2317 58 1
2317 682 1
2317 1849 1
2317 2104 1
2317 5561 1
2317 7378 1
2317 9164 1
2318 87 1
2318 818 1
2318 1862 1
2318 2232 1
2318 2381 1
2318 8276 1
2318 8554 1
2318 9054 1
2319 42 1
2319 183 1
2319 609 1
2319 611 1
2319 2422 1
2319 4057 1
2319 4515 1
2319 8637 1
2319 9177 1
2320 5 1
2320 269 1
2320 381 1
2320 2158 1
2320 2456 1
2321 34 1
2321 264 1
2321 495 1
2321 755 1
2321 3253 1
2321 5109 1
2321 8038 1
2322 94 1
2322 200 1
2322 238 1
2322 362 1
2322 3898 1
2322 7162 1
2323 39 1
2323 60 1
2323 1546 1
2323 1842 1
2323 2729 1
2323 2762 1
2323 3178 1
2323 3687 1
2323 7116 1
2323 7393 1
2323 8213 1
2323 8697 1
2323 8807 1
2323 8829 1
2324 8 1
2324 978 1
2324 1761 1
2324 1877 1
2324 2727 1
2324 4120 1
2324 6316 1
2324 6998 1
2325 26 1
2325 157 1
2325 1466 1
2325 2166 1
2325 2572 1
2325 2897 1
2325 3051 1
2325 4135 1
2325 5146 1
2325 5871 1
2325 7135 1
2325 9715 1
2326 1 1
2326 487 1
2326 969 1
2326 1305 1
2327 6 1
2327 184 1
2327 436 1
2327 1005 1
2328 174 1
2328 609 1
2328 1090 1
2328 2181 1
2328 3287 1
2328 3695 1
2328 7048 1
2328 9164 1
2329 32 1
2329 181 1
2329 637 1
2329 2180 1
2329 3981 1
2329 7569 1
2329 7685 1
2330 783 1
2330 907 1
2330 1059 1
2330 1442 1
2330 2799 1
2330 8493 1
2331 67 1
2331 531 1
2331 1300 1
2331 1635 1
2331 7127 1
2332 105 1
2332 348 1
2332 1068 1
2332 1226 1
2332 3554 1
2332 5401 1
2332 6414 1
2333 87 1
2333 1573 1
2333 1803 1
2333 2146 1
2333 4618 1
2333 4998 1
2333 5033 1
2333 5646 1
2333 7590 1
2334 65 1
2334 138 1
2334 882 1
2334 1981 1
2334 4925 1
2334 6883 1
2334 9158 1
2334 9248 1
2335 11 1
2335 616 1
2335 650 1
2335 874 1
2335 9184 1
2335 9860 1
2336 108 1
2336 268 1
2336 1019 1
2336 1215 1
2336 3319 1
2336 3999 1
2336 5355 1
2336 5762 1
2336 7173 1
2336 8212 1
2336 8321 1
2337 772 1
2337 917 1
2337 1445 1
2337 1924 1
2337 2883 1
2337 4077 1
2337 5553 1
2337 6739 1
2337 6944 1
2338 562 1
2338 617 1
2338 1447 1
2338 1908 1
2338 2536 1
2339 75 1
2339 98 1
2339 478 1
2339 2124 1
2339 5602 1
2339 6508 1
2340 287 1
2340 649 1
2340 1083 1
2340 1666 1
2340 2866 1
2340 2948 1
2340 2949 1
2340 3301 1
2340 3384 1
2340 3659 1
2340 5059 1
2340 5265 1
2340 5897 1
2340 7372 1
2340 7679 1
2340 9460 1
2341 307 1
2341 581 1
2341 994 1
2341 1396 1
2341 6963 1
2341 6969 1
2341 8921 1
2342 6 1
2342 184 1
2342 1133 1
2342 1304 1
2342 6184 1
2342 9397 1
2343 145 1
2343 201 1
2343 944 1
2343 1732 1
2343 4155 1
2343 8671 1
2343 9183 1
2344 878 1
2344 1073 1
2344 1727 1
2344 1856 1
2344 4278 1
2344 5638 1
2344 6966 1
2344 9598 1
2345 21 1
2345 115 1
2345 464 1
2345 938 1
2345 2594 1
2345 3160 1
2345 3949 1
2345 3976 1
2345 5118 1
2345 8316 1
2346 12 1
2346 152 1
2346 503 1
2346 1414 1
2346 2405 1
2346 3869 1
2346 7979 1
2346 9146 1
2347 14 1
2347 615 1
2347 712 1
2347 2152 1
2347 2983 1
2347 4916 1
2347 9208 1
2347 9459 1
2348 635 1
2348 759 1
2348 889 1
2348 1779 1
2348 3046 1
2348 5124 1
2348 5645 1
2348 5905 1
2348 5909 1
2349 666 1
2349 718 1
2349 2117 1
2349 2155 1
2349 2875 1
2349 4817 1
2349 5017 1
2349 5027 1
2349 6962 1
2350 274 1
2350 525 1
2350 760 1
2350 1425 1
2350 4001 1
2350 5613 1
2350 7288 1
2350 7464 1
2350 7842 1
2350 9548 1
2351 543 1
2351 1423 1
2351 1803 1
2351 1893 1
2351 5451 1
2351 6153 1
2352 45 1
2352 160 1
2352 1277 1
2352 1408 1
2352 2581 1
2352 3990 1
2352 4367 1
2352 5304 1
2352 5488 1
2352 6148 1
2352 7065 1
2352 7516 1
2352 7660 1
2352 7837 1
2352 8203 1
2353 14 1
2353 265 1
2353 2096 1
2353 2163 1
2353 3974 1
2353 4277 1
2353 6116 1
2353 6263 1
2354 94 1
2354 229 1
2354 722 1
2354 1718 1
2354 4299 1
2354 4787 1
2354 7304 1
2354 8373 1
2354 9777 1
2354 9804 1
2355 139 1
2355 773 1
2355 1598 1
2355 2284 1
2355 2408 1
2355 2659 1
2355 3514 1
2355 3945 1
2355 4702 1
2355 4735 1
2355 7260 1
2356 452 1
2356 768 1
2356 1411 1
2356 1738 1
2357 264 1
2357 555 1
2357 1434 1
2357 1687 1
2357 2523 1
2357 2620 1
2357 2720 1
2357 4041 1
2357 5855 1
2357 8155 1
2358 26 1
2358 68 1
2358 375 1
2358 1295 1
2358 3296 1
2358 8189 1
2359 26 1
2359 77 1
2359 1439 1
2359 2131 1
2359 2409 1
2359 5649 1
2359 5671 1
2359 5944 1
2359 6912 1
2359 8058 1
2360 140 1
2360 1596 1
2360 1763 1
2360 2270 1
2360 5019 1
2360 5208 1
2360 7296 1
2361 435 1
2361 642 1
2361 1271 1
2361 2002 1
2361 2367 1
2361 6912 1
2361 8145 1
2361 9186 1
2361 9287 1
2362 34 1
2362 760 1
2362 1754 1
2362 2259 1
2362 8270 1
2363 901 1
2363 1113 1
2363 1342 1
2363 1531 1
2363 7022 1
2363 9912 1
2364 20 1
2364 690 1
2364 1821 1
2364 2065 1
2364 3346 1
2364 7691 1
2364 7882 1
2365 84 1
2365 281 1
2365 349 1
2365 1941 1
2365 2763 1
2365 3451 1
2365 3628 1
2365 3743 1
2365 6099 1
2365 6407 1
2365 6561 1
2365 8434 1
2365 8838 1
2365 9857 1
2366 43 1
2366 142 1
2366 197 1
2366 1322 1
2366 2565 1
2366 2842 1
2366 3623 1
2366 3897 1
2366 4421 1
2366 7226 1
2367 149 1
2367 387 1
2367 1929 1
2367 2361 1
2367 2678 1
2367 3215 1
2367 4542 1
2367 4691 1
2367 6670 1
2367 9596 1
2368 140 1
2368 145 1
2368 200 1
2368 711 1
2368 3288 1
2369 492 1
2369 1404 1
2369 1561 1
2369 2070 1
2369 2744 1
2369 3661 1
2369 6985 1
2370 19 1
2370 30 1
2370 1641 1
2370 2161 1
2370 3794 1
2370 4625 1
2370 4944 1
2370 5702 1
2370 7972 1
2371 382 1
2371 1028 1
2371 1114 1
2371 1227 1
2371 2563 1
2371 4353 1
2372 707 1
2372 815 1
2372 858 1
2372 893 1
2372 4682 1
2372 7547 1
2372 9432 1
2373 13 1
2373 26 1
2373 37 1
2373 1539 1
2373 2719 1
2373 2731 1
2373 3296 1
2373 7455 1
2374 545 1
2374 586 1
2374 915 1
2374 1684 1
2374 2897 1
2374 4319 1
2374 4884 1
2374 8082 1
2374 8972 1
2375 86 1
2375 120 1
2375 161 1
2375 845 1
2375 4661 1
2375 5699 1
2375 8827 1
2376 948 1
2376 998 1
2376 1244 1
2376 2030 1
2376 3627 1
2376 4384 1
2376 7349 1
2376 9646 1
2377 29 1
2377 80 1
2377 1623 1
2377 1812 1
2377 4626 1
2377 6494 1
2378 217 1
2378 1017 1
2378 1942 1
2378 1957 1
2379 484 1
2379 553 1
2379 1553 1
2379 1664 1
2379 2696 1
2379 3436 1
2379 3748 1
2379 4262 1
2379 6788 1
2380 201 1
2380 878 1
2380 1011 1
2380 1650 1
2380 2400 1
2380 3148 1
2380 4759 1
2380 4951 1
2380 5700 1
2380 6128 1
2380 7104 1
2380 9089 1
2381 319 1
2381 1375 1
2381 1645 1
2381 2318 1
2381 2935 1
2381 4264 1
2381 4461 1
2381 9962 1
2382 352 1
2382 711 1
2382 965 1
2382 1420 1
2382 4119 1
2382 5542 1
2382 5635 1
2382 6585 1
2382 7911 1
2382 8552 1
2382 9007 1
2382 9908 1
2383 213 1
2383 313 1
2383 1261 1
2383 1457 1
2383 2750 1
2383 5618 1
2383 7351 1
2384 81 1
2384 570 1
2384 1228 1
2384 1599 1
2384 6524 1
2385 726 1
2385 845 1
2385 924 1
2385 1583 1
2385 2962 1
2385 3044 1
2385 3679 1
2385 8420 1
2385 8445 1
2386 192 1
2386 904 1
2386 1027 1
2386 1257 1
2386 3608 1
2386 3798 1
2386 4848 1
2386 7453 1
2386 8583 1
2387 198 1
2387 410 1
2387 1901 1
2387 2207 1
2387 2954 1
2387 3143 1
2387 3698 1
2387 4391 1
2387 5239 1
2387 5534 1
2387 6997 1
2387 8893 1
2387 9825 1
2388 1355 1
2388 2227 1
2388 2276 1
2388 2278 1
2388 6090 1
2388 7313 1
2388 8747 1
2388 9160 1
2389 58 1
2389 254 1
2389 430 1
2389 1364 1
2389 3135 1
2389 3864 1
2389 9274 1
2389 9424 1
2390 6 1
2390 49 1
2390 1261 1
2390 1873 1
2390 2547 1
2390 3030 1
2390 4773 1
2390 8860 1
2391 62 1
2391 339 1
2391 1218 1
2391 1270 1
2391 5500 1
2391 5744 1
2392 19 1
2392 1198 1
2392 1533 1
2392 1842 1
2392 2481 1
2392 3996 1
2392 4033 1
2392 4526 1
2392 4606 1
2392 4924 1
2392 5547 1
2392 6110 1
2392 8969 1
2392 9159 1
2393 13 1
2393 71 1
2393 288 1
2393 1147 1
2393 2507 1
2393 2705 1
2393 3894 1
2394 3 1
2394 6 1
2394 180 1
2394 1449 1
2394 2784 1
2394 2953 1
2394 6004 1
2394 7468 1
2395 108 1
2395 134 1
2395 1253 1
2395 2034 1
2395 2676 1
2395 3832 1
2395 4449 1
2395 4880 1
2395 5302 1
2395 5580 1
2395 8194 1
2395 8775 1
2396 45 1
2396 52 1
2396 125 1
2396 1482 1
2397 254 1
2397 1000 1
2397 1028 1
2397 1805 1
2398 51 1
2398 146 1
2398 306 1
2398 385 1
2398 2689 1
2398 3354 1
2398 5270 1
2398 7064 1
2398 8706 1
2399 72 1
2399 790 1
2399 1193 1
2399 1382 1
2399 3993 1
2399 4741 1
2399 4915 1
2399 8568 1
2400 5 1
2400 92 1
2400 264 1
2400 2380 1
2400 3188 1
2400 4234 1
2400 4458 1
2400 5254 1
2400 5563 1
2400 7017 1
2400 7623 1
2400 7978 1
2401 12 1
2401 14 1
2401 267 1
2401 403 1
2401 4594 1
2401 5280 1
2401 5950 1
2401 9818 1
2402 56 1
2402 160 1
2402 1161 1
2402 1498 1
2402 6205 1
2403 294 1
2403 586 1
2403 602 1
2403 913 1
2403 3682 1
2403 5210 1
2403 7301 1
2404 494 1
2404 1587 1
2404 1868 1
2404 2190 1
2404 2840 1
2404 5259 1
2404 6636 1
2405 96 1
2405 666 1
2405 1911 1
2405 2346 1
2405 3010 1
2405 3106 1
2405 5106 1
2405 8990 1
2406 614 1
2406 988 1
2406 1503 1
2406 2171 1
2406 2774 1
2406 2850 1
2406 5736 1
2407 76 1
2407 1737 1
2407 1757 1
2407 2117 1
2407 2537 1
2407 2567 1
2407 3778 1
2407 5200 1
2407 5450 1
2407 7448 1
2407 8266 1
2407 8282 1
2407 9325 1
2407 9519 1
2407 9609 1
2408 87 1
2408 535 1
2408 2010 1
2408 2355 1
2408 5973 1
2408 6029 1
2408 8229 1
2408 8805 1
2409 1052 1
2409 1168 1
2409 2099 1
2409 2359 1
2409 2584 1
2409 2711 1
2409 3119 1
2409 3123 1
2409 3167 1
2409 3226 1
2409 4364 1
2409 5312 1
2409 5329 1
2409 7457 1
2409 9885 1
2409 9917 1
2410 912 1
2410 1032 1
2410 1295 1
2410 2057 1
2410 2917 1
2410 3572 1
2410 6107 1
2410 7237 1
2410 8545 1
2410 8566 1
2411 174 1
2411 378 1
2411 1032 1
2411 2249 1
2411 2429 1
2411 3424 1
2411 4278 1
2411 4583 1
2411 5820 1
2411 8225 1
2412 33 1
2412 282 1
2412 531 1
2412 884 1
2412 4779 1
2413 49 1
2413 477 1
2413 1036 1
2413 1568 1
2413 4843 1
2413 6926 1
2413 9172 1
2414 5 1
2414 572 1
2414 1046 1
2414 1530 1
2414 8675 1
2414 9364 1
2415 12 1
2415 1311 1
2415 1813 1
2415 1940 1
2415 3966 1
2415 4178 1
2415 4632 1
2415 4853 1
2416 37 1
2416 212 1
2416 772 1
2416 952 1
2416 5643 1
2416 9450 1
2417 407 1
2417 1187 1
2417 1513 1
2417 2000 1
2417 5770 1
2417 9654 1
2417 9794 1
2418 12 1
2418 84 1
2418 1604 1
2418 2140 1
2418 3782 1
2418 3889 1
2418 6169 1
2418 6637 1
2418 7257 1
2418 9540 1
2419 10 1
2419 74 1
2419 323 1
2419 890 1
2419 6514 1
2419 7246 1
2420 461 1
2420 1099 1
2420 1442 1
2420 2205 1
2420 2490 1
2420 5311 1
2420 5848 1
2420 6101 1
2420 7523 1
2420 8068 1
2420 8637 1
2420 9551 1
2421 12 1
2421 19 1
2421 66 1
2421 1707 1
2421 2701 1
2422 97 1
2422 489 1
2422 2178 1
2422 2319 1
2422 3295 1
2422 7043 1
2422 7385 1
2422 7855 1
2423 24 1
2423 149 1
2423 285 1
2423 1779 1
2423 5954 1
2423 7702 1
2423 8400 1
2424 203 1
2424 481 1
2424 616 1
2424 1768 1
2424 6197 1
2424 8999 1
2425 351 1
2425 385 1
2425 1954 1
2425 2032 1
2425 2552 1
2425 2782 1
2425 2874 1
2425 4130 1
2425 4241 1
2425 6024 1
2425 8625 1
2425 8639 1
2426 663 1
2426 739 1
2426 1875 1
2426 2005 1
2426 3927 1
2426 4800 1
2426 6221 1
2426 6362 1
2426 7664 1
2426 8189 1
2426 8366 1
2426 8785 1
2426 9727 1
2427 34 1
2427 145 1
2427 424 1
2427 1206 1
2427 5199 1
2427 5722 1
2427 7081 1
2428 59 1
2428 63 1
2428 149 1
2428 1310 1
2428 3052 1
2428 3547 1
2428 3625 1
2428 3859 1
2428 4025 1
2428 5309 1
2428 5645 1
2428 7789 1
2428 8011 1
2428 8747 1
2428 9110 1
2429 68 1
2429 305 1
2429 2065 1
2429 2411 1
2429 6117 1
2429 6634 1
2429 7219 1
2430 164 1
2430 783 1
2430 1224 1
2430 1420 1
2430 2481 1
2430 2883 1
2430 2940 1
2430 5116 1
2430 5198 1
2430 5416 1
2430 8375 1
2430 8378 1
2431 95 1
2431 138 1
2431 141 1
2431 1248 1
2431 4843 1
2431 6831 1
2431 9039 1
2432 201 1
2432 359 1
2432 506 1
2432 1912 1
2432 2832 1
2432 3437 1
2432 4000 1
2432 8121 1
2433 42 1
2433 149 1
2433 753 1
2433 1505 1
2433 3696 1
2433 7341 1
2433 8527 1
2434 191 1
2434 388 1
2434 796 1
2434 1244 1
2434 3315 1
2434 4959 1
2434 9358 1
2435 11 1
2435 233 1
2435 313 1
2435 435 1
2435 8647 1
2436 581 1
2436 668 1
2436 1089 1
2436 1950 1
2436 2592 1
2436 3626 1
2436 3671 1
2436 6424 1
2437 1 1
2437 63 1
2437 1212 1
2437 1293 1
2437 3275 1
2437 3446 1
2437 3456 1
2437 4427 1
2437 7841 1
2437 7864 1
2437 7970 1
2437 9241 1
2437 9468 1
2438 696 1
2438 1272 1
2438 2107 1
2438 2274 1
2439 387 1
2439 422 1
2439 634 1
2439 2016 1
2440 190 1
2440 632 1
2440 669 1
2440 1636 1
2440 3889 1
2440 5239 1
2440 5520 1
2440 5760 1
2440 6398 1
2441 313 1
2441 594 1
2441 1682 1
2441 2248 1
2441 2490 1
2442 134 1
2442 527 1
2442 1306 1
2442 1971 1
2442 3680 1
2442 3769 1
2442 3867 1
2442 5134 1
2442 5228 1
2442 5914 1
2442 7506 1
2442 9611 1
2443 172 1
2443 793 1
2443 1607 1
2443 2202 1
2443 3813 1
2443 4830 1
2443 5785 1
2443 6856 1
2443 7463 1
2443 8217 1
2443 8797 1
2444 125 1
2444 191 1
2444 739 1
2444 888 1
2444 2626 1
2444 4005 1
2444 7529 1
2444 7624 1
2444 8374 1
2444 8510 1
2444 9391 1
2444 9550 1
2444 9667 1
2445 28 1
2445 83 1
2445 409 1
2445 1984 1
2445 2569 1
2445 4504 1
2445 4956 1
2445 5250 1
2445 9811 1
2446 37 1
2446 203 1
2446 1044 1
2446 1609 1
2446 2796 1
2446 3733 1
2446 5640 1
2446 6022 1
2446 6389 1
2446 6690 1
2446 6863 1
2446 6865 1
2447 104 1
2447 229 1
2447 328 1
2447 651 1
2447 2785 1
2447 4688 1
2447 7000 1
2447 7923 1
2447 8340 1
2448 5 1
2448 33 1
2448 953 1
2448 1502 1
2448 2679 1
2449 696 1
2449 987 1
2449 1133 1
2449 1151 1
2449 2737 1
2449 3543 1
2449 4413 1
2449 5306 1
2449 5924 1
2449 7434 1
2449 9124 1
2450 667 1
2450 1671 1
2450 1766 1
2450 2247 1
2450 4309 1
2450 5622 1
2450 7718 1
2451 27 1
2451 295 1
2451 772 1
2451 1114 1
2451 2572 1
2451 2758 1
2451 3213 1
2451 5201 1
2451 5452 1
2451 7559 1
2451 7654 1
2452 126 1
2452 359 1
2452 438 1
2452 1633 1
2452 2568 1
2452 3442 1
2452 3673 1
2452 3771 1
2452 4494 1
2452 6971 1
2452 8526 1
2453 26 1
2453 52 1
2453 305 1
2453 2282 1
2453 3697 1
2453 5648 1
2453 9374 1
2454 22 1
2454 441 1
2454 555 1
2454 592 1
2454 2523 1
2454 3047 1
2454 6532 1
2454 8171 1
2454 8252 1
2454 9364 1
2455 127 1
2455 381 1
2455 625 1
2455 1701 1
2455 3377 1
2455 4810 1
2455 5396 1
2455 6400 1
2456 188 1
2456 868 1
2456 1527 1
2456 2320 1
2456 3981 1
2456 4753 1
2456 6826 1
2456 7847 1
2456 7863 1
2456 8455 1
2457 81 1
2457 775 1
2457 1312 1
2457 1797 1
2457 3580 1
2457 3809 1
2457 3835 1
2458 46 1
2458 100 1
2458 117 1
2458 1835 1
2458 2560 1
2458 3533 1
2458 4493 1
2458 5639 1
2458 6605 1
2458 7158 1
2459 22 1
2459 335 1
2459 1154 1
2459 1373 1
2459 4512 1
2459 6668 1
2460 6 1
2460 1025 1
2460 1147 1
2460 1174 1
2460 3926 1
2460 4508 1
2460 7033 1
2461 1 1
2461 165 1
2461 375 1
2461 1581 1
2461 2526 1
2461 4933 1
2461 5548 1
2461 6588 1
2461 7997 1
2462 13 1
2462 16 1
2462 30 1
2462 1148 1
2462 2814 1
2462 4932 1
2462 7495 1
2463 288 1
2463 599 1
2463 749 1
2463 761 1
2463 2987 1
2463 8532 1
2464 37 1
2464 127 1
2464 575 1
2464 740 1
2464 3085 1
2464 9048 1
2465 306 1
2465 1137 1
2465 1390 1
2465 2109 1
2465 5192 1
2466 31 1
2466 628 1
2466 766 1
2466 1322 1
2466 4847 1
2466 8154 1
2466 9221 1
2467 13 1
2467 256 1
2467 560 1
2467 2132 1
2467 4195 1
2468 278 1
2468 867 1
2468 1352 1
2468 2311 1
2468 4618 1
2468 4836 1
2468 5582 1
2468 8265 1
2469 166 1
2469 598 1
2469 840 1
2469 1860 1
2469 2968 1
2469 3923 1
2469 4683 1
2469 5018 1
2469 5086 1
2469 6293 1
2469 7159 1
2469 9527 1
2470 1074 1
2470 1207 1
2470 1558 1
2470 2232 1
2470 5367 1
2470 7578 1
2470 9982 1
2471 549 1
2471 826 1
2471 1529 1
2471 2007 1
2471 2570 1
2471 6801 1
2471 8403 1
2471 9825 1
2472 74 1
2472 147 1
2472 1924 1
2472 1987 1
2472 2940 1
2472 3328 1
2472 3466 1
2472 3529 1
2472 5392 1
2472 6524 1
2472 6983 1
2472 6994 1
2473 141 1
2473 491 1
2473 1053 1
2473 2134 1
2473 9265 1
2473 9724 1
2473 9789 1
2474 930 1
2474 1264 1
2474 1850 1
2474 1972 1
2474 2917 1
2474 4432 1
2474 5724 1
2474 9132 1
2475 14 1
2475 21 1
2475 100 1
2475 630 1
2475 4040 1
2475 4046 1
2475 4672 1
2475 6816 1
2475 8433 1
2475 9532 1
2475 9572 1
2475 9713 1
2476 31 1
2476 637 1
2476 706 1
2476 2131 1
2476 4131 1
2476 5142 1
2476 5787 1
2476 7102 1
2476 8228 1
2477 7 1
2477 17 1
2477 779 1
2477 2139 1
2477 5776 1
2478 91 1
2478 1301 1
2478 1528 1
2478 1911 1
2478 2680 1
2478 3951 1
2478 4009 1
2478 6838 1
2478 7509 1
2478 8591 1
2479 92 1
2479 220 1
2479 934 1
2479 1004 1
2479 7947 1
2480 30 1
2480 651 1
2480 685 1
2480 2244 1
2480 2813 1
2480 6456 1
2480 6624 1
2480 6769 1
2480 7712 1
2481 399 1
2481 1460 1
2481 2392 1
2481 2430 1
2481 4509 1
2481 5392 1
2481 7526 1
2482 731 1
2482 1007 1
2482 1201 1
2482 2119 1
2482 3907 1
2482 7204 1
2482 7229 1
2482 9790 1
2483 135 1
2483 540 1
2483 597 1
2483 702 1
2483 2936 1
2483 4102 1
2483 7924 1
2484 42 1
2484 606 1
2484 1162 1
2484 1763 1
2484 4630 1
2484 4956 1
2484 5195 1
2484 7586 1
2484 8703 1
2485 2 1
2485 14 1
2485 176 1
2485 833 1
2485 2598 1
2485 2653 1
2485 3027 1
2485 4764 1
2485 5050 1
2485 5825 1
2485 5831 1
2485 5984 1
2485 7153 1
2485 7507 1
2485 7663 1
2486 84 1
2486 272 1
2486 390 1
2486 922 1
2486 3483 1
2486 4630 1
2486 4731 1
2486 5236 1
2486 8008 1
2486 8457 1
2486 8664 1
2487 197 1
2487 498 1
2487 854 1
2487 2126 1
2488 335 1
2488 850 1
2488 880 1
2488 1531 1
2488 2977 1
2488 3279 1
2488 3376 1
2488 4516 1
2488 4798 1
2488 5095 1
2489 719 1
2489 738 1
2489 1505 1
2489 1523 1
2489 2694 1
2489 3369 1
2489 7203 1
2489 7604 1
2489 9897 1
2490 1792 1
2490 1868 1
2490 2420 1
2490 2441 1
2490 3249 1
2490 6199 1
2490 9795 1
2491 508 1
2491 963 1
2491 1119 1
2491 2204 1
2491 3186 1
2491 6776 1
2492 6 1
2492 235 1
2492 309 1
2492 446 1
2492 3671 1
2492 4810 1
2492 7002 1
2493 3 1
2493 220 1
2493 373 1
2493 1088 1
2493 4093 1
2493 4870 1
2493 5918 1
2493 6067 1
2493 6761 1
2494 10 1
2494 756 1
2494 1539 1
2494 1748 1
2494 3853 1
2494 4489 1
2494 4764 1
2495 30 1
2495 85 1
2495 1609 1
2495 1663 1
2495 4134 1
2495 5457 1
2495 6500 1
2495 6708 1
2495 9281 1
2496 49 1
2496 172 1
2496 415 1
2496 1709 1
2496 2562 1
2496 2691 1
2496 3096 1
2496 6429 1
2496 7875 1
2496 8441 1
2497 6 1
2497 282 1
2497 596 1
2497 1292 1
2497 3435 1
2497 4821 1
2497 7822 1
2497 9480 1
2498 26 1
2498 572 1
2498 1412 1
2498 1435 1
2498 3160 1
2498 5446 1
2498 8781 1
2499 798 1
2499 868 1
2499 1008 1
2499 1088 1
2499 2582 1
2499 3393 1
2499 4334 1
2499 5285 1
2499 5634 1
2499 7186 1
2499 8355 1
2500 419 1
2500 1031 1
2500 1410 1
2500 1893 1
2500 7068 1
2501 32 1
2501 601 1
2501 989 1
2501 1710 1
2501 3100 1
2501 4603 1
2501 5926 1
2501 7969 1
2501 8172 1
2501 9793 1
2502 319 1
2502 718 1
2502 1179 1
2502 1426 1
2502 3045 1
2502 5818 1
2502 6466 1
2503 3 1
2503 135 1
2503 845 1
2503 1204 1
2503 2692 1
2503 5270 1
2503 6044 1
2503 6061 1
2503 6433 1
2503 6819 1
2503 7291 1
2503 8300 1
2503 9895 1
2504 93 1
2504 523 1
2504 1042 1
2504 1086 1
2504 2622 1
2504 3131 1
2504 4473 1
2504 9836 1
2505 28 1
2505 105 1
2505 239 1
2505 287 1
2505 3502 1
2505 3540 1
2505 4267 1
2505 5470 1
2505 7237 1
2505 7813 1
2505 7899 1
2505 8496 1
2505 9381 1
2506 542 1
2506 758 1
2506 1442 1
2506 1578 1
2506 8201 1
2507 6 1
2507 285 1
2507 1520 1
2507 2393 1
2507 5855 1
2507 8449 1
2507 8736 1
2507 9005 1
2507 9053 1
2508 671 1
2508 1482 1
2508 1682 1
2508 1693 1
2508 3109 1
2509 28 1
2509 64 1
2509 1009 1
2509 1929 1
2509 5160 1
2510 11 1
2510 43 1
2510 632 1
2510 2136 1
2510 3360 1
2510 5249 1
2511 250 1
2511 601 1
2511 1541 1
2511 2312 1
2511 5423 1
2511 8091 1
2512 1 1
2512 27 1
2512 258 1
2512 321 1
2512 3230 1
2512 3387 1
2512 4372 1
2512 5750 1
2512 9251 1
2513 13 1
2513 26 1
2513 79 1
2513 382 1
2513 2702 1
2513 2954 1
2513 8289 1
2514 39 1
2514 142 1
2514 1222 1
2514 2290 1
2514 4664 1
2514 6850 1
2514 7133 1
2514 8819 1
2515 124 1
2515 167 1
2515 812 1
2515 1107 1
2515 2769 1
2515 4018 1
2515 4575 1
2515 5371 1
2516 527 1
2516 900 1
2516 1206 1
2516 2043 1
2516 4326 1
2516 6076 1
2516 6224 1
2516 7880 1
2516 9970 1
2517 4 1
2517 105 1
2517 120 1
2517 1451 1
2517 6159 1
2517 6526 1
2517 8695 1
2518 1 1
2518 209 1
2518 677 1
2518 1336 1
2518 2651 1
2518 3564 1
2518 4277 1
2518 6518 1
2518 6798 1
2518 8933 1
2519 20 1
2519 86 1
2519 103 1
2519 356 1
2519 4084 1
2519 4973 1
2519 5569 1
2519 5895 1
2519 8794 1
2520 220 1
2520 227 1
2520 566 1
2520 1468 1
2520 2666 1
2520 2991 1
2520 4692 1
2520 4779 1
2520 5044 1
2520 6325 1
2520 9557 1
2521 244 1
2521 813 1
2521 1890 1
2521 2009 1
2521 3598 1
2521 4131 1
2521 7326 1
2521 7473 1
2522 176 1
2522 177 1
2522 438 1
2522 1848 1
2522 3597 1
2522 3682 1
2522 5215 1
2522 6187 1
2522 8635 1
2523 760 1
2523 1874 1
2523 2357 1
2523 2454 1
2523 4048 1
2523 5733 1
2524 189 1
2524 307 1
2524 706 1
2524 1082 1
2524 2873 1
2524 3097 1
2524 5293 1
2524 6176 1
2524 6839 1
2524 8475 1
2524 9978 1
2525 143 1
2525 718 1
2525 864 1
2525 1297 1
2525 2952 1
2525 8095 1
2526 2 1
2526 33 1
2526 1058 1
2526 2461 1
2526 5007 1
2526 5775 1
2526 5948 1
2526 6575 1
2527 6 1
2527 676 1
2527 1689 1
2527 1867 1
2527 2654 1
2527 4140 1
2527 4792 1
2527 4811 1
2527 8100 1
2528 5 1
2528 99 1
2528 299 1
2528 460 1
2528 6298 1
2528 8686 1
2528 9060 1
2528 9681 1
2529 16 1
2529 1161 1
2529 1415 1
2529 2070 1
2529 4582 1
2530 14 1
2530 894 1
2530 1003 1
2530 1945 1
2530 2571 1
2530 2798 1
2530 4495 1
2530 4782 1
2530 5131 1
2530 5152 1
2530 7026 1
2530 7402 1
2530 9661 1
2531 46 1
2531 1333 1
2531 1702 1
2531 2141 1
2531 3563 1
2531 6071 1
2531 7895 1
2532 216 1
2532 635 1
2532 1634 1
2532 1952 1
2532 2679 1
2532 2973 1
2532 4150 1
2532 5769 1
2532 5958 1
2532 6594 1
2532 7757 1
2532 8543 1
2532 8671 1
2532 9424 1
2533 89 1
2533 404 1
2533 1563 1
2533 1918 1
2533 5219 1
2533 8157 1
2534 27 1
2534 233 1
2534 436 1
2534 515 1
2534 5586 1
2535 331 1
2535 458 1
2535 754 1
2535 1639 1
2535 2670 1
2535 2720 1
2535 9068 1
2536 358 1
2536 460 1
2536 1567 1
2536 2338 1
2536 3588 1
2537 330 1
2537 563 1
2537 993 1
2537 2407 1
2538 281 1
2538 289 1
2538 381 1
2538 1066 1
2538 7191 1
2538 8525 1
2539 477 1
2539 643 1
2539 749 1
2539 2111 1
2539 5354 1
2539 7123 1
2540 42 1
2540 204 1
2540 526 1
2540 1923 1
2540 3651 1
2540 3809 1
2540 4506 1
2540 5277 1
2540 6229 1
2540 7063 1
2540 7584 1
2541 157 1
2541 416 1
2541 759 1
2541 2119 1
2542 13 1
2542 42 1
2542 95 1
2542 840 1
2542 5153 1
2542 5331 1
2542 5404 1
2542 5862 1
2542 7274 1
2542 8063 1
2543 83 1
2543 147 1
2543 204 1
2543 1543 1
2543 3670 1
2543 4004 1
2543 5426 1
2543 5877 1
2543 7436 1
2543 9397 1
2544 194 1
2544 1309 1
2544 1395 1
2544 1513 1
2544 4608 1
2544 5210 1
2544 5758 1
2544 7254 1
2544 7351 1
2545 8 1
2545 31 1
2545 417 1
2545 845 1
2545 2664 1
2545 3323 1
2545 5522 1
2545 6448 1
2545 7667 1
2546 10 1
2546 190 1
2546 440 1
2546 530 1
2546 3915 1
2546 6312 1
2546 7859 1
2547 63 1
2547 118 1
2547 477 1
2547 2390 1
2547 2961 1
2547 3429 1
2547 8395 1
2547 9387 1
2548 8 1
2548 122 1
2548 163 1
2548 1828 1
2548 2551 1
2548 3843 1
2548 5233 1
2548 7206 1
2549 101 1
2549 115 1
2549 176 1
2549 1362 1
2549 3954 1
2549 4117 1
2549 4437 1
2549 6540 1
2549 8606 1
2549 8632 1
2550 139 1
2550 198 1
2550 1091 1
2550 1246 1
2550 2695 1
2550 2776 1
2550 4048 1
2550 5895 1
2550 8043 1
2551 106 1
2551 498 1
2551 524 1
2551 2548 1
2551 6049 1
2552 37 1
2552 563 1
2552 2136 1
2552 2425 1
2552 2865 1
2552 5456 1
2552 6413 1
2553 104 1
2553 611 1
2553 1601 1
2553 1788 1
2553 3760 1
2554 179 1
2554 185 1
2554 205 1
2554 1540 1
2554 2795 1
2554 3132 1
2554 3502 1
2554 6788 1
2554 8940 1
2555 150 1
2555 358 1
2555 441 1
2555 2274 1
2555 4801 1
2555 4877 1
2555 5477 1
2555 7500 1
2555 7818 1
2555 8536 1
2556 1 1
2556 343 1
2556 1126 1
2556 2152 1
2556 3205 1
2556 3471 1
2556 3902 1
2556 4473 1
2556 4837 1
2556 5579 1
2556 5587 1
2556 7174 1
2556 7180 1
2556 9232 1
2556 9797 1
2557 97 1
2557 98 1
2557 118 1
2557 278 1
2557 4359 1
2557 7893 1
2558 6 1
2558 188 1
2558 267 1
2558 2199 1
2558 4895 1
2558 9089 1
2559 10 1
2559 117 1
2559 138 1
2559 432 1
2559 3068 1
2559 3423 1
2559 6600 1
2559 6828 1
2560 711 1
2560 725 1
2560 1568 1
2560 2458 1
2560 3537 1
2560 4399 1
2560 5261 1
2560 5946 1
2561 563 1
2561 945 1
2561 1367 1
2561 1797 1
2561 2738 1
2561 2792 1
2561 2794 1
2561 3331 1
2561 3497 1
2561 4001 1
2561 4501 1
2561 5826 1
2561 6037 1
2561 8011 1
2561 8215 1
2561 9926 1
2562 25 1
2562 185 1
2562 1401 1
2562 2496 1
2562 2877 1
2562 5734 1
2563 17 1
2563 19 1
2563 896 1
2563 2371 1
2563 3221 1
2563 6433 1
2563 9019 1
2563 9142 1
2564 216 1
2564 222 1
2564 856 1
2564 1530 1
2564 3609 1
2564 4567 1
2564 4606 1
2564 5098 1
2564 6266 1
2564 6703 1
2564 6984 1
2564 7374 1
2564 9426 1
2564 9598 1
2565 81 1
2565 84 1
2565 323 1
2565 2366 1
2565 8288 1
2566 294 1
2566 785 1
2566 822 1
2566 1929 1
2566 4738 1
2566 6723 1
2567 89 1
2567 219 1
2567 1032 1
2567 2407 1
2567 5344 1
2567 7125 1
2567 7897 1
2567 7964 1
2567 8003 1
2568 28 1
2568 116 1
2568 578 1
2568 2452 1
2568 2876 1
2568 3878 1
2568 3994 1
2569 578 1
2569 711 1
2569 894 1
2569 2445 1
2569 5234 1
2569 6260 1
2569 9802 1
2570 95 1
2570 105 1
2570 171 1
2570 2471 1
2570 2668 1
2570 4833 1
2570 5019 1
2570 5269 1
2570 5382 1
2570 5702 1
2570 6592 1
2570 7697 1
2570 8491 1
2571 17 1
2571 1079 1
2571 1737 1
2571 2530 1
2571 5453 1
2571 5840 1
2572 120 1
2572 2111 1
2572 2325 1
2572 2451 1
2572 5344 1
2573 117 1
2573 134 1
2573 297 1
2573 814 1
2573 3402 1
2573 5117 1
2573 5292 1
2573 5447 1
2573 5745 1
2573 6819 1
2573 8700 1
2574 270 1
2574 1230 1
2574 1609 1
2574 2288 1
2574 2981 1
2574 3455 1
2574 3842 1
2574 7266 1
2574 8039 1
2575 43 1
2575 519 1
2575 1165 1
2575 1995 1
2575 2655 1
2575 2800 1
2575 9288 1
2576 573 1
2576 647 1
2576 777 1
2576 1274 1
2576 4949 1
2576 7541 1
2576 9826 1
2577 116 1
2577 129 1
2577 1255 1
2577 1539 1
2577 2845 1
2577 3834 1
2577 5558 1
2577 5617 1
2577 6100 1
2577 7624 1
2577 9374 1
2577 9541 1
2578 14 1
2578 203 1
2578 714 1
2578 981 1
2578 4380 1
2578 4931 1
2578 5176 1
2578 5552 1
2579 76 1
2579 129 1
2579 341 1
2579 1315 1
2579 4551 1
2579 4644 1
2579 4687 1
2579 8229 1
2580 57 1
2580 771 1
2580 1530 1
2580 2152 1
2580 3126 1
2580 3175 1
2580 5551 1
2580 6051 1
2580 8609 1
2581 167 1
2581 201 1
2581 2007 1
2581 2352 1
2581 3207 1
2581 4037 1
2581 4371 1
2581 5110 1
2581 6102 1
2581 7254 1
2581 7602 1
2581 9197 1
2582 388 1
2582 1444 1
2582 1623 1
2582 2499 1
2582 3838 1
2582 8315 1
2583 8 1
2583 409 1
2583 996 1
2583 1339 1
2583 4011 1
2583 5694 1
2583 7269 1
2583 8584 1
2584 426 1
2584 923 1
2584 1079 1
2584 2409 1
2584 3204 1
2584 3679 1
2584 3761 1
2584 4133 1
2584 8899 1
2585 73 1
2585 173 1
2585 400 1
2585 493 1
2585 4003 1
2585 4600 1
2585 6308 1
2585 6942 1
2585 7171 1
2585 7434 1
2586 6 1
2586 1758 1
2586 2063 1
2586 2202 1
2586 2634 1
2586 3334 1
2586 3385 1
2586 4745 1
2586 5795 1
2586 9470 1
2587 51 1
2587 421 1
2587 1611 1
2587 2111 1
2587 3065 1
2587 4388 1
2587 4598 1
2587 6037 1
2588 188 1
2588 413 1
2588 759 1
2588 2013 1
2588 2701 1
2588 3528 1
2588 3916 1
2588 4784 1
2588 5666 1
2588 7826 1
2589 493 1
2589 719 1
2589 1082 1
2589 2214 1
2589 4304 1
2589 5517 1
2589 6783 1
2589 7859 1
2590 163 1
2590 303 1
2590 1425 1
2590 1458 1
2590 2605 1
2590 2606 1
2590 3177 1
2590 4687 1
2590 7441 1
2590 8378 1
2591 277 1
2591 1063 1
2591 1547 1
2591 2197 1
2591 3471 1
2591 4646 1
2591 4853 1
2591 4967 1
2591 6196 1
2591 7561 1
2591 8708 1
2591 9472 1
2592 443 1
2592 1091 1
2592 1634 1
2592 2436 1
2592 8845 1
2593 43 1
2593 229 1
2593 267 1
2593 2201 1
2593 5428 1
2593 6279 1
2593 6370 1
2593 6802 1
2593 8406 1
2594 6 1
2594 379 1
2594 1253 1
2594 2345 1
2594 3663 1
2594 5706 1
2594 7146 1
2594 7928 1
2594 8388 1
2595 49 1
2595 194 1
2595 388 1
2595 963 1
2595 2934 1
2595 3147 1
2595 3397 1
2595 4996 1
2595 5637 1
2595 6377 1
2595 6647 1
2596 236 1
2596 402 1
2596 550 1
2596 1898 1
2596 6047 1
2596 7624 1
2596 8911 1
2596 9648 1
2597 1 1
2597 310 1
2597 502 1
2597 2196 1
2598 11 1
2598 52 1
2598 1240 1
2598 2485 1
2598 6286 1
2598 7270 1
2598 7713 1
2599 27 1
2599 313 1
2599 1923 1
2599 1977 1
2599 3783 1
2599 3923 1
2599 4977 1
2599 5975 1
2599 6294 1
2599 6817 1
2599 7779 1
2600 13 1
2600 49 1
2600 1051 1
2600 1092 1
2600 7078 1
2601 29 1
2601 940 1
2601 1888 1
2601 2084 1
2601 5294 1
2602 51 1
2602 775 1
2602 987 1
2602 1281 1
2602 3939 1
2602 3981 1
2602 6495 1
2602 9587 1
2602 9824 1
2603 58 1
2603 416 1
2603 1338 1
2603 2201 1
2603 3201 1
2603 3789 1
2603 4960 1
2604 1091 1
2604 1315 1
2604 1941 1
2604 2310 1
2604 2835 1
2604 2985 1
2604 3228 1
2604 4479 1
2604 5762 1
2604 6505 1
2604 6679 1
2604 7139 1
2604 8599 1
2605 289 1
2605 531 1
2605 711 1
2605 2590 1
2605 4658 1
2606 188 1
2606 1300 1
2606 1803 1
2606 2590 1
2606 2900 1
2606 7545 1
2606 8482 1
2607 74 1
2607 95 1
2607 333 1
2607 1953 1
2607 2885 1
2607 2997 1
2607 4609 1
2607 4923 1
2607 5723 1
2608 30 1
2608 118 1
2608 918 1
2608 1540 1
2608 3041 1
2608 3179 1
2608 3611 1
2608 4790 1
2608 6122 1
2608 6284 1
2608 7188 1
2609 83 1
2609 329 1
2609 765 1
2609 1885 1
2609 2784 1
2609 6321 1
2609 7106 1
2609 7741 1
2609 8738 1
2610 43 1
2610 451 1
2610 868 1
2610 1822 1
2610 7990 1
2611 47 1
2611 148 1
2611 374 1
2611 678 1
2611 2971 1
2611 3860 1
2611 5542 1
2612 229 1
2612 237 1
2612 1376 1
2612 1634 1
2612 3384 1
2613 142 1
2613 403 1
2613 764 1
2613 885 1
2613 3826 1
2613 4205 1
2613 4685 1
2613 8552 1
2614 411 1
2614 690 1
2614 1140 1
2614 1620 1
2614 6234 1
2614 9487 1
2614 9907 1
2615 43 1
2615 845 1
2615 1608 1
2615 1848 1
2615 4530 1
2615 5081 1
2615 8999 1
2616 287 1
2616 414 1
2616 1204 1
2616 2176 1
2616 3810 1
2616 5750 1
2616 6090 1
2616 7892 1
2616 8665 1
2616 9728 1
2617 39 1
2617 571 1
2617 1265 1
2617 2303 1
2617 3963 1
2617 5729 1
2618 26 1
2618 65 1
2618 735 1
2618 1178 1
2618 7356 1
2618 8418 1
2618 8561 1
2619 173 1
2619 403 1
2619 444 1
2619 926 1
2619 2647 1
2619 4449 1
2619 4572 1
2619 7038 1
2619 7152 1
2620 95 1
2620 120 1
2620 347 1
2620 2357 1
2620 2807 1
2620 5212 1
2620 6224 1
2620 6892 1
2620 7821 1
2620 8332 1
2620 8390 1
2620 8487 1
2621 185 1
2621 815 1
2621 956 1
2621 1433 1
2621 5376 1
2621 5652 1
2621 7163 1
2621 8484 1
2621 8594 1
2621 8797 1
2621 9524 1
2622 80 1
2622 220 1
2622 1620 1
2622 2504 1
2622 3770 1
2622 4587 1
2622 5872 1
2622 7024 1
2622 7583 1
2622 8110 1
2623 30 1
2623 668 1
2623 804 1
2623 1957 1
2623 3102 1
2623 4737 1
2623 4960 1
2623 7719 1
2623 7889 1
2624 19 1
2624 724 1
2624 1093 1
2624 2139 1
2624 2752 1
2624 4446 1
2624 5042 1
2624 5751 1
2624 6603 1
2624 8934 1
2624 8962 1
2625 227 1
2625 791 1
2625 1400 1
2625 2197 1
2625 5448 1
2626 14 1
2626 341 1
2626 718 1
2626 2444 1
2626 6899 1
2627 845 1
2627 1443 1
2627 1576 1
2627 2006 1
2627 2691 1
2627 3926 1
2627 4041 1
2627 4810 1
2627 4972 1
2627 5240 1
2627 6907 1
2627 9246 1
2627 9676 1
2628 12 1
2628 882 1
2628 1180 1
2628 2084 1
2628 4919 1
2628 5390 1
2628 5560 1
2628 9884 1
2629 56 1
2629 57 1
2629 1763 1
2629 2061 1
2629 9542 1
2629 9873 1
2630 17 1
2630 891 1
2630 2188 1
2630 2220 1
2630 3449 1
2630 3947 1
2630 4164 1
2630 5363 1
2630 6448 1
2630 7768 1
2630 7788 1
2631 97 1
2631 193 1
2631 339 1
2631 501 1
2632 115 1
2632 632 1
2632 739 1
2632 969 1
2632 2923 1
2632 6979 1
2632 8293 1
2632 9592 1
2633 301 1
2633 516 1
2633 1193 1
2633 2019 1
2633 9586 1
2634 378 1
2634 688 1
2634 1050 1
2634 2586 1
2634 3814 1
2635 29 1
2635 481 1
2635 904 1
2635 1263 1
2635 4110 1
2635 4797 1
2635 5460 1
2635 5791 1
2636 58 1
2636 108 1
2636 162 1
2636 289 1
2636 3896 1
2636 3913 1
2636 4245 1
2636 4250 1
2636 4286 1
2636 6110 1
2636 6808 1
2636 7583 1
2636 8958 1
2636 9179 1
2636 9980 1
2637 7 1
2637 83 1
2637 838 1
2637 1987 1
2637 2790 1
2637 5039 1
2637 5093 1
2637 7196 1
2638 169 1
2638 1117 1
2638 1465 1
2638 1692 1
2638 9284 1
2638 9815 1
2639 26 1
2639 122 1
2639 278 1
2639 814 1
2639 3585 1
2639 7357 1
2639 7870 1
2639 8857 1
2639 8858 1
2640 102 1
2640 403 1
2640 759 1
2640 1580 1
2640 4487 1
2640 5341 1
2640 5528 1
2640 6956 1
2640 7134 1
2641 219 1
2641 506 1
2641 983 1
2641 1187 1
2641 3783 1
2642 587 1
2642 1460 1
2642 1766 1
2642 1927 1
2642 4802 1
2643 120 1
2643 166 1
2643 254 1
2643 329 1
2643 2697 1
2643 3532 1
2643 4549 1
2643 5052 1
2643 5507 1
2643 8290 1
2644 43 1
2644 45 1
2644 323 1
2644 1561 1
2645 172 1
2645 446 1
2645 803 1
2645 1041 1
2645 2815 1
2645 2989 1
2645 3279 1
2645 5137 1
2645 5592 1
2645 6733 1
2645 6909 1
2645 9980 1
2646 626 1
2646 637 1
2646 884 1
2646 1728 1
2646 7099 1
2646 9085 1
2646 9306 1
2647 110 1
2647 281 1
2647 933 1
2647 2619 1
2647 2982 1
2647 4004 1
2647 6693 1
2647 7716 1
2647 9239 1
2648 615 1
2648 1285 1
2648 1753 1
2648 2125 1
2648 3156 1
2648 3359 1
2648 3499 1
2648 4485 1
2648 5113 1
2648 7025 1
2648 7664 1
2648 8142 1
2648 8606 1
2649 20 1
2649 1839 1
2649 1850 1
2649 2190 1
2649 5893 1
2649 5909 1
2649 7227 1
2649 9326 1
2650 519 1
2650 892 1
2650 1253 1
2650 2189 1
2650 3038 1
2650 3216 1
2650 3692 1
2650 4357 1
2650 6985 1
2650 7565 1
2650 7868 1
2650 7918 1
2650 8880 1
2650 9167 1
2650 9561 1
2651 433 1
2651 601 1
2651 688 1
2651 2518 1
2651 3344 1
2651 3673 1
2651 4294 1
2651 6161 1
2651 7462 1
2651 9262 1
2652 54 1
2652 194 1
2652 898 1
2652 932 1
2652 6413 1
2652 9279 1
2653 25 1
2653 2080 1
2653 2124 1
2653 2485 1
2653 5816 1
2653 6246 1
2654 275 1
2654 982 1
2654 1225 1
2654 2527 1
2654 4292 1
2654 5121 1
2654 6156 1
2655 55 1
2655 730 1
2655 796 1
2655 2575 1
2655 2822 1
2655 7020 1
2655 8183 1
2656 9 1
2656 10 1
2656 85 1
2656 527 1
2656 2726 1
2657 204 1
2657 267 1
2657 523 1
2657 577 1
2658 936 1
2658 1074 1
2658 1407 1
2658 1725 1
2658 4231 1
2658 5199 1
2658 5372 1
2658 5844 1
2658 6296 1
2659 34 1
2659 322 1
2659 867 1
2659 2355 1
2659 4585 1
2659 5581 1
2659 9099 1
2659 9636 1
2660 28 1
2660 110 1
2660 1461 1
2660 2037 1
2660 2740 1
2661 45 1
2661 1259 1
2661 2153 1
2661 2254 1
2661 3316 1
2661 4080 1
2661 4485 1
2662 140 1
2662 687 1
2662 754 1
2662 1775 1
2663 27 1
2663 371 1
2663 1550 1
2663 2212 1
2663 6442 1
2663 6660 1
2663 7101 1
2664 5 1
2664 1914 1
2664 2298 1
2664 2545 1
2664 2794 1
2664 6483 1
2664 6756 1
2664 6768 1
2664 6941 1
2664 7328 1
2664 7641 1
2665 182 1
2665 536 1
2665 704 1
2665 1027 1
2665 3711 1
2665 4471 1
2665 5610 1
2665 9109 1
2666 6 1
2666 58 1
2666 1171 1
2666 2520 1
2666 6620 1
2666 7118 1
2666 8546 1
2667 833 1
2667 873 1
2667 1387 1
2667 1924 1
2667 9634 1
2668 91 1
2668 1077 1
2668 2004 1
2668 2570 1
2668 5860 1
2669 1 1
2669 69 1
2669 136 1
2669 1337 1
2669 2895 1
2669 3547 1
2669 3850 1
2669 4543 1
2669 4854 1
2669 9475 1
2670 361 1
2670 680 1
2670 1085 1
2670 2535 1
2670 4002 1
2670 4795 1
2670 7121 1
2670 7730 1
2670 9218 1
2671 116 1
2671 907 1
2671 1569 1
2671 1696 1
2671 6786 1
2671 7705 1
2672 64 1
2672 758 1
2672 817 1
2672 2044 1
2672 3378 1
2672 6530 1
2672 7812 1
2673 1 1
2673 2 1
2673 290 1
2673 495 1
2673 2812 1
2673 3073 1
2673 3282 1
2673 3922 1
2673 5396 1
2673 6610 1
2673 7855 1
2673 8225 1
2673 9016 1
2673 9250 1
2674 256 1
2674 390 1
2674 470 1
2674 534 1
2674 3345 1
2674 3604 1
2674 4737 1
2674 6951 1
2674 7509 1
2675 121 1
2675 807 1
2675 1780 1
2675 2263 1
2675 4294 1
2675 4403 1
2675 4696 1
2675 5367 1
2675 7055 1
2675 8227 1
2676 149 1
2676 1069 1
2676 1237 1
2676 2395 1
2676 3541 1
2676 3592 1
2676 4151 1
2676 4203 1
2676 4288 1
2676 4969 1
2676 5413 1
2676 5683 1
2676 7013 1
2677 341 1
2677 699 1
2677 1104 1
2677 1483 1
2677 4610 1
2677 6265 1
2678 198 1
2678 1099 1
2678 1589 1
2678 2367 1
2678 2803 1
2678 3873 1
2678 4271 1
2678 7029 1
2678 8372 1
2679 1034 1
2679 1044 1
2679 2448 1
2679 2532 1
2679 3608 1
2679 3729 1
2679 3884 1
2679 4640 1
2679 4761 1
2679 5458 1
2679 5582 1
2679 7378 1
2679 7428 1
2679 7874 1
2679 9025 1
2679 9384 1
2680 233 1
2680 783 1
2680 1959 1
2680 2478 1
2680 4929 1
2680 5560 1
2681 112 1
2681 381 1
2681 1325 1
2681 1422 1
2681 3240 1
2681 3473 1
2681 9696 1
2682 2 1
2682 151 1
2682 1038 1
2682 1938 1
2682 2913 1
2682 3360 1
2682 4808 1
2682 5753 1
2683 3 1
2683 893 1
2683 1690 1
2683 2141 1
2683 3273 1
2683 3426 1
2683 3439 1
2683 4781 1
2683 6409 1
2683 6570 1
2683 9026 1
2683 9857 1
2684 125 1
2684 404 1
2684 1292 1
2684 1850 1
2684 3271 1
2684 3765 1
2684 8530 1
2685 10 1
2685 254 1
2685 1936 1
2685 2155 1
2685 2892 1
2685 3271 1
2685 6175 1
2685 6789 1
2685 8604 1
2685 9305 1
2685 9679 1
2685 9957 1
2686 93 1
2686 143 1
2686 1126 1
2686 1243 1
2686 3317 1
2686 6642 1
2686 7186 1
2687 4 1
2687 11 1
2687 98 1
2687 1390 1
2687 3002 1
2687 4925 1
2687 8851 1
2688 14 1
2688 72 1
2688 1535 1
2688 1821 1
2689 38 1
2689 1893 1
2689 2052 1
2689 2398 1
2689 2735 1
2689 4157 1
2690 388 1
2690 888 1
2690 1166 1
2690 1268 1
2690 2700 1
2690 3033 1
2690 4080 1
2690 7001 1
2690 7347 1
2690 7676 1
2690 8272 1
2690 8428 1
2690 9087 1
2690 9580 1
2691 994 1
2691 1398 1
2691 2496 1
2691 2627 1
2691 5111 1
2692 1596 1
2692 1926 1
2692 2217 1
2692 2503 1
2692 6240 1
2693 37 1
2693 536 1
2693 1079 1
2693 1091 1
2693 2759 1
2693 3005 1
2693 4361 1
2693 7288 1
2693 8292 1
2693 8994 1
2693 9252 1
2693 9436 1
2693 9941 1
2694 517 1
2694 1709 1
2694 1843 1
2694 2489 1
2694 3833 1
2694 3998 1
2694 8596 1
2694 8684 1
2694 9762 1
2695 547 1
2695 647 1
2695 1441 1
2695 2550 1
2695 5063 1
2695 7541 1
2695 8986 1
2696 655 1
2696 1090 1
2696 1520 1
2696 2379 1
2696 3047 1
2696 3844 1
2696 5197 1
2696 6803 1
2697 7 1
2697 37 1
2697 199 1
2697 2643 1
2697 5299 1
2697 8501 1
2698 193 1
2698 468 1
2698 791 1
2698 1824 1
2698 2971 1
2699 495 1
2699 868 1
2699 1878 1
2699 1883 1
2699 7551 1
2699 7795 1
2699 8377 1
2699 9382 1
2700 518 1
2700 1155 1
2700 1325 1
2700 2690 1
2700 5700 1
2701 6 1
2701 1595 1
2701 2421 1
2701 2588 1
2701 4489 1
2701 6258 1
2701 9335 1
2702 277 1
2702 560 1
2702 1408 1
2702 2513 1
2703 10 1
2703 32 1
2703 141 1
2703 425 1
2704 348 1
2704 523 1
2704 663 1
2704 834 1
2704 6010 1
2705 726 1
2705 1403 1
2705 2063 1
2705 2393 1
2705 6714 1
2705 7552 1
2705 7855 1
2706 6 1
2706 615 1
2706 811 1
2706 1134 1
2706 4674 1
2706 4712 1
2707 5 1
2707 459 1
2707 783 1
2707 1505 1
2707 2952 1
2707 4970 1
2708 215 1
2708 443 1
2708 498 1
2708 744 1
2708 3573 1
2708 8800 1
2709 11 1
2709 25 1
2709 32 1
2709 788 1
2709 3151 1
2709 4583 1
2709 5892 1
2709 8494 1
2709 9100 1
2710 14 1
2710 19 1
2710 27 1
2710 1416 1
2711 27 1
2711 83 1
2711 1439 1
2711 2409 1
2711 3579 1
2711 3885 1
2711 7744 1
2712 21 1
2712 49 1
2712 114 1
2712 151 1
2712 3721 1
2712 5626 1
2712 9291 1
2713 11 1
2713 95 1
2713 156 1
2713 365 1
2713 3651 1
2713 3874 1
2713 3980 1
2713 4127 1
2713 4317 1
2713 4335 1
2713 4396 1
2713 4529 1
2713 4826 1
2713 5298 1
2713 6869 1
2713 8126 1
2713 8542 1
2713 9037 1
2713 9130 1
2714 640 1
2714 1086 1
2714 1573 1
2714 2293 1
2714 3773 1
2714 4971 1
2714 6456 1
2714 7287 1
2714 9059 1
2714 9990 1
2715 6 1
2715 325 1
2715 1348 1
2715 2175 1
2715 3337 1
2715 4398 1
2715 5891 1
2715 6465 1
2715 6993 1
2715 7045 1
2715 7089 1
2715 7367 1
2715 7406 1
2715 8186 1
2715 9986 1
2716 253 1
2716 880 1
2716 1178 1
2716 1459 1
2716 3301 1
2716 4037 1
2716 7182 1
2716 9285 1
2717 71 1
2717 603 1
2717 716 1
2717 2281 1
2717 2724 1
2717 6023 1
2717 6059 1
2717 6340 1
2717 9074 1
2718 105 1
2718 861 1
2718 956 1
2718 1029 1
2718 3309 1
2718 3898 1
2718 4876 1
2718 5935 1
2718 7388 1
2718 8440 1
2718 8965 1
2718 9702 1
2719 24 1
2719 769 1
2719 2057 1
2719 2373 1
2719 2964 1
2719 3083 1
2719 3594 1
2719 3769 1
2719 4986 1
2719 6774 1
2719 8924 1
2720 9 1
2720 17 1
2720 2357 1
2720 2535 1
2720 4328 1
2720 7576 1
2720 8136 1
2720 8850 1
2721 14 1
2721 288 1
2721 637 1
2721 678 1
2721 2850 1
2721 3441 1
2721 3557 1
2721 4590 1
2721 5166 1
2721 6040 1
2722 19 1
2722 46 1
2722 81 1
2722 1357 1
2722 4438 1
2722 4635 1
2723 6 1
2723 11 1
2723 322 1
2723 1080 1
2723 3735 1
2723 4310 1
2723 7168 1
2723 8698 1
2724 1700 1
2724 2188 1
2724 2210 1
2724 2717 1
2724 3245 1
2724 7250 1
2724 8561 1
2724 8640 1
2725 750 1
2725 1112 1
2725 1464 1
2725 1807 1
2725 4661 1
2725 7214 1
2725 7937 1
2726 13 1
2726 61 1
2726 629 1
2726 2656 1
2727 172 1
2727 255 1
2727 1258 1
2727 2324 1
2727 4583 1
2727 9517 1
2728 7 1
2728 250 1
2728 967 1
2728 2039 1
2728 5115 1
2728 5649 1
2728 7565 1
2729 162 1
2729 978 1
2729 1123 1
2729 2323 1
2729 3887 1
2729 5687 1
2729 6105 1
2730 10 1
2730 448 1
2730 797 1
2730 1578 1
2730 6567 1
2730 6705 1
2731 787 1
2731 1444 1
2731 1488 1
2731 2373 1
2731 2870 1
2731 2998 1
2731 3804 1
2731 7577 1
2731 8366 1
2731 8895 1
2731 9732 1
2732 198 1
2732 293 1
2732 1004 1
2732 1236 1
2732 3082 1
2732 4290 1
2732 5172 1
2732 5235 1
2732 5328 1
2732 5646 1
2732 5674 1
2732 5719 1
2732 5961 1
2732 7948 1
2732 9268 1
2732 9528 1
2732 9618 1
2732 9643 1
2733 14 1
2733 468 1
2733 1262 1
2733 1534 1
2733 3425 1
2733 4097 1
2733 5451 1
2733 5922 1
2733 5939 1
2733 7518 1
2733 7956 1
2733 9556 1
2733 9571 1
2734 14 1
2734 83 1
2734 714 1
2734 1436 1
2734 6564 1
2734 6874 1
2734 7705 1
2734 8135 1
2735 150 1
2735 586 1
2735 599 1
2735 2689 1
2735 3392 1
2735 6002 1
2735 8964 1
2736 12 1
2736 690 1
2736 850 1
2736 1922 1
2737 16 1
2737 655 1
2737 1091 1
2737 2449 1
2737 3168 1
2737 3418 1
2737 3962 1
2737 5537 1
2737 6191 1
2737 9256 1
2738 188 1
2738 365 1
2738 839 1
2738 2561 1
2738 7217 1
2738 8890 1
2739 46 1
2739 229 1
2739 527 1
2739 929 1
2739 2788 1
2739 3283 1
2739 6179 1
2739 8664 1
2739 9473 1
2740 72 1
2740 994 1
2740 1378 1
2740 2660 1
2741 148 1
2741 185 1
2741 993 1
2741 1671 1
2741 3411 1
2742 161 1
2742 185 1
2742 241 1
2742 823 1
2742 3017 1
2742 3086 1
2742 3960 1
2743 84 1
2743 474 1
2743 1749 1
2743 2137 1
2743 3779 1
2743 6301 1
2743 8801 1
2744 26 1
2744 293 1
2744 1033 1
2744 2369 1
2744 4484 1
2744 5015 1
2744 7473 1
2745 166 1
2745 357 1
2745 1262 1
2745 1763 1
2745 2993 1
2745 3900 1
2745 7303 1
2746 8 1
2746 14 1
2746 427 1
2746 654 1
2746 5059 1
2746 7763 1
2746 8398 1
2747 295 1
2747 386 1
2747 1563 1
2747 1868 1
2747 4526 1
2747 8235 1
2747 8485 1
2747 9831 1
2748 1 1
2748 159 1
2748 655 1
2748 1530 1
2748 2790 1
2748 3925 1
2748 6013 1
2749 383 1
2749 528 1
2749 1005 1
2749 1090 1
2749 7739 1
2749 8260 1
2749 9484 1
2750 933 1
2750 1307 1
2750 1646 1
2750 2383 1
2751 153 1
2751 683 1
2751 768 1
2751 2200 1
2752 12 1
2752 863 1
2752 2166 1
2752 2624 1
2752 4494 1
2752 5200 1
2752 5599 1
2752 7713 1
2752 8688 1
2752 9684 1
2753 627 1
2753 1344 1
2753 1969 1
2753 2146 1
2753 4989 1
2753 5939 1
2753 9393 1
2754 8 1
2754 21 1
2754 2048 1
2754 2181 1
2754 6761 1
2754 7923 1
2755 46 1
2755 599 1
2755 790 1
2755 1931 1
2755 2971 1
2755 3554 1
2755 3586 1
2755 4687 1
2755 5836 1
2755 6180 1
2755 6270 1
2756 1 1
2756 27 1
2756 67 1
2756 374 1
2756 7576 1
2757 1 1
2757 14 1
2757 1070 1
2757 1224 1
2757 9058 1
2758 482 1
2758 634 1
2758 2283 1
2758 2451 1
2758 3279 1
2758 3943 1
2758 4205 1
2758 5035 1
2758 6651 1
2758 7639 1
2758 8019 1
2759 377 1
2759 1387 1
2759 1492 1
2759 2693 1
2759 3092 1
2760 12 1
2760 209 1
2760 418 1
2760 1263 1
2760 4876 1
2760 5296 1
2760 7048 1
2760 7410 1
2760 7770 1
2760 8226 1
2760 8312 1
2761 48 1
2761 341 1
2761 385 1
2761 865 1
2761 2907 1
2761 5096 1
2762 507 1
2762 602 1
2762 958 1
2762 2323 1
2762 3450 1
2762 3459 1
2762 5226 1
2762 5433 1
2762 6598 1
2762 7157 1
2762 7322 1
2762 9319 1
2763 983 1
2763 1780 1
2763 2200 1
2763 2365 1
2763 3314 1
2763 4283 1
2763 4489 1
2763 6825 1
2763 9612 1
2764 56 1
2764 62 1
2764 345 1
2764 1778 1
2764 2770 1
2764 9387 1
2765 535 1
2765 786 1
2765 1165 1
2765 1271 1
2765 8001 1
2765 8557 1
2765 9710 1
2766 200 1
2766 271 1
2766 342 1
2766 1783 1
2766 6559 1
2766 7423 1
2767 7 1
2767 669 1
2767 937 1
2767 1453 1
2767 2933 1
2767 3840 1
2767 4259 1
2767 6903 1
2767 7940 1
2767 8747 1
2767 8778 1
2768 57 1
2768 101 1
2768 915 1
2768 1109 1
2768 4756 1
2768 4796 1
2768 4858 1
2768 7511 1
2769 209 1
2769 651 1
2769 1180 1
2769 2515 1
2769 4379 1
2769 4894 1
2769 6648 1
2770 24 1
2770 76 1
2770 449 1
2770 2764 1
2770 3737 1
2770 6238 1
2770 8764 1
2771 96 1
2771 241 1
2771 264 1
2771 877 1
2771 2862 1
2771 3289 1
2771 5596 1
2771 5602 1
2771 7265 1
2772 1666 1
2772 1738 1
2772 1788 1
2772 1818 1
2772 9513 1
2772 9670 1
2773 230 1
2773 288 1
2773 616 1
2773 911 1
2773 4254 1
2773 7700 1
2773 8209 1
2773 8555 1
2774 254 1
2774 992 1
2774 2085 1
2774 2406 1
2774 5026 1
2774 5313 1
2774 5482 1
2774 5625 1
2774 6039 1
2774 6226 1
2774 7360 1
2774 7700 1
2774 9222 1
2775 43 1
2775 341 1
2775 377 1
2775 917 1
2775 3534 1
2775 4154 1
2775 5612 1
2775 6064 1
2775 7438 1
2775 9865 1
2776 65 1
2776 1144 1
2776 1862 1
2776 2550 1
2776 4111 1
2777 33 1
2777 52 1
2777 111 1
2777 994 1
2777 4426 1
2777 5768 1
2777 6001 1
2778 3 1
2778 160 1
2778 229 1
2778 361 1
2778 6334 1
2778 9408 1
2778 9956 1
2779 254 1
2779 1463 1
2779 1648 1
2779 2275 1
2779 3860 1
2779 4179 1
2779 4292 1
2779 8517 1
2779 8926 1
2780 14 1
2780 609 1
2780 1167 1
2780 1539 1
2780 3641 1
2780 5529 1
2780 7007 1
2780 7694 1
2780 9942 1
2781 98 1
2781 407 1
2781 418 1
2781 1625 1
2781 5989 1
2781 6096 1
2781 6192 1
2781 9376 1
2781 9753 1
2782 313 1
2782 865 1
2782 1274 1
2782 2425 1
2782 2817 1
2782 3845 1
2782 7482 1
2782 8086 1
2782 9389 1
2782 9547 1
2783 84 1
2783 102 1
2783 267 1
2783 297 1
2783 6345 1
2783 7654 1
2784 388 1
2784 2062 1
2784 2394 1
2784 2609 1
2784 6251 1
2785 7 1
2785 122 1
2785 939 1
2785 2447 1
2786 412 1
2786 1153 1
2786 1410 1
2786 1883 1
2786 3280 1
2786 3537 1
2786 9901 1
2787 65 1
2787 553 1
2787 908 1
2787 1750 1
2787 4893 1
2787 6110 1
2788 168 1
2788 454 1
2788 1912 1
2788 2739 1
2788 6769 1
2788 9126 1
2789 12 1
2789 235 1
2789 1703 1
2789 2113 1
2789 3409 1
2789 5668 1
2790 1068 1
2790 1631 1
2790 2637 1
2790 2748 1
2791 4 1
2791 156 1
2791 376 1
2791 398 1
2791 3297 1
2791 4410 1
2791 4795 1
2791 5782 1
2791 8392 1
2792 1137 1
2792 2181 1
2792 2265 1
2792 2561 1
2792 4584 1
2792 6954 1
2793 19 1
2793 147 1
2793 348 1
2793 1156 1
2793 6383 1
2793 7202 1
2794 515 1
2794 992 1
2794 2561 1
2794 2664 1
2794 3709 1
2794 4944 1
2794 6215 1
2794 7497 1
2794 9421 1
2795 712 1
2795 994 1
2795 1780 1
2795 2554 1
2795 3570 1
2795 3873 1
2795 3879 1
2795 3936 1
2795 4021 1
2795 5139 1
2795 5690 1
2795 8709 1
2795 9608 1
2796 99 1
2796 468 1
2796 486 1
2796 2446 1
2796 4255 1
2796 6504 1
2796 9606 1
2797 543 1
2797 867 1
2797 926 1
2797 2014 1
2797 3400 1
2797 4276 1
2797 5561 1
2797 5583 1
2797 8409 1
2797 9944 1
2798 1050 1
2798 1079 1
2798 1770 1
2798 2530 1
2798 3358 1
2798 3928 1
2798 4216 1
2798 4947 1
2798 5140 1
2798 5298 1
2798 5494 1
2798 6588 1
2798 6956 1
2798 7078 1
2798 8544 1
2798 9048 1
2799 247 1
2799 1416 1
2799 2029 1
2799 2330 1
2799 3222 1
2799 4219 1
2799 5322 1
2800 838 1
2800 1100 1
2800 1367 1
2800 2575 1
2800 3639 1
2800 5782 1
2800 5906 1
2800 6961 1
2801 27 1
2801 325 1
2801 1180 1
2801 1183 1
2801 4275 1
2801 7148 1
2802 142 1
2802 154 1
2802 1270 1
2802 1461 1
2802 3575 1
2802 4814 1
2802 6006 1
2803 45 1
2803 931 1
2803 1903 1
2803 2678 1
2804 112 1
2804 719 1
2804 826 1
2804 1788 1
2804 5405 1
2804 6273 1
2804 8185 1
2805 47 1
2805 413 1
2805 1634 1
2805 2065 1
2805 3410 1
2805 3950 1
2805 6084 1
2805 6363 1
2805 6464 1
2805 6889 1
2806 202 1
2806 1533 1
2806 1548 1
2806 2060 1
2807 274 1
2807 904 1
2807 2231 1
2807 2620 1
2807 2979 1
2807 4126 1
2807 8179 1
2808 26 1
2808 54 1
2808 152 1
2808 1737 1
2808 6782 1
2808 7310 1
2809 80 1
2809 309 1
2809 744 1
2809 1071 1
2809 4515 1
2809 5283 1
2809 5879 1
2809 5923 1
2809 9952 1
2810 45 1
2810 937 1
2810 970 1
2810 2107 1
2810 3322 1
2810 4651 1
2810 6239 1
2810 6675 1
2810 6910 1
2810 7727 1
2810 9073 1
2810 9286 1
2811 32 1
2811 392 1
2811 840 1
2811 1757 1
2811 2915 1
2811 4942 1
2811 6103 1
2811 8892 1
2812 498 1
2812 791 1
2812 1796 1
2812 2673 1
2812 6259 1
2812 9009 1
2813 1027 1
2813 1133 1
2813 1142 1
2813 2480 1
2814 289 1
2814 1172 1
2814 2080 1
2814 2462 1
2814 4884 1
2814 5161 1
2814 8317 1
2815 64 1
2815 88 1
2815 171 1
2815 2645 1
2815 3566 1
2815 3983 1
2815 4465 1
2815 4847 1
2815 8071 1
2815 8702 1
2815 8879 1
2816 10 1
2816 15 1
2816 160 1
2816 2169 1
2816 4318 1
2816 7150 1
2817 42 1
2817 216 1
2817 678 1
2817 2782 1
2817 2833 1
2817 3642 1
2817 3748 1
2817 4726 1
2817 5369 1
2817 7037 1
2818 139 1
2818 931 1
2818 1154 1
2818 1470 1
2819 346 1
2819 771 1
2819 951 1
2819 1457 1
2819 3611 1
2819 9247 1
2820 115 1
2820 244 1
2820 940 1
2820 2308 1
2820 3106 1
2820 7925 1
2821 678 1
2821 765 1
2821 1983 1
2821 2220 1
2821 3205 1
2821 7009 1
2821 9894 1
2822 194 1
2822 443 1
2822 1148 1
2822 2655 1
2822 4188 1
2822 4856 1
2822 5523 1
2822 6949 1
2823 7 1
2823 21 1
2823 606 1
2823 1190 1
2823 4991 1
2823 5066 1
2823 6393 1
2823 6661 1
2823 6808 1
2823 7858 1
2824 94 1
2824 294 1
2824 755 1
2824 1128 1
2824 2906 1
2824 3463 1
2824 6057 1
2825 197 1
2825 374 1
2825 594 1
2825 850 1
2825 3370 1
2825 3781 1
2825 5020 1
2825 7449 1
2825 8186 1
2825 8404 1
2825 8514 1
2825 9685 1
2825 9834 1
2826 1 1
2826 160 1
2826 268 1
2826 1376 1
2826 3749 1
2826 4682 1
2826 5226 1
2826 7154 1
2826 9714 1
2827 9 1
2827 37 1
2827 932 1
2827 986 1
2827 3504 1
2828 5 1
2828 553 1
2828 603 1
2828 692 1
2828 4600 1
2828 5762 1
2829 6 1
2829 523 1
2829 853 1
2829 2249 1
2829 4378 1
2829 4602 1
2829 4763 1
2829 6599 1
2829 7129 1
2829 8064 1
2829 8596 1
2830 30 1
2830 182 1
2830 989 1
2830 1743 1
2830 3629 1
2830 3953 1
2830 4701 1
2830 5318 1
2830 7269 1
2830 8271 1
2830 9075 1
2831 139 1
2831 141 1
2831 180 1
2831 1706 1
2831 5485 1
2831 9893 1
2832 1 1
2832 272 1
2832 301 1
2832 2432 1
2832 4346 1
2832 5016 1
2832 5422 1
2833 974 1
2833 1546 1
2833 1641 1
2833 2817 1
2833 6127 1
2833 7275 1
2834 5 1
2834 127 1
2834 347 1
2834 1922 1
2834 3551 1
2834 3915 1
2834 4507 1
2834 5334 1
2834 8256 1
2834 9313 1
2834 9889 1
2835 89 1
2835 1108 1
2835 1369 1
2835 2604 1
2835 3118 1
2835 3480 1
2835 4049 1
2835 4193 1
2835 4848 1
2835 7450 1
2835 8322 1
2835 9529 1
2835 9974 1
2836 9 1
2836 429 1
2836 845 1
2836 1358 1
2837 58 1
2837 1529 1
2837 1616 1
2837 1729 1
2837 3707 1
2837 6281 1
2838 3 1
2838 45 1
2838 339 1
2838 875 1
2838 5048 1
2838 9773 1
2839 528 1
2839 815 1
2839 1067 1
2839 1857 1
2839 2885 1
2839 3214 1
2839 4475 1
2839 5100 1
2839 5553 1
2839 6439 1
2839 6489 1
2839 7309 1
2839 9034 1
2840 2179 1
2840 2212 1
2840 2257 1
2840 2404 1
2840 3501 1
2840 3920 1
2841 21 1
2841 165 1
2841 1115 1
2841 1589 1
2842 490 1
2842 1619 1
2842 2216 1
2842 2366 1
2843 277 1
2843 838 1
2843 1224 1
2843 2228 1
2844 153 1
2844 199 1
2844 483 1
2844 1132 1
2844 3332 1
2844 5486 1
2844 6614 1
2844 7400 1
2844 7490 1
2845 7 1
2845 338 1
2845 1990 1
2845 2577 1
2845 3455 1
2845 4725 1
2845 5377 1
2845 6038 1
2845 6403 1
2846 26 1
2846 732 1
2846 838 1
2846 1076 1
2846 5738 1
2846 9808 1
2847 6 1
2847 45 1
2847 603 1
2847 1857 1
2847 3886 1
2847 4815 1
2847 6395 1
2847 6473 1
2847 7100 1
2847 8205 1
2848 530 1
2848 1040 1
2848 1484 1
2848 1967 1
2848 3194 1
2848 5025 1
2848 6845 1
2848 9180 1
2849 4 1
2849 26 1
2849 595 1
2849 1008 1
2850 1120 1
2850 1128 1
2850 2406 1
2850 2721 1
2850 3464 1
2850 3828 1
2850 3969 1
2850 5365 1
2850 7731 1
2851 17 1
2851 307 1
2851 368 1
2851 2125 1
2851 4995 1
2852 37 1
2852 466 1
2852 810 1
2852 1315 1
2852 2887 1
2852 3153 1
2852 5275 1
2852 5593 1
2852 5767 1
2852 6382 1
2852 6927 1
2852 7027 1
2852 8870 1
2853 26 1
2853 92 1
2853 417 1
2853 619 1
2853 3042 1
2853 3092 1
2853 3139 1
2853 4237 1
2853 6018 1
2853 7310 1
2853 8466 1
2853 9826 1
2854 47 1
2854 468 1
2854 1122 1
2854 1479 1
2854 3956 1
2854 3987 1
2854 4042 1
2854 4939 1
2854 5173 1
2854 6924 1
2854 7920 1
2854 7964 1
2854 8218 1
2855 117 1
2855 453 1
2855 1076 1
2855 1101 1
2856 583 1
2856 690 1
2856 1677 1
2856 1969 1
2856 3546 1
2856 4084 1
2856 4813 1
2856 6444 1
2856 8446 1
2856 8979 1
2856 9121 1
2856 9271 1
2856 9860 1
2857 270 1
2857 452 1
2857 1833 1
2857 1951 1
2857 4091 1
2857 7383 1
2857 7859 1
2858 25 1
2858 680 1
2858 1157 1
2858 1719 1
2859 513 1
2859 1384 1
2859 2126 1
2859 2158 1
2859 4419 1
2859 5381 1
2859 6760 1
2859 8237 1
2859 8806 1
2860 176 1
2860 351 1
2860 2007 1
2860 2025 1
2860 7970 1
2861 25 1
2861 289 1
2861 509 1
2861 1575 1
2861 3159 1
2861 5376 1
2862 37 1
2862 617 1
2862 913 1
2862 2771 1
2862 6970 1
2863 251 1
2863 385 1
2863 925 1
2863 2081 1
2863 4127 1
2864 5 1
2864 561 1
2864 599 1
2864 859 1
2864 4136 1
2864 4192 1
2864 4261 1
2864 4448 1
2865 274 1
2865 396 1
2865 840 1
2865 2552 1
2865 3171 1
2865 4146 1
2865 5406 1
2865 6819 1
2865 9360 1
2865 9716 1
2866 349 1
2866 362 1
2866 1079 1
2866 2340 1
2866 3133 1
2866 4550 1
2866 4657 1
2866 8772 1
2867 171 1
2867 1411 1
2867 1860 1
2867 2236 1
2867 6693 1
2868 318 1
2868 420 1
2868 1843 1
2868 2125 1
2868 3961 1
2868 6097 1
2868 8210 1
2868 8523 1
2869 514 1
2869 660 1
2869 1481 1
2869 1919 1
2869 5351 1
2870 184 1
2870 204 1
2870 223 1
2870 2731 1
2870 3171 1
2870 3530 1
2870 3544 1
2870 3595 1
2870 4834 1
2870 5974 1
2870 6962 1
2870 7537 1
2870 8688 1
2871 384 1
2871 498 1
2871 1001 1
2871 1059 1
2871 7229 1
2871 7667 1
2872 627 1
2872 1348 1
2872 2127 1
2872 2142 1
2872 4014 1
2872 5474 1
2872 5969 1
2872 7900 1
2872 9189 1
2873 156 1
2873 224 1
2873 461 1
2873 2524 1
2873 5550 1
2873 7609 1
2874 148 1
2874 1106 1
2874 2125 1
2874 2425 1
2874 5280 1
2875 26 1
2875 351 1
2875 427 1
2875 2349 1
2875 3737 1
2875 4163 1
2875 4826 1
2875 4877 1
2876 201 1
2876 736 1
2876 1893 1
2876 2568 1
2876 4915 1
2876 4924 1
2876 8471 1
2877 13 1
2877 736 1
2877 1116 1
2877 2562 1
2877 3547 1
2878 66 1
2878 841 1
2878 1347 1
2878 2215 1
2878 4015 1
2878 4252 1
2878 5802 1
2878 6105 1
2878 7193 1
2879 1 1
2879 6 1
2879 476 1
2879 1708 1
2879 3244 1
2879 3294 1
2879 4690 1
2879 4770 1
2879 5021 1
2879 7022 1
2879 7289 1
2879 9154 1
2880 49 1
2880 238 1
2880 1248 1
2880 2152 1
2880 3613 1
2880 9405 1
2881 13 1
2881 518 1
2881 1327 1
2881 2194 1
2881 3550 1
2881 4207 1
2881 4693 1
2881 5469 1
2881 6031 1
2881 6250 1
2881 7114 1
2881 7247 1
2881 7909 1
2881 9874 1
2882 6 1
2882 38 1
2882 306 1
2882 571 1
2882 3068 1
2882 3115 1
2882 3571 1
2882 5831 1
2882 7409 1
2883 2007 1
2883 2254 1
2883 2337 1
2883 2430 1
2883 3735 1
2883 6487 1
2883 8339 1
2884 120 1
2884 865 1
2884 996 1
2884 1721 1
2884 6695 1
2884 7564 1
2884 8131 1
2885 15 1
2885 192 1
2885 2607 1
2885 2839 1
2885 6799 1
2885 9355 1
2886 316 1
2886 369 1
2886 913 1
2886 1412 1
2886 2924 1
2886 3964 1
2886 3988 1
2886 4966 1
2886 6244 1
2887 82 1
2887 635 1
2887 1111 1
2887 2852 1
2887 3067 1
2887 3461 1
2887 5856 1
2887 7921 1
2888 8 1
2888 10 1
2888 983 1
2888 1454 1
2888 2903 1
2888 2975 1
2888 3621 1
2888 5248 1
2888 5285 1
2888 6679 1
2889 162 1
2889 604 1
2889 765 1
2889 2126 1
2889 3326 1
2889 3788 1
2889 4011 1
2889 4578 1
2889 5027 1
2889 7943 1
2890 368 1
2890 719 1
2890 738 1
2890 1184 1
2890 3032 1
2890 3163 1
2890 5413 1
2890 5592 1
2891 28 1
2891 57 1
2891 293 1
2891 398 1
2892 146 1
2892 257 1
2892 1817 1
2892 2685 1
2892 3642 1
2892 5093 1
2892 6765 1
2893 281 1
2893 295 1
2893 616 1
2893 1133 1
2894 164 1
2894 575 1
2894 1699 1
2894 1795 1
2894 3139 1
2894 4660 1
2894 6428 1
2895 14 1
2895 41 1
2895 218 1
2895 2669 1
2895 3631 1
2895 6412 1
2895 6809 1
2896 28 1
2896 115 1
2896 156 1
2896 962 1
2896 3596 1
2896 5815 1
2897 4 1
2897 250 1
2897 2325 1
2897 2374 1
2897 5174 1
2897 7559 1
2897 8348 1
2898 7 1
2898 413 1
2898 1543 1
2898 1931 1
2898 3644 1
2898 4104 1
2898 4191 1
2898 5180 1
2898 6361 1
2898 9182 1
2899 14 1
2899 23 1
2899 761 1
2899 1485 1
2899 5947 1
2899 7515 1
2900 206 1
2900 476 1
2900 889 1
2900 2606 1
2900 5864 1
2900 9051 1
2901 564 1
2901 651 1
2901 713 1
2901 1259 1
2902 406 1
2902 535 1
2902 1008 1
2902 2008 1
2902 3738 1
2902 4051 1
2902 4507 1
2903 49 1
2903 1071 1
2903 1908 1
2903 2888 1
2903 3433 1
2903 4366 1
2903 5340 1
2903 8055 1
2903 9972 1
2904 869 1
2904 1207 1
2904 1247 1
2904 2143 1
2904 5814 1
2904 7546 1
2904 7604 1
2905 99 1
2905 105 1
2905 453 1
2905 1854 1
2905 3213 1
2905 4346 1
2905 4568 1
2905 5552 1
2905 6092 1
2905 9820 1
2906 117 1
2906 774 1
2906 2257 1
2906 2824 1
2906 3931 1
2906 4597 1
2906 6684 1
2906 7035 1
2907 307 1
2907 916 1
2907 1366 1
2907 2761 1
2907 4239 1
2907 4308 1
2907 6321 1
2907 7928 1
2908 195 1
2908 426 1
2908 581 1
2908 1740 1
2908 3199 1
2908 6801 1
2909 427 1
2909 1056 1
2909 1083 1
2909 2229 1
2909 3974 1
2909 5218 1
2909 6929 1
2909 7325 1
2909 8461 1
2909 8796 1
2909 9705 1
2910 117 1
2910 615 1
2910 825 1
2910 1088 1
2910 3589 1
2910 5089 1
2910 6313 1
2910 7418 1
2910 8049 1
2910 8703 1
2910 8751 1
2910 8782 1
2910 8968 1
2911 281 1
2911 463 1
2911 1190 1
2911 1941 1
2912 328 1
2912 1589 1
2912 1916 1
2912 2101 1
2912 3013 1
2912 8681 1
2913 13 1
2913 549 1
2913 1327 1
2913 2682 1
2913 7773 1
2913 8493 1
2914 199 1
2914 522 1
2914 842 1
2914 1560 1
2914 4380 1
2914 5247 1
2914 6569 1
2915 1339 1
2915 1506 1
2915 1742 1
2915 2811 1
2915 3646 1
2915 4230 1
2915 5473 1
2916 55 1
2916 64 1
2916 460 1
2916 1726 1
2917 991 1
2917 1259 1
2917 2410 1
2917 2474 1
2917 4420 1
2917 6036 1
2917 7582 1
2917 7936 1
2918 29 1
2918 484 1
2918 1320 1
2918 1444 1
2918 3430 1
2918 3619 1
2918 4034 1
2918 5398 1
2918 5545 1
2918 7189 1
2919 142 1
2919 144 1
2919 238 1
2919 347 1
2919 4566 1
2920 128 1
2920 313 1
2920 326 1
2920 2252 1
2920 7445 1
2920 7914 1
2920 8073 1
2921 817 1
2921 1180 1
2921 1406 1
2921 1470 1
2921 3216 1
2921 6382 1
2922 194 1
2922 265 1
2922 493 1
2922 1988 1
2922 2937 1
2922 5124 1
2922 5423 1
2922 5631 1
2922 6346 1
2922 7147 1
2923 78 1
2923 750 1
2923 1606 1
2923 2632 1
2923 3026 1
2924 28 1
2924 703 1
2924 1988 1
2924 2886 1
2924 4293 1
2925 135 1
2925 153 1
2925 261 1
2925 1115 1
2925 3135 1
2925 3789 1
2925 6077 1
2925 8823 1
2925 9500 1
2926 164 1
2926 482 1
2926 1539 1
2926 1720 1
2926 7929 1
2927 67 1
2927 755 1
2927 1335 1
2927 1425 1
2927 3661 1
2928 270 1
2928 829 1
2928 1368 1
2928 1666 1
2928 5119 1
2929 99 1
2929 509 1
2929 517 1
2929 1751 1
2929 3975 1
2929 4068 1
2929 4717 1
2929 6452 1
2929 6988 1
2929 8120 1
2929 9349 1
2930 166 1
2930 381 1
2930 564 1
2930 1114 1
2930 4279 1
2930 8504 1
2930 9101 1
2931 281 1
2931 368 1
2931 1550 1
2931 1561 1
2931 5448 1
2931 6747 1
2931 8905 1
2932 1 1
2932 13 1
2932 955 1
2932 1271 1
2932 3343 1
2933 894 1
2933 1364 1
2933 2237 1
2933 2767 1
2933 3226 1
2933 3751 1
2933 4035 1
2933 4726 1
2933 5067 1
2933 5884 1
2934 288 1
2934 522 1
2934 783 1
2934 2595 1
2934 3285 1
2934 3712 1
2935 353 1
2935 404 1
2935 799 1
2935 2381 1
2935 3581 1
2935 3977 1
2935 4019 1
2935 5804 1
2935 6639 1
2935 7995 1
2935 8527 1
2936 28 1
2936 560 1
2936 1593 1
2936 2483 1
2936 4716 1
2936 5456 1
2936 9511 1
2937 605 1
2937 1775 1
2937 2077 1
2937 2922 1
2937 9154 1
2938 201 1
2938 231 1
2938 695 1
2938 2156 1
2938 6455 1
2938 7246 1
2938 7659 1
2939 252 1
2939 384 1
2939 591 1
2939 594 1
2939 7159 1
2939 8975 1
2940 1334 1
2940 2287 1
2940 2430 1
2940 2472 1
2940 4041 1
2940 5489 1
2940 7071 1
2940 8635 1
2940 8969 1
2941 47 1
2941 1392 1
2941 1467 1
2941 2051 1
2941 8760 1
2942 19 1
2942 1056 1
2942 1626 1
2942 2029 1
2942 3302 1
2942 4241 1
2942 5452 1
2943 13 1
2943 261 1
2943 334 1
2943 815 1
2943 7883 1
2944 55 1
2944 149 1
2944 640 1
2944 1580 1
2944 3566 1
2944 4466 1
2944 4570 1
2944 5287 1
2944 5505 1
2944 5855 1
2944 9356 1
2944 9694 1
2944 9718 1
2944 9885 1
2945 123 1
2945 293 1
2945 778 1
2945 1232 1
2945 4369 1
2945 4977 1
2945 7241 1
2945 7448 1
2946 89 1
2946 98 1
2946 931 1
2946 1350 1
2946 3944 1
2946 5079 1
2946 7311 1
2947 167 1
2947 177 1
2947 849 1
2947 1827 1
2947 4483 1
2947 4781 1
2947 4978 1
2948 267 1
2948 1860 1
2948 2108 1
2948 2340 1
2948 4638 1
2948 8486 1
2948 9906 1
2949 574 1
2949 689 1
2949 1189 1
2949 2340 1
2949 5883 1
2949 6126 1
2949 6236 1
2949 7080 1
2950 320 1
2950 417 1
2950 439 1
2950 1056 1
2950 6081 1
2950 6388 1
2950 9870 1
2951 5 1
2951 649 1
2951 1482 1
2951 1634 1
2951 3494 1
2951 4503 1
2951 5475 1
2951 6609 1
2951 9112 1
2952 437 1
2952 2236 1
2952 2525 1
2952 2707 1
2952 5492 1
2952 6068 1
2952 6821 1
2952 8241 1
2952 8848 1
2953 195 1
2953 423 1
2953 1379 1
2953 2394 1
2953 5924 1
2953 9030 1
2953 9273 1
2954 744 1
2954 2129 1
2954 2387 1
2954 2513 1
2954 6528 1
2954 6605 1
2955 13 1
2955 233 1
2955 299 1
2955 1615 1
2955 2975 1
2955 6622 1
2955 7041 1
2955 9273 1
2956 267 1
2956 602 1
2956 835 1
2956 947 1
2956 3036 1
2956 3757 1
2957 27 1
2957 420 1
2957 702 1
2957 2248 1
2957 3062 1
2957 4547 1
2957 6065 1
2957 6832 1
2957 6950 1
2957 7742 1
2957 7989 1
2957 8033 1
2957 8578 1
2957 8791 1
2958 26 1
2958 256 1
2958 809 1
2958 833 1
2958 3837 1
2958 4481 1
2958 4720 1
2958 4964 1
2958 5550 1
2958 8666 1
2959 3 1
2959 505 1
2959 671 1
2959 1110 1
2959 4204 1
2959 4409 1
2959 4732 1
2959 5173 1
2959 5466 1
2959 5847 1
2959 6440 1
2960 81 1
2960 426 1
2960 583 1
2960 1311 1
2960 3487 1
2960 3749 1
2960 4858 1
2960 5833 1
2960 6177 1
2960 6349 1
2960 9006 1
2961 154 1
2961 1335 1
2961 1921 1
2961 2547 1
2961 6727 1
2962 448 1
2962 500 1
2962 2188 1
2962 2385 1
2962 4199 1
2962 5314 1
2962 6324 1
2963 188 1
2963 678 1
2963 1558 1
2963 1600 1
2963 4940 1
2963 7579 1
2963 8639 1
2964 1058 1
2964 1149 1
2964 2020 1
2964 2719 1
2964 3548 1
2964 5461 1
2965 13 1
2965 38 1
2965 308 1
2965 2118 1
2965 2988 1
2965 3736 1
2965 5930 1
2966 25 1
2966 185 1
2966 1474 1
2966 1971 1
2966 3398 1
2966 3854 1
2966 5857 1
2966 6173 1
2966 8852 1
2967 80 1
2967 81 1
2967 509 1
2967 2052 1
2967 5488 1
2967 8594 1
2968 28 1
2968 351 1
2968 536 1
2968 2469 1
2968 3086 1
2968 3814 1
2968 5615 1
2968 6952 1
2968 7062 1
2969 708 1
2969 1378 1
2969 1512 1
2969 1909 1
2969 3091 1
2969 3385 1
2969 4065 1
2969 5061 1
2969 5428 1
2969 5625 1
2969 6681 1
2970 584 1
2970 688 1
2970 1974 1
2970 2295 1
2970 3511 1
2970 4973 1
2970 5122 1
2970 7932 1
2971 443 1
2971 2611 1
2971 2698 1
2971 2755 1
2971 7103 1
2972 7 1
2972 289 1
2972 313 1
2972 822 1
2972 3631 1
2972 4278 1
2972 5099 1
2972 5203 1
2973 714 1
2973 1287 1
2973 2244 1
2973 2532 1
2973 5987 1
2974 147 1
2974 194 1
2974 1268 1
2974 2012 1
2974 4455 1
2974 5898 1
2974 7653 1
2974 8577 1
2975 159 1
2975 1856 1
2975 2888 1
2975 2955 1
2976 8 1
2976 719 1
2976 796 1
2976 1768 1
2976 3561 1
2976 3598 1
2976 4361 1
2976 5784 1
2976 7385 1
2976 7463 1
2976 8068 1
2976 8317 1
2977 1092 1
2977 1532 1
2977 1850 1
2977 2488 1
2977 5865 1
2977 7773 1
2977 8139 1
2977 8987 1
2978 423 1
2978 855 1
2978 1704 1
2978 2083 1
2978 5539 1
2978 9551 1
2978 9870 1
2979 481 1
2979 1146 1
2979 1530 1
2979 2807 1
2979 7752 1
2980 47 1
2980 184 1
2980 268 1
2980 715 1
2980 4239 1
2980 4650 1
2980 6502 1
2980 6561 1
2980 8168 1
2981 71 1
2981 1231 1
2981 1637 1
2981 2574 1
2981 3128 1
2981 3287 1
2981 3820 1
2981 4432 1
2981 4913 1
2981 5222 1
2981 5336 1
2981 7538 1
2981 8145 1
2981 8345 1
2981 8386 1
2982 578 1
2982 975 1
2982 1184 1
2982 2647 1
2982 4912 1
2982 6771 1
2982 7248 1
2982 9949 1
2983 307 1
2983 1336 1
2983 1577 1
2983 2347 1
2983 3100 1
2983 4171 1
2983 5619 1
2983 7784 1
2983 9968 1
2984 45 1
2984 279 1
2984 1028 1
2984 2262 1
2984 4237 1
2984 4896 1
2984 5347 1
2984 6948 1
2984 9853 1
2985 414 1
2985 1748 1
2985 1780 1
2985 2604 1
2985 4892 1
2985 5390 1
2985 5458 1
2985 7231 1
2986 12 1
2986 98 1
2986 1387 1
2986 2234 1
2986 3230 1
2986 3422 1
2986 6869 1
2986 7334 1
2986 8955 1
2987 538 1
2987 539 1
2987 1262 1
2987 2463 1
2987 3750 1
2987 4347 1
2987 8363 1
2988 181 1
2988 388 1
2988 646 1
2988 2965 1
2988 5856 1
2988 6583 1
2988 7326 1
2989 14 1
2989 681 1
2989 1062 1
2989 2645 1
2989 3152 1
2989 5024 1
2989 5739 1
2989 6437 1
2990 14 1
2990 104 1
2990 113 1
2990 583 1
2990 4920 1
2990 5435 1
2990 7635 1
2991 11 1
2991 121 1
2991 131 1
2991 2520 1
2991 4184 1
2991 6442 1
2992 81 1
2992 102 1
2992 813 1
2992 1422 1
2992 3302 1
2992 3522 1
2992 8797 1
2992 8802 1
2992 9498 1
2992 9807 1
2993 814 1
2993 1823 1
2993 2038 1
2993 2745 1
2993 3618 1
2993 3746 1
2993 6120 1
2993 6853 1
2993 7208 1
2993 8445 1
2993 8656 1
2994 493 1
2994 1077 1
2994 1263 1
2994 1359 1
2994 4697 1
2994 5289 1
2994 6184 1
2995 142 1
2995 426 1
2995 823 1
2995 1506 1
2995 4387 1
2995 4452 1
2995 6282 1
2996 13 1
2996 126 1
2996 421 1
2996 1205 1
2996 3261 1
2996 4113 1
2996 5286 1
2996 9693 1
2997 3 1
2997 619 1
2997 1493 1
2997 2607 1
2998 19 1
2998 23 1
2998 2068 1
2998 2731 1
2998 3366 1
2999 13 1
2999 384 1
2999 618 1
2999 1303 1
2999 3342 1
2999 3574 1
2999 3600 1
2999 4253 1
2999 4967 1
2999 5051 1
2999 5921 1
3000 58 1
3000 121 1
3000 440 1
3000 906 1
3000 4979 1
3001 28 1
3001 107 1
3001 140 1
3001 1077 1
3001 3875 1
3001 7337 1
3002 156 1
3002 248 1
3002 597 1
3002 2687 1
3002 3298 1
3002 4279 1
3002 5627 1
3002 8489 1
3002 8874 1
3003 6 1
3003 19 1
3003 1581 1
3003 2071 1
3003 3322 1
3003 3923 1
3003 6158 1
3004 29 1
3004 288 1
3004 471 1
3004 793 1
3004 3093 1
3004 5287 1
3004 6273 1
3005 17 1
3005 398 1
3005 706 1
3005 2693 1
3006 28 1
3006 580 1
3006 767 1
3006 1896 1
3006 6751 1
3006 8946 1
3007 86 1
3007 240 1
3007 880 1
3007 1111 1
3008 1 1
3008 231 1
3008 817 1
3008 1205 1
3008 3130 1
3008 5882 1
3008 8818 1
3009 620 1
3009 1046 1
3009 1757 1
3009 2224 1
3009 5662 1
3009 6916 1
3009 8082 1
3010 57 1
3010 504 1
3010 1356 1
3010 2405 1
3010 5183 1
3011 5 1
3011 8 1
3011 135 1
3011 1280 1
3012 173 1
3012 689 1
3012 1017 1
3012 1412 1
3012 3690 1
3012 5536 1
3012 5895 1
3012 7194 1
3012 8923 1
3013 96 1
3013 573 1
3013 678 1
3013 2912 1
3013 6982 1
3014 313 1
3014 1048 1
3014 1259 1
3014 2304 1
3014 5355 1
3014 6226 1
3014 6749 1
3014 9709 1
3015 72 1
3015 182 1
3015 749 1
3015 1669 1
3015 3952 1
3015 5071 1
3015 5675 1
3015 7979 1
3016 65 1
3016 267 1
3016 1969 1
3016 2005 1
3016 3774 1
3016 6220 1
3017 200 1
3017 655 1
3017 1589 1
3017 2742 1
3017 3653 1
3017 4678 1
3017 6199 1
3017 7550 1
3017 8088 1
3018 91 1
3018 98 1
3018 535 1
3018 1611 1
3018 3310 1
3018 4259 1
3018 4501 1
3018 5342 1
3018 6538 1
3018 9078 1
3018 9911 1
3019 5 1
3019 101 1
3019 848 1
3019 1444 1
3019 4782 1
3020 263 1
3020 653 1
3020 1092 1
3020 1561 1
3020 8255 1
3021 121 1
3021 289 1
3021 1732 1
3021 1810 1
3021 6559 1
3021 9582 1
3022 17 1
3022 1203 1
3022 1320 1
3022 1590 1
3022 3372 1
3022 4974 1
3023 652 1
3023 1304 1
3023 1326 1
3023 1437 1
3023 7602 1
3024 164 1
3024 179 1
3024 308 1
3024 1439 1
3025 304 1
3025 718 1
3025 1492 1
3025 2219 1
3025 6511 1
3025 6584 1
3025 8888 1
3026 632 1
3026 650 1
3026 2254 1
3026 2923 1
3027 8 1
3027 537 1
3027 1155 1
3027 2485 1
3027 4904 1
3027 5441 1
3027 6592 1
3027 6707 1
3027 8118 1
3027 8885 1
3027 9629 1
3028 28 1
3028 1453 1
3028 1478 1
3028 1533 1
3028 4398 1
3028 6986 1
3028 8704 1
3028 9542 1
3028 9855 1
3029 49 1
3029 328 1
3029 1014 1
3029 1438 1
3029 7684 1
3029 9370 1
3030 3 1
3030 735 1
3030 1411 1
3030 2390 1
3030 5081 1
3031 200 1
3031 267 1
3031 702 1
3031 1798 1
3032 204 1
3032 2159 1
3032 2246 1
3032 2890 1
3032 5251 1
3032 5378 1
3032 7117 1
3032 8450 1
3032 9280 1
3032 9461 1
3032 9525 1
3033 531 1
3033 795 1
3033 845 1
3033 2690 1
3034 168 1
3034 201 1
3034 204 1
3034 2107 1
3034 3265 1
3034 3422 1
3035 26 1
3035 153 1
3035 500 1
3035 1865 1
3035 4196 1
3035 4426 1
3035 4752 1
3035 4812 1
3035 4961 1
3036 233 1
3036 952 1
3036 1581 1
3036 2956 1
3036 5028 1
3036 8044 1
3036 9336 1
3037 25 1
3037 640 1
3037 1301 1
3037 1469 1
3037 3137 1
3037 3774 1
3037 6299 1
3038 43 1
3038 2116 1
3038 2263 1
3038 2650 1
3039 16 1
3039 74 1
3039 75 1
3039 1413 1
3039 3206 1
3039 3945 1
3039 4031 1
3039 4067 1
3039 4099 1
3039 4450 1
3039 4455 1
3039 6646 1
3039 6884 1
3039 7113 1
3039 8389 1
3039 8689 1
3039 8696 1
3039 8743 1
3039 9758 1
3040 21 1
3040 38 1
3040 819 1
3040 2200 1
3041 173 1
3041 1080 1
3041 1104 1
3041 2608 1
3041 3620 1
3041 3812 1
3041 8714 1
3042 267 1
3042 1167 1
3042 1173 1
3042 2853 1
3042 5493 1
3043 65 1
3043 361 1
3043 800 1
3043 1467 1
3043 7501 1
3043 7697 1
3043 8199 1
3043 9933 1
3044 1751 1
3044 1787 1
3044 2240 1
3044 2385 1
3044 4943 1
3044 8774 1
3044 9426 1
3045 463 1
3045 715 1
3045 1297 1
3045 2502 1
3045 6826 1
3046 228 1
3046 472 1
3046 922 1
3046 2348 1
3046 3446 1
3046 3836 1
3046 6125 1
3046 7183 1
3046 7395 1
3046 7820 1
3047 1067 1
3047 1340 1
3047 2454 1
3047 2696 1
3047 6383 1
3047 6472 1
3047 6803 1
3047 7467 1
3048 444 1
3048 570 1
3048 853 1
3048 1215 1
3048 4212 1
3048 6614 1
3049 22 1
3049 365 1
3049 1409 1
3049 1536 1
3049 4055 1
3049 4704 1
3049 5085 1
3050 523 1
3050 1864 1
3050 1968 1
3050 2084 1
3050 4374 1
3051 293 1
3051 430 1
3051 734 1
3051 2325 1
3052 96 1
3052 1180 1
3052 1789 1
3052 2428 1
3052 3125 1
3052 5074 1
3053 262 1
3053 599 1
3053 936 1
3053 2099 1
3053 4986 1
3053 5151 1
3053 5987 1
3053 6797 1
3053 7188 1
3053 7296 1
3053 8635 1
3054 144 1
3054 456 1
3054 1348 1
3054 1599 1
3054 3217 1
3054 3571 1
3054 4471 1
3054 4794 1
3055 306 1
3055 436 1
3055 793 1
3055 2191 1
3055 3250 1
3055 5359 1
3055 6669 1
3055 9135 1
3056 196 1
3056 631 1
3056 1393 1
3056 2277 1
3056 7629 1
3056 7706 1
3057 2 1
3057 273 1
3057 1750 1
3057 2236 1
3057 3903 1
3057 5915 1
3057 6720 1
3058 56 1
3058 260 1
3058 1833 1
3058 2046 1
3058 3610 1
3058 6144 1
3058 6174 1
3058 7108 1
3059 12 1
3059 807 1
3059 1644 1
3059 2058 1
3059 3507 1
3059 5455 1
3059 6549 1
3059 8190 1
3059 8573 1
3059 8603 1
3059 9887 1
3059 9918 1
3060 1029 1
3060 1665 1
3060 1894 1
3060 2274 1
3060 4710 1
3060 9045 1
3060 9363 1
3061 12 1
3061 493 1
3061 1465 1
3061 2155 1
3061 6517 1
3061 9942 1
3062 145 1
3062 345 1
3062 386 1
3062 2957 1
3062 5048 1
3062 7245 1
3063 3 1
3063 90 1
3063 135 1
3063 415 1
3063 9348 1
3064 3 1
3064 51 1
3064 1625 1
3064 2221 1
3065 34 1
3065 1087 1
3065 1348 1
3065 2587 1
3065 4375 1
3065 7605 1
3065 8537 1
3065 9624 1
3066 6 1
3066 17 1
3066 243 1
3066 277 1
3066 4141 1
3066 4668 1
3067 174 1
3067 1261 1
3067 2013 1
3067 2887 1
3067 3839 1
3067 3964 1
3067 4394 1
3067 5039 1
3067 5059 1
3067 5728 1
3067 6493 1
3067 7039 1
3067 9342 1
3068 116 1
3068 1432 1
3068 2559 1
3068 2882 1
3068 5621 1
3068 6800 1
3068 6850 1
3068 8248 1
3068 8456 1
3069 12 1
3069 1269 1
3069 1693 1
3069 1741 1
3069 5470 1
3069 5893 1
3069 8233 1
3070 4 1
3070 277 1
3070 1146 1
3070 1404 1
3070 4685 1
3070 5554 1
3070 6208 1
3071 292 1
3071 566 1
3071 1068 1
3071 1133 1
3071 6348 1
3071 9756 1
3072 271 1
3072 310 1
3072 426 1
3072 854 1
3072 3311 1
3072 3744 1
3072 4137 1
3072 5118 1
3073 204 1
3073 266 1
3073 2272 1
3073 2673 1
3073 3891 1
3073 5064 1
3073 6812 1
3073 9981 1
3074 236 1
3074 411 1
3074 819 1
3074 1453 1
3074 4318 1
3074 5371 1
3074 6043 1
3074 6405 1
3074 7136 1
3075 160 1
3075 526 1
3075 640 1
3075 1659 1
3076 877 1
3076 1227 1
3076 1381 1
3076 2289 1
3076 3670 1
3077 24 1
3077 347 1
3077 399 1
3077 615 1
3077 3395 1
3077 5083 1
3077 6105 1
3077 6394 1
3078 452 1
3078 1083 1
3078 1100 1
3078 1125 1
3078 3756 1
3079 5 1
3079 285 1
3079 1280 1
3079 1348 1
3079 3541 1
3079 8719 1
3080 75 1
3080 940 1
3080 1133 1
3080 1700 1
3080 3865 1
3080 5260 1
3080 7849 1
3081 28 1
3081 334 1
3081 367 1
3081 833 1
3081 5256 1
3081 6302 1
3081 6767 1
3081 7312 1
3081 8900 1
3081 9003 1
3081 9636 1
3082 337 1
3082 377 1
3082 543 1
3082 2732 1
3082 6633 1
3082 7222 1
3082 8345 1
3083 37 1
3083 527 1
3083 2261 1
3083 2719 1
3083 3221 1
3083 4865 1
3083 7089 1
3083 9497 1
3084 1 1
3084 100 1
3084 519 1
3084 1298 1
3084 3944 1
3084 6020 1
3084 9210 1
3085 38 1
3085 121 1
3085 1826 1
3085 2464 1
3085 3706 1
3085 4603 1
3085 6638 1
3085 7776 1
3086 10 1
3086 1414 1
3086 2742 1
3086 2968 1
3086 4387 1
3086 5945 1
3086 6401 1
3086 7659 1
3087 410 1
3087 527 1
3087 800 1
3087 1653 1
3087 4974 1
3087 6025 1
3087 7269 1
3087 9534 1
3088 96 1
3088 132 1
3088 567 1
3088 1990 1
3088 3305 1
3088 3480 1
3088 3668 1
3088 3941 1
3088 3960 1
3088 4018 1
3088 4867 1
3088 8098 1
3089 737 1
3089 996 1
3089 1108 1
3089 1620 1
3089 3154 1
3089 5275 1
3089 6590 1
3090 138 1
3090 171 1
3090 1082 1
3090 1162 1
3090 4454 1
3091 549 1
3091 663 1
3091 1311 1
3091 2969 1
3091 3435 1
3091 3739 1
3091 5512 1
3091 5987 1
3091 9495 1
3091 9622 1
3092 7 1
3092 105 1
3092 2759 1
3092 2853 1
3092 6650 1
3093 42 1
3093 1608 1
3093 2161 1
3093 3004 1
3093 5790 1
3093 8152 1
3094 142 1
3094 200 1
3094 226 1
3094 1221 1
3094 6130 1
3094 6700 1
3094 7611 1
3095 47 1
3095 189 1
3095 744 1
3095 915 1
3095 3925 1
3095 6247 1
3095 7111 1
3095 8327 1
3095 8932 1
3096 11 1
3096 513 1
3096 1527 1
3096 2496 1
3096 4068 1
3096 6405 1
3096 7622 1
3096 7865 1
3097 261 1
3097 667 1
3097 1557 1
3097 2524 1
3098 47 1
3098 243 1
3098 262 1
3098 689 1
3098 5041 1
3098 5417 1
3099 271 1
3099 456 1
3099 663 1
3099 1395 1
3099 7506 1
3100 89 1
3100 420 1
3100 2501 1
3100 2983 1
3100 3190 1
3100 3386 1
3100 4162 1
3100 4718 1
3100 5399 1
3100 5525 1
3100 5875 1
3101 63 1
3101 667 1
3101 817 1
3101 1339 1
3101 6372 1
3101 8595 1
3101 9290 1
3102 434 1
3102 455 1
3102 825 1
3102 2623 1
3102 3819 1
3102 7082 1
3103 47 1
3103 438 1
3103 632 1
3103 1409 1
3103 4988 1
3103 8204 1
3103 9230 1
3103 9298 1
3104 5 1
3104 51 1
3104 56 1
3104 1260 1
3104 3583 1
3104 9474 1
3105 63 1
3105 188 1
3105 1868 1
3105 2111 1
3105 4412 1
3105 4790 1
3105 5071 1
3105 5261 1
3105 5588 1
3105 7105 1
3105 9345 1
3106 220 1
3106 1868 1
3106 2405 1
3106 2820 1
3106 7335 1
3107 39 1
3107 409 1
3107 750 1
3107 1392 1
3108 5 1
3108 97 1
3108 456 1
3108 1533 1
3108 3580 1
3108 3643 1
3108 3652 1
3108 3801 1
3109 56 1
3109 405 1
3109 1659 1
3109 2508 1
3109 6356 1
3109 6627 1
3109 7492 1
3109 8468 1
3110 1513 1
3110 1544 1
3110 1908 1
3110 2268 1
3110 4195 1
3110 4308 1
3110 5518 1
3110 8302 1
3111 14 1
3111 81 1
3111 161 1
3111 2062 1
3111 3453 1
3111 9302 1
3112 65 1
3112 270 1
3112 355 1
3112 2010 1
3112 4400 1
3112 4481 1
3112 4533 1
3112 4555 1
3112 4708 1
3112 5912 1
3112 8317 1
3113 411 1
3113 998 1
3113 1240 1
3113 1421 1
3113 8757 1
3114 27 1
3114 408 1
3114 1172 1
3114 1651 1
3114 3369 1
3114 5659 1
3115 191 1
3115 550 1
3115 1702 1
3115 2882 1
3115 3965 1
3115 4356 1
3115 6072 1
3115 8258 1
3115 9165 1
3115 9285 1
3115 9813 1
3116 148 1
3116 441 1
3116 1290 1
3116 1926 1
3116 3165 1
3116 8700 1
3117 293 1
3117 568 1
3117 704 1
3117 912 1
3117 3188 1
3117 4826 1
3117 6463 1
3117 7157 1
3118 403 1
3118 551 1
3118 630 1
3118 2835 1
3119 691 1
3119 965 1
3119 1341 1
3119 2409 1
3119 6030 1
3120 696 1
3120 1329 1
3120 1844 1
3120 2049 1
3120 7277 1
3121 1207 1
3121 1452 1
3121 2128 1
3121 2133 1
3121 6417 1
3121 7375 1
3121 8099 1
3122 132 1
3122 190 1
3122 707 1
3122 993 1
3123 193 1
3123 197 1
3123 1430 1
3123 2409 1
3123 4124 1
3123 5516 1
3123 6012 1
3123 8653 1
3123 9320 1
3123 9530 1
3124 502 1
3124 534 1
3124 863 1
3124 1339 1
3124 5177 1
3124 5577 1
3125 570 1
3125 632 1
3125 2294 1
3125 3052 1
3125 7502 1
3125 9569 1
3126 46 1
3126 224 1
3126 553 1
3126 2580 1
3126 3681 1
3126 4688 1
3126 5999 1
3126 9951 1
3127 20 1
3127 59 1
3127 673 1
3127 1297 1
3127 9860 1
3128 73 1
3128 117 1
3128 1797 1
3128 2981 1
3128 4824 1
3128 7625 1
3128 7634 1
3128 7864 1
3128 8310 1
3128 8351 1
3128 9147 1
3129 233 1
3129 275 1
3129 1038 1
3129 1088 1
3129 3201 1
3129 3822 1
3129 7247 1
3130 7 1
3130 8 1
3130 646 1
3130 3008 1
3130 5607 1
3130 9132 1
3131 149 1
3131 515 1
3131 622 1
3131 2504 1
3131 3312 1
3131 4191 1
3131 4285 1
3131 4482 1
3131 5653 1
3131 6373 1
3132 339 1
3132 363 1
3132 680 1
3132 2554 1
3132 3295 1
3132 4251 1
3132 8050 1
3133 119 1
3133 619 1
3133 1416 1
3133 2866 1
3133 5377 1
3134 6 1
3134 22 1
3134 597 1
3134 1260 1
3134 4988 1
3134 5276 1
3134 8194 1
3135 309 1
3135 347 1
3135 2389 1
3135 2925 1
3135 6143 1
3135 8409 1
3136 28 1
3136 645 1
3136 670 1
3136 1486 1
3136 5275 1
3136 5985 1
3136 8164 1
3137 642 1
3137 1134 1
3137 1498 1
3137 3037 1
3137 4619 1
3137 5683 1
3137 6286 1
3137 6571 1
3137 6726 1
3137 7075 1
3137 8407 1
3138 33 1
3138 96 1
3138 468 1
3138 2054 1
3138 9199 1
3138 9293 1
3139 706 1
3139 1532 1
3139 2853 1
3139 2894 1
3139 3791 1
3139 4138 1
3139 5539 1
3139 7888 1
3139 9771 1
3140 22 1
3140 171 1
3140 1921 1
3140 2293 1
3140 3774 1
3140 3902 1
3140 4341 1
3140 4631 1
3140 7941 1
3141 34 1
3141 118 1
3141 1114 1
3141 1192 1
3141 3559 1
3141 4260 1
3141 5178 1
3141 7866 1
3141 9211 1
3141 9599 1
3142 88 1
3142 133 1
3142 718 1
3142 1274 1
3142 3676 1
3142 3887 1
3142 4056 1
3142 4130 1
3142 5793 1
3142 6662 1
3142 8216 1
3142 9059 1
3142 9297 1
3143 68 1
3143 1262 1
3143 2216 1
3143 2387 1
3143 3377 1
3143 3969 1
3144 7 1
3144 250 1
3144 981 1
3144 1395 1
3144 4469 1
3144 5453 1
3144 7996 1
3145 116 1
3145 262 1
3145 391 1
3145 568 1
3145 4811 1
3145 6300 1
3145 6328 1
3145 7512 1
3145 8490 1
3145 8809 1
3146 6 1
3146 493 1
3146 679 1
3146 733 1
3147 133 1
3147 1108 1
3147 2163 1
3147 2595 1
3147 4591 1
3147 4604 1
3148 107 1
3148 440 1
3148 642 1
3148 2380 1
3148 8181 1
3148 9955 1
3148 9963 1
3149 11 1
3149 181 1
3149 457 1
3149 1919 1
3149 4123 1
3149 5383 1
3149 5945 1
3150 365 1
3150 960 1
3150 1023 1
3150 2282 1
3150 4803 1
3150 5445 1
3150 5680 1
3150 5847 1
3150 8064 1
3150 9698 1
3151 7 1
3151 27 1
3151 75 1
3151 2709 1
3151 7536 1
3152 78 1
3152 557 1
3152 1721 1
3152 2989 1
3153 576 1
3153 1408 1
3153 2009 1
3153 2852 1
3153 5537 1
3153 7499 1
3153 9597 1
3154 115 1
3154 271 1
3154 1360 1
3154 3089 1
3154 7005 1
3154 7175 1
3154 7204 1
3154 7312 1
3155 314 1
3155 1131 1
3155 1477 1
3155 1567 1
3155 3980 1
3155 5953 1
3155 9231 1
3156 244 1
3156 791 1
3156 1101 1
3156 2648 1
3156 9742 1
3157 7 1
3157 96 1
3157 496 1
3157 739 1
3157 3919 1
3157 4513 1
3157 4570 1
3157 4586 1
3158 39 1
3158 127 1
3158 847 1
3158 1007 1
3158 3405 1
3158 4367 1
3158 4749 1
3158 5135 1
3158 5255 1
3158 6913 1
3158 8601 1
3159 37 1
3159 955 1
3159 1116 1
3159 2861 1
3159 4814 1
3159 5701 1
3159 6122 1
3159 7510 1
3159 7974 1
3160 535 1
3160 2068 1
3160 2345 1
3160 2498 1
3160 8002 1
3161 24 1
3161 84 1
3161 1030 1
3161 2212 1
3162 53 1
3162 508 1
3162 1117 1
3162 1695 1
3162 3493 1
3162 4202 1
3162 4485 1
3162 4648 1
3162 5111 1
3162 6214 1
3162 9766 1
3163 106 1
3163 156 1
3163 1479 1
3163 2890 1
3163 3955 1
3163 4184 1
3163 4720 1
3163 5770 1
3163 5831 1
3163 5917 1
3163 6438 1
3163 6446 1
3163 8476 1
3163 8649 1
3163 8885 1
3163 8955 1
3163 9512 1
3164 6 1
3164 74 1
3164 176 1
3164 1941 1
3164 4006 1
3164 8072 1
3164 9409 1
3164 9899 1
3165 776 1
3165 1039 1
3165 1171 1
3165 3116 1
3165 3875 1
3165 5387 1
3165 5743 1
3165 6961 1
3166 261 1
3166 346 1
3166 561 1
3166 810 1
3166 3394 1
3166 4191 1
3166 5389 1
3166 5818 1
3166 5871 1
3166 7124 1
3167 9 1
3167 19 1
3167 1503 1
3167 2409 1
3167 3320 1
3167 7185 1
3167 9129 1
3168 989 1
3168 1062 1
3168 1923 1
3168 2737 1
3168 6611 1
3168 7376 1
3169 53 1
3169 368 1
3169 568 1
3169 2192 1
3169 3303 1
3169 3502 1
3169 4987 1
3169 5603 1
3169 5707 1
3169 9591 1
3170 3 1
3170 657 1
3170 1145 1
3170 2287 1
3170 5223 1
3170 5668 1
3171 47 1
3171 2111 1
3171 2865 1
3171 2870 1
3171 3357 1
3171 3563 1
3171 3568 1
3171 3637 1
3171 6483 1
3171 9420 1
3171 9689 1
3172 739 1
3172 910 1
3172 944 1
3172 1234 1
3172 4301 1
3172 4502 1
3172 6166 1
3172 7951 1
3172 8047 1
3173 838 1
3173 953 1
3173 1106 1
3173 1514 1
3173 4352 1
3173 8856 1
3174 95 1
3174 146 1
3174 1982 1
3174 2071 1
3174 4322 1
3174 5790 1
3174 6403 1
3174 6555 1
3174 7595 1
3175 23 1
3175 120 1
3175 429 1
3175 2580 1
3175 4511 1
3175 4817 1
3175 5580 1
3175 7565 1
3176 13 1
3176 260 1
3176 712 1
3176 804 1
3176 3751 1
3176 4258 1
3176 7046 1
3176 7070 1
3176 7807 1
3176 9139 1
3177 6 1
3177 223 1
3177 873 1
3177 2590 1
3177 3397 1
3178 10 1
3178 1165 1
3178 2104 1
3178 2323 1
3178 8951 1
3178 9084 1
3179 134 1
3179 1096 1
3179 2250 1
3179 2608 1
3180 579 1
3180 1523 1
3180 1974 1
3180 2143 1
3181 6 1
3181 568 1
3181 816 1
3181 1282 1
3181 3210 1
3181 4413 1
3181 5196 1
3181 5204 1
3181 5681 1
3181 6105 1
3181 8562 1
3181 9115 1
3181 9214 1
3182 158 1
3182 285 1
3182 784 1
3182 1849 1
3182 4461 1
3183 185 1
3183 310 1
3183 396 1
3183 1313 1
3183 4765 1
3183 5149 1
3183 6785 1
3183 7788 1
3183 7811 1
3183 9156 1
3183 9796 1
3183 9981 1
3184 6 1
3184 149 1
3184 310 1
3184 1323 1
3184 4929 1
3184 5065 1
3184 6880 1
3185 1821 1
3185 1923 1
3185 2194 1
3185 2234 1
3185 3338 1
3185 3342 1
3185 3637 1
3185 7098 1
3185 7626 1
3186 244 1
3186 850 1
3186 2005 1
3186 2491 1
3186 5090 1
3186 5772 1
3187 151 1
3187 330 1
3187 1268 1
3187 1426 1
3187 6509 1
3187 6718 1
3187 8947 1
3187 9419 1
3187 9842 1
3188 224 1
3188 1681 1
3188 2400 1
3188 3117 1
3188 4763 1
3188 5652 1
3188 7255 1
3188 8466 1
3188 9070 1
3188 9155 1
3189 198 1
3189 605 1
3189 981 1
3189 1576 1
3189 7820 1
3190 381 1
3190 1020 1
3190 1978 1
3190 3100 1
3190 3318 1
3190 8714 1
3190 9143 1
3190 9560 1
3191 9 1
3191 660 1
3191 839 1
3191 2187 1
3192 5 1
3192 1431 1
3192 1482 1
3192 1986 1
3192 5694 1
3193 269 1
3193 334 1
3193 1754 1
3193 1926 1
3193 6057 1
3193 8887 1
3193 9443 1
3194 1004 1
3194 1309 1
3194 1690 1
3194 2848 1
3194 4939 1
3194 5285 1
3194 5580 1
3194 6307 1
3194 6936 1
3194 7036 1
3194 7121 1
3194 9016 1
3195 241 1
3195 776 1
3195 789 1
3195 1559 1
3195 3282 1
3195 7273 1
3195 7532 1
3195 8380 1
3196 55 1
3196 375 1
3196 1539 1
3196 1743 1
3196 4746 1
3196 6034 1
3196 6453 1
3196 9114 1
3196 9969 1
3197 76 1
3197 213 1
3197 392 1
3197 974 1
3197 5596 1
3197 6562 1
3197 7184 1
3197 8045 1
3197 8411 1
3198 610 1
3198 959 1
3198 1347 1
3198 1538 1
3198 3286 1
3198 4568 1
3199 1754 1
3199 1839 1
3199 2147 1
3199 2908 1
3199 3516 1
3199 7617 1
3199 7922 1
3200 7 1
3200 32 1
3200 1274 1
3200 2141 1
3200 3616 1
3200 4935 1
3200 6329 1
3200 7594 1
3200 9957 1
3201 1283 1
3201 1985 1
3201 2603 1
3201 3129 1
3202 51 1
3202 427 1
3202 804 1
3202 1786 1
3202 5496 1
3203 49 1
3203 640 1
3203 1108 1
3203 2310 1
3203 3920 1
3203 4899 1
3203 5028 1
3203 6608 1
3203 8940 1
3204 89 1
3204 112 1
3204 604 1
3204 2584 1
3204 3474 1
3204 3924 1
3204 4360 1
3204 7635 1
3204 7966 1
3205 142 1
3205 2303 1
3205 2556 1
3205 2821 1
3206 128 1
3206 216 1
3206 313 1
3206 3039 1
3206 6655 1
3206 7597 1
3206 8886 1
3206 9891 1
3207 142 1
3207 1596 1
3207 1724 1
3207 2581 1
3207 5207 1
3207 5227 1
3207 5986 1
3207 6047 1
3207 6286 1
3207 7958 1
3207 8682 1
3208 26 1
3208 138 1
3208 797 1
3208 2247 1
3208 9814 1
3209 6 1
3209 65 1
3209 103 1
3209 1528 1
3209 3484 1
3210 287 1
3210 475 1
3210 1435 1
3210 3181 1
3210 3736 1
3210 4554 1
3210 5349 1
3210 5505 1
3211 134 1
3211 182 1
3211 436 1
3211 488 1
3211 7441 1
3211 9395 1
3212 3 1
3212 275 1
3212 735 1
3212 1489 1
3212 3327 1
3212 4051 1
3212 4524 1
3212 5792 1
3212 6367 1
3212 7314 1
3212 8770 1
3212 9426 1
3213 13 1
3213 1475 1
3213 2451 1
3213 2905 1
3213 4235 1
3213 4955 1
3213 5308 1
3213 6989 1
3213 9083 1
3214 517 1
3214 902 1
3214 908 1
3214 2839 1
3214 3463 1
3214 4026 1
3214 6683 1
3214 7354 1
3214 9929 1
3215 1 1
3215 264 1
3215 1634 1
3215 2367 1
3215 6718 1
3215 8078 1
3216 220 1
3216 390 1
3216 2650 1
3216 2921 1
3216 3649 1
3216 3667 1
3216 3832 1
3216 4452 1
3216 5154 1
3216 5536 1
3216 6747 1
3216 8760 1
3217 109 1
3217 570 1
3217 949 1
3217 3054 1
3217 9725 1
3218 458 1
3218 637 1
3218 702 1
3218 2288 1
3219 142 1
3219 507 1
3219 1100 1
3219 1684 1
3219 3264 1
3219 4232 1
3219 6504 1
3220 112 1
3220 540 1
3220 2037 1
3220 2125 1
3220 3243 1
3220 6053 1
3221 1758 1
3221 2002 1
3221 2563 1
3221 3083 1
3221 3535 1
3221 3909 1
3221 4318 1
3221 4737 1
3221 5678 1
3222 17 1
3222 24 1
3222 2066 1
3222 2799 1
3223 14 1
3223 109 1
3223 939 1
3223 1911 1
3223 4466 1
3223 5148 1
3223 5872 1
3223 9801 1
3224 25 1
3224 105 1
3224 842 1
3224 1792 1
3225 390 1
3225 874 1
3225 1041 1
3225 1252 1
3225 3759 1
3225 4038 1
3225 6404 1
3225 7391 1
3226 370 1
3226 1039 1
3226 2409 1
3226 2933 1
3226 3380 1
3226 6304 1
3227 71 1
3227 1360 1
3227 1983 1
3227 2223 1
3228 398 1
3228 1293 1
3228 2080 1
3228 2604 1
3228 4846 1
3228 4910 1
3228 6093 1
3229 309 1
3229 836 1
3229 1693 1
3229 2293 1
3229 6006 1
3229 6896 1
3230 1444 1
3230 2125 1
3230 2512 1
3230 2986 1
3230 5830 1
3231 798 1
3231 1367 1
3231 1410 1
3231 1757 1
3231 3827 1
3231 4994 1
3231 5109 1
3231 5350 1
3231 7347 1
3231 7817 1
3231 8400 1
3232 95 1
3232 1343 1
3232 1407 1
3232 1851 1
3232 3854 1
3232 4898 1
3232 5153 1
3233 845 1
3233 1477 1
3233 1910 1
3233 2028 1
3233 3279 1
3233 3644 1
3233 3897 1
3233 7689 1
3234 23 1
3234 70 1
3234 623 1
3234 1028 1
3234 3427 1
3234 3912 1
3234 6815 1
3234 8519 1
3234 8890 1
3234 9469 1
3234 9821 1
3234 9830 1
3235 461 1
3235 1064 1
3235 1606 1
3235 2268 1
3235 3494 1
3235 7109 1
3235 9002 1
3235 9386 1
3236 3 1
3236 56 1
3236 173 1
3236 1600 1
3236 4437 1
3237 85 1
3237 225 1
3237 847 1
3237 1682 1
3237 4613 1
3237 5556 1
3237 7243 1
3238 13 1
3238 197 1
3238 259 1
3238 289 1
3238 3753 1
3238 4330 1
3238 4739 1
3238 6704 1
3238 7836 1
3238 9733 1
3239 70 1
3239 336 1
3239 512 1
3239 770 1
3239 3662 1
3239 6630 1
3240 3 1
3240 101 1
3240 992 1
3240 2681 1
3240 4251 1
3240 5122 1
3240 7322 1
3240 9367 1
3241 87 1
3241 123 1
3241 309 1
3241 447 1
3241 8038 1
3242 441 1
3242 580 1
3242 1318 1
3242 2247 1
3242 4474 1
3242 7137 1
3242 7947 1
3243 9 1
3243 476 1
3243 982 1
3243 3220 1
3243 5387 1
3243 6639 1
3243 8027 1
3244 966 1
3244 1059 1
3244 1610 1
3244 2879 1
3244 4268 1
3244 5807 1
3244 9840 1
3245 300 1
3245 535 1
3245 710 1
3245 2724 1
3245 5305 1
3245 8022 1
3245 9790 1
3246 138 1
3246 701 1
3246 1261 1
3246 1707 1
3246 4249 1
3246 5317 1
3246 7561 1
3246 7759 1
3246 8879 1
3246 9024 1
3246 9214 1
3247 127 1
3247 440 1
3247 441 1
3247 2052 1
3247 3558 1
3248 1716 1
3248 2060 1
3248 2071 1
3248 2172 1
3248 5835 1
3248 6032 1
3248 8789 1
3249 111 1
3249 1845 1
3249 2000 1
3249 2490 1
3249 3619 1
3249 4201 1
3249 7813 1
3249 8984 1
3249 9337 1
3250 97 1
3250 323 1
3250 512 1
3250 3055 1
3250 3319 1
3250 3572 1
3250 6889 1
3250 7777 1
3250 9145 1
3251 132 1
3251 206 1
3251 527 1
3251 1091 1
3251 7810 1
3252 37 1
3252 317 1
3252 323 1
3252 792 1
3252 3562 1
3252 3865 1
3252 5439 1
3252 5917 1
3253 784 1
3253 2159 1
3253 2169 1
3253 2321 1
3253 3320 1
3253 3728 1
3253 4416 1
3253 6474 1
3253 8126 1
3253 8410 1
3254 46 1
3254 676 1
3254 1772 1
3254 2151 1
3254 4715 1
3254 5559 1
3255 228 1
3255 370 1
3255 845 1
3255 1178 1
3255 3740 1
3255 4288 1
3255 6189 1
3256 14 1
3256 1283 1
3256 2087 1
3256 2157 1
3256 8282 1
3257 6 1
3257 124 1
3257 443 1
3257 744 1
3257 5174 1
3257 8867 1
3258 21 1
3258 832 1
3258 1060 1
3258 1646 1
3258 3336 1
3258 3747 1
3258 3931 1
3259 41 1
3259 91 1
3259 729 1
3259 830 1
3259 3375 1
3259 4007 1
3259 6792 1
3260 110 1
3260 188 1
3260 586 1
3260 840 1
3260 7856 1
3261 630 1
3261 778 1
3261 1294 1
3261 2996 1
3261 4028 1
3261 9660 1
3262 6 1
3262 434 1
3262 1297 1
3262 1369 1
3262 3571 1
3262 3926 1
3262 3929 1
3262 6870 1
3262 6891 1
3262 8874 1
3262 9013 1
3262 9180 1
3263 3 1
3263 298 1
3263 882 1
3263 1674 1
3263 5317 1
3263 6858 1
3264 173 1
3264 236 1
3264 1385 1
3264 3219 1
3264 3764 1
3264 8283 1
3264 8405 1
3264 9762 1
3265 29 1
3265 249 1
3265 521 1
3265 3034 1
3265 4210 1
3265 8542 1
3266 194 1
3266 312 1
3266 1977 1
3266 2185 1
3266 3637 1
3266 4751 1
3266 6364 1
3266 7290 1
3266 7355 1
3266 7614 1
3267 142 1
3267 293 1
3267 610 1
3267 1131 1
3267 7442 1
3267 8094 1
3268 12 1
3268 57 1
3268 100 1
3268 1766 1
3268 3752 1
3268 4456 1
3268 5785 1
3268 6558 1
3268 6939 1
3268 7248 1
3269 536 1
3269 868 1
3269 1295 1
3269 1464 1
3269 4372 1
3269 8156 1
3269 8884 1
3270 37 1
3270 498 1
3270 1071 1
3270 2194 1
3270 4513 1
3270 8041 1
3271 729 1
3271 799 1
3271 2684 1
3271 2685 1
3271 3726 1
3271 4727 1
3271 5727 1
3272 56 1
3272 854 1
3272 1386 1
3272 1556 1
3272 3417 1
3272 3790 1
3272 5599 1
3272 7558 1
3272 9976 1
3273 55 1
3273 133 1
3273 411 1
3273 2683 1
3273 5242 1
3273 8377 1
3274 14 1
3274 17 1
3274 335 1
3274 586 1
3274 5698 1
3274 8385 1
3275 26 1
3275 588 1
3275 713 1
3275 2437 1
3275 4164 1
3275 5274 1
3275 5729 1
3275 9495 1
3275 9693 1
3276 87 1
3276 1191 1
3276 1257 1
3276 2216 1
3276 4099 1
3276 6830 1
3277 6 1
3277 281 1
3277 1103 1
3277 1740 1
3277 5803 1
3277 6967 1
3277 8249 1
3278 458 1
3278 644 1
3278 799 1
3278 1721 1
3278 6463 1
3279 2488 1
3279 2645 1
3279 2758 1
3279 3233 1
3280 9 1
3280 271 1
3280 298 1
3280 2786 1
3280 5049 1
3280 7725 1
3280 8709 1
3280 8755 1
3280 8979 1
3280 9342 1
3281 230 1
3281 264 1
3281 718 1
3281 1064 1
3281 3470 1
3281 6494 1
3281 9798 1
3282 489 1
3282 2144 1
3282 2673 1
3282 3195 1
3282 8327 1
3283 1056 1
3283 1719 1
3283 1756 1
3283 2739 1
3283 3350 1
3283 6532 1
3283 6571 1
3283 7033 1
3284 213 1
3284 309 1
3284 419 1
3284 1441 1
3284 7527 1
3284 8020 1
3285 642 1
3285 1709 1
3285 1737 1
3285 2934 1
3285 5147 1
3285 5567 1
3285 7300 1
3285 7578 1
3286 575 1
3286 1555 1
3286 1670 1
3286 3198 1
3286 5937 1
3286 6278 1
3286 8781 1
3286 9152 1
3286 9213 1
3286 9690 1
3287 160 1
3287 1607 1
3287 2328 1
3287 2981 1
3287 5818 1
3287 9399 1
3288 347 1
3288 371 1
3288 2059 1
3288 2368 1
3288 5206 1
3288 9987 1
3289 81 1
3289 1616 1
3289 1999 1
3289 2771 1
3289 7057 1
3290 14 1
3290 27 1
3290 199 1
3290 295 1
3290 3820 1
3290 4563 1
3290 6609 1
3291 95 1
3291 843 1
3291 1926 1
3291 2061 1
3292 58 1
3292 66 1
3292 556 1
3292 1896 1
3293 19 1
3293 1600 1
3293 1683 1
3293 2252 1
3293 3633 1
3293 3995 1
3293 4250 1
3293 4312 1
3293 6237 1
3293 7723 1
3293 8389 1
3294 102 1
3294 606 1
3294 1377 1
3294 2879 1
3294 3831 1
3294 5355 1
3294 6253 1
3294 7366 1
3294 8026 1
3294 8317 1
3295 16 1
3295 918 1
3295 2422 1
3295 3132 1
3296 615 1
3296 1449 1
3296 2358 1
3296 2373 1
3296 6213 1
3296 6993 1
3296 8563 1
3297 37 1
3297 193 1
3297 1533 1
3297 2791 1
3297 3440 1
3297 8877 1
3297 9523 1
3298 91 1
3298 873 1
3298 1373 1
3298 3002 1
3298 4877 1
3298 5590 1
3298 7631 1
3299 200 1
3299 218 1
3299 293 1
3299 1171 1
3300 193 1
3300 230 1
3300 1552 1
3300 1780 1
3300 4523 1
3300 4898 1
3300 5044 1
3300 5495 1
3300 6318 1
3300 6618 1
3300 6624 1
3300 7432 1
3300 7737 1
3300 9193 1
3300 9433 1
3300 9487 1
3301 106 1
3301 1943 1
3301 2340 1
3301 2716 1
3302 41 1
3302 1925 1
3302 2942 1
3302 2992 1
3302 5263 1
3303 3 1
3303 23 1
3303 105 1
3303 3169 1
3303 4999 1
3303 5887 1
3303 5957 1
3304 97 1
3304 549 1
3304 635 1
3304 1067 1
3304 4021 1
3304 5120 1
3304 7558 1
3305 60 1
3305 1492 1
3305 1682 1
3305 3088 1
3305 7544 1
3305 9521 1
3305 9614 1
3306 4 1
3306 19 1
3306 254 1
3306 789 1
3306 4073 1
3306 4079 1
3306 6327 1
3306 7019 1
3306 7039 1
3306 7968 1
3306 8365 1
3307 326 1
3307 704 1
3307 954 1
3307 1753 1
3307 5310 1
3307 5996 1
3307 6580 1
3307 9594 1
3307 9932 1
3308 190 1
3308 1276 1
3308 1563 1
3308 1959 1
3308 5868 1
3308 7491 1
3308 7615 1
3309 6 1
3309 252 1
3309 718 1
3309 2718 1
3309 5751 1
3309 9944 1
3310 789 1
3310 1880 1
3310 2139 1
3310 3018 1
3310 3601 1
3310 5397 1
3310 6720 1
3310 8004 1
3311 323 1
3311 527 1
3311 2159 1
3311 3072 1
3311 8242 1
3312 525 1
3312 1041 1
3312 2023 1
3312 3131 1
3312 5253 1
3312 6371 1
3312 7404 1
3312 8294 1
3313 12 1
3313 1458 1
3313 1470 1
3313 1498 1
3313 3811 1
3313 4116 1
3313 6130 1
3313 7588 1
3314 166 1
3314 517 1
3314 1028 1
3314 2763 1
3314 4711 1
3314 5262 1
3314 6644 1
3315 249 1
3315 808 1
3315 1091 1
3315 2434 1
3315 4181 1
3315 7438 1
3315 8514 1
3315 9703 1
3315 9775 1
3316 162 1
3316 183 1
3316 606 1
3316 2661 1
3316 6600 1
3316 6727 1
3316 8624 1
3317 619 1
3317 903 1
3317 968 1
3317 2686 1
3317 5481 1
3317 5594 1
3318 85 1
3318 1021 1
3318 1262 1
3318 3190 1
3318 3324 1
3318 3424 1
3318 8648 1
3318 8905 1
3319 700 1
3319 1839 1
3319 2336 1
3319 3250 1
3319 4279 1
3319 6311 1
3319 9925 1
3320 1311 1
3320 1721 1
3320 3167 1
3320 3253 1
3320 4391 1
3320 4604 1
3320 4859 1
3320 6713 1
3320 6896 1
3320 8380 1
3320 8520 1
3320 9854 1
3321 298 1
3321 1063 1
3321 1411 1
3321 1965 1
3321 3631 1
3321 4672 1
3321 4936 1
3322 1311 1
3322 2170 1
3322 2810 1
3322 3003 1
3322 5440 1
3322 5594 1
3322 5632 1
3322 5819 1
3322 5986 1
3322 6753 1
3322 7001 1
3322 8276 1
3323 78 1
3323 497 1
3323 2294 1
3323 2545 1
3323 3559 1
3323 4638 1
3323 5388 1
3323 7440 1
3323 8516 1
3323 8652 1
3324 459 1
3324 1041 1
3324 1265 1
3324 3318 1
3324 3934 1
3324 4634 1
3325 319 1
3325 419 1
3325 791 1
3325 1198 1
3325 4754 1
3325 6345 1
3325 8755 1
3326 36 1
3326 419 1
3326 653 1
3326 2889 1
3326 3496 1
3326 4723 1
3326 5136 1
3326 6870 1
3327 708 1
3327 1561 1
3327 2235 1
3327 3212 1
3327 5106 1
3327 7033 1
3327 7848 1
3327 8289 1
3327 8405 1
3328 159 1
3328 1268 1
3328 1600 1
3328 2472 1
3328 4662 1
3328 5648 1
3329 270 1
3329 507 1
3329 580 1
3329 711 1
3329 4195 1
3329 5558 1
3329 7954 1
3329 8220 1
3330 296 1
3330 301 1
3330 364 1
3330 1444 1
3330 6523 1
3331 5 1
3331 191 1
3331 1746 1
3331 2561 1
3331 4029 1
3331 7853 1
3331 9250 1
3332 63 1
3332 984 1
3332 1197 1
3332 2844 1
3332 4920 1
3333 16 1
3333 1143 1
3333 1526 1
3333 2237 1
3333 7121 1
3333 7982 1
3334 561 1
3334 1628 1
3334 2031 1
3334 2586 1
3334 3863 1
3334 4002 1
3334 4078 1
3334 4514 1
3334 5527 1
3334 6824 1
3334 6855 1
3334 9773 1
3335 12 1
3335 251 1
3335 274 1
3335 2060 1
3335 3590 1
3335 6740 1
3335 9106 1
3336 664 1
3336 698 1
3336 1350 1
3336 3258 1
3336 3399 1
3336 4255 1
3337 213 1
3337 1536 1
3337 2004 1
3337 2715 1
3337 4269 1
3337 4961 1
3337 5633 1
3337 5897 1
3337 6085 1
3337 9967 1
3338 8 1
3338 640 1
3338 786 1
3338 3185 1
3338 3584 1
3338 6103 1
3338 8212 1
3338 8501 1
3339 179 1
3339 666 1
3339 1289 1
3339 1428 1
3339 6368 1
3339 6890 1
3340 7 1
3340 64 1
3340 618 1
3340 1461 1
3340 3398 1
3340 5977 1
3340 6132 1
3340 7955 1
3341 556 1
3341 678 1
3341 1107 1
3341 1155 1
3341 3486 1
3341 6807 1
3341 6905 1
3342 1 1
3342 243 1
3342 2999 1
3342 3185 1
3342 4873 1
3342 6035 1
3342 6535 1
3343 10 1
3343 181 1
3343 926 1
3343 2932 1
3344 26 1
3344 831 1
3344 857 1
3344 2651 1
3344 4132 1
3344 6392 1
3344 6863 1
3344 8911 1
3345 60 1
3345 360 1
3345 654 1
3345 2674 1
3345 4665 1
3345 6276 1
3345 7874 1
3345 8252 1
3345 9656 1
3346 522 1
3346 652 1
3346 840 1
3346 2364 1
3346 4355 1
3346 4683 1
3347 127 1
3347 157 1
3347 1078 1
3347 1165 1
3347 3507 1
3347 8201 1
3348 75 1
3348 405 1
3348 1589 1
3348 1690 1
3348 4199 1
3348 6835 1
3348 6868 1
3349 13 1
3349 39 1
3349 49 1
3349 1775 1
3349 4499 1
3349 5505 1
3349 7575 1
3350 279 1
3350 318 1
3350 1040 1
3350 3283 1
3351 17 1
3351 188 1
3351 239 1
3351 336 1
3351 3475 1
3351 3936 1
3351 3961 1
3351 6661 1
3351 7894 1
3352 335 1
3352 1036 1
3352 1106 1
3352 1373 1
3353 296 1
3353 580 1
3353 1079 1
3353 1688 1
3353 4044 1
3353 5282 1
3353 5412 1
3353 6704 1
3353 7756 1
3354 1388 1
3354 1546 1
3354 1553 1
3354 2398 1
3354 5691 1
3354 6074 1
3354 6132 1
3354 7089 1
3354 9532 1
3355 244 1
3355 325 1
3355 913 1
3355 1681 1
3355 9344 1
3356 36 1
3356 928 1
3356 929 1
3356 1985 1
3356 4469 1
3356 5964 1
3357 186 1
3357 1408 1
3357 2144 1
3357 3171 1
3357 3750 1
3357 4271 1
3357 5091 1
3358 436 1
3358 884 1
3358 1967 1
3358 2798 1
3358 4460 1
3358 6206 1
3358 6452 1
3358 8654 1
3359 182 1
3359 1970 1
3359 2209 1
3359 2648 1
3359 9589 1
3360 190 1
3360 1804 1
3360 2510 1
3360 2682 1
3360 4439 1
3360 5213 1
3360 6268 1
3361 27 1
3361 664 1
3361 1555 1
3361 2278 1
3361 3365 1
3361 8431 1
3362 6 1
3362 84 1
3362 753 1
3362 904 1
3362 3367 1
3362 9973 1
3363 612 1
3363 728 1
3363 925 1
3363 2264 1
3363 7926 1
3364 1004 1
3364 1140 1
3364 1889 1
3364 2086 1
3364 3387 1
3364 4965 1
3364 5037 1
3364 5850 1
3364 5979 1
3364 6118 1
3364 6576 1
3364 6614 1
3364 7200 1
3364 8903 1
3364 9177 1
3364 9348 1
3364 9646 1
3364 9908 1
3365 30 1
3365 899 1
3365 978 1
3365 3361 1
3365 3857 1
3365 5041 1
3365 7368 1
3365 9023 1
3366 157 1
3366 470 1
3366 1779 1
3366 2998 1
3366 8693 1
3367 197 1
3367 289 1
3367 1405 1
3367 3362 1
3368 1 1
3368 113 1
3368 456 1
3368 1685 1
3368 7229 1
3369 8 1
3369 223 1
3369 2489 1
3369 3114 1
3369 5084 1
3369 6790 1
3370 181 1
3370 988 1
3370 1301 1
3370 2825 1
3370 5745 1
3370 9423 1
3371 95 1
3371 134 1
3371 1262 1
3371 1518 1
3371 3416 1
3371 4242 1
3372 3 1
3372 1674 1
3372 1681 1
3372 3022 1
3372 4225 1
3372 6062 1
3373 28 1
3373 277 1
3373 689 1
3373 799 1
3374 79 1
3374 577 1
3374 833 1
3374 986 1
3374 3708 1
3374 3794 1
3374 4861 1
3374 5584 1
3374 7531 1
3374 7751 1
3374 8308 1
3374 8411 1
3375 204 1
3375 1718 1
3375 1865 1
3375 3259 1
3375 4172 1
3375 5828 1
3375 6623 1
3376 8 1
3376 58 1
3376 1297 1
3376 2488 1
3377 542 1
3377 1513 1
3377 2455 1
3377 3143 1
3377 6280 1
3377 9079 1
3378 439 1
3378 1329 1
3378 1389 1
3378 2672 1
3378 3759 1
3378 3992 1
3378 5134 1
3378 5635 1
3378 6375 1
3378 7929 1
3378 9586 1
3378 9721 1
3378 9812 1
3378 9919 1
3379 177 1
3379 607 1
3379 1248 1
3379 1451 1
3379 3820 1
3379 5964 1
3379 7111 1
3380 356 1
3380 1422 1
3380 1800 1
3380 3226 1
3380 4303 1
3380 6315 1
3380 8366 1
3381 19 1
3381 281 1
3381 499 1
3381 1478 1
3381 3721 1
3381 5608 1
3381 6805 1
3381 9478 1
3382 244 1
3382 390 1
3382 421 1
3382 2153 1
3382 5502 1
3382 6350 1
3383 97 1
3383 198 1
3383 654 1
3383 707 1
3383 4267 1
3383 7148 1
3383 9848 1
3384 677 1
3384 1012 1
3384 2340 1
3384 2612 1
3384 8306 1
3385 268 1
3385 1002 1
3385 2586 1
3385 2969 1
3386 398 1
3386 1080 1
3386 1816 1
3386 3100 1
3386 3745 1
3386 3927 1
3386 7686 1
3386 7743 1
3386 8771 1
3386 9190 1
3386 9694 1
3387 17 1
3387 1600 1
3387 2512 1
3387 3364 1
3387 3727 1
3387 5139 1
3387 6902 1
3387 8572 1
3388 6 1
3388 840 1
3388 1002 1
3388 1460 1
3388 3486 1
3388 3596 1
3388 3628 1
3388 3718 1
3388 4631 1
3388 6051 1
3388 6385 1
3388 6780 1
3388 7166 1
3389 37 1
3389 423 1
3389 567 1
3389 1030 1
3389 3440 1
3389 8163 1
3390 301 1
3390 404 1
3390 499 1
3390 1807 1
3390 3761 1
3390 4188 1
3390 4967 1
3390 5321 1
3390 5370 1
3390 6003 1
3390 7713 1
3391 231 1
3391 259 1
3391 1027 1
3391 2144 1
3391 3622 1
3391 6329 1
3391 6432 1
3391 7521 1
3391 9567 1
3391 9930 1
3392 666 1
3392 744 1
3392 2164 1
3392 2735 1
3392 3498 1
3392 3619 1
3392 4017 1
3392 5241 1
3392 5536 1
3392 5765 1
3392 5889 1
3392 6666 1
3392 6711 1
3392 7059 1
3392 8018 1
3392 8615 1
3392 9601 1
3392 9664 1
3393 2 1
3393 62 1
3393 1198 1
3393 2499 1
3394 226 1
3394 251 1
3394 667 1
3394 3166 1
3394 3665 1
3394 4732 1
3394 6248 1
3394 6666 1
3395 34 1
3395 963 1
3395 1724 1
3395 3077 1
3395 4464 1
3395 4844 1
3395 5155 1
3395 5330 1
3395 6219 1
3395 8748 1
3395 9055 1
3395 9381 1
3396 26 1
3396 419 1
3396 528 1
3396 1976 1
3397 1710 1
3397 2010 1
3397 2595 1
3397 3177 1
3397 3804 1
3397 4277 1
3397 5641 1
3397 5863 1
3397 6399 1
3397 6420 1
3397 7058 1
3397 7877 1
3397 8769 1
3397 9428 1
3398 417 1
3398 421 1
3398 2966 1
3398 3340 1
3399 93 1
3399 227 1
3399 1280 1
3399 3336 1
3399 8341 1
3399 8995 1
3400 875 1
3400 963 1
3400 1705 1
3400 2797 1
3400 4709 1
3400 4968 1
3400 9700 1
3401 14 1
3401 66 1
3401 227 1
3401 307 1
3401 7671 1
3402 22 1
3402 198 1
3402 2151 1
3402 2573 1
3402 5885 1
3402 6483 1
3402 9743 1
3403 49 1
3403 222 1
3403 368 1
3403 599 1
3403 6694 1
3404 118 1
3404 278 1
3404 1467 1
3404 1639 1
3404 4467 1
3405 77 1
3405 262 1
3405 2128 1
3405 3158 1
3405 3732 1
3405 5114 1
3405 6146 1
3405 9448 1
3406 37 1
3406 785 1
3406 1803 1
3406 2194 1
3406 4036 1
3406 5862 1
3406 7210 1
3407 15 1
3407 299 1
3407 771 1
3407 1105 1
3407 4652 1
3408 139 1
3408 190 1
3408 790 1
3408 1289 1
3408 5109 1
3408 5239 1
3408 6187 1
3408 9241 1
3409 71 1
3409 927 1
3409 1616 1
3409 2789 1
3409 3819 1
3409 6277 1
3409 6670 1
3409 7935 1
3410 1367 1
3410 1559 1
3410 2055 1
3410 2805 1
3410 4161 1
3410 8521 1
3411 465 1
3411 904 1
3411 1354 1
3411 2741 1
3411 5345 1
3412 11 1
3412 13 1
3412 262 1
3412 640 1
3412 5422 1
3412 9453 1
3413 78 1
3413 495 1
3413 1193 1
3413 1319 1
3413 5123 1
3413 7221 1
3413 7351 1
3413 8902 1
3414 253 1
3414 341 1
3414 351 1
3414 606 1
3414 5588 1
3415 40 1
3415 58 1
3415 1008 1
3415 2179 1
3415 5690 1
3415 6281 1
3415 7519 1
3415 7991 1
3416 4 1
3416 30 1
3416 379 1
3416 3371 1
3416 3724 1
3416 4750 1
3416 9640 1
3417 503 1
3417 2244 1
3417 2274 1
3417 3272 1
3417 5869 1
3417 6033 1
3417 6353 1
3418 355 1
3418 823 1
3418 1304 1
3418 2737 1
3418 8926 1
3419 13 1
3419 1031 1
3419 1189 1
3419 2257 1
3419 4137 1
3419 5215 1
3419 7271 1
3419 9370 1
3420 22 1
3420 538 1
3420 1188 1
3420 1820 1
3420 3526 1
3420 3597 1
3420 4868 1
3420 6035 1
3420 6095 1
3420 6355 1
3420 7132 1
3420 9918 1
3421 19 1
3421 64 1
3421 877 1
3421 2043 1
3421 3661 1
3421 4247 1
3421 5598 1
3421 6299 1
3421 9567 1
3422 54 1
3422 154 1
3422 2986 1
3422 3034 1
3422 5764 1
3422 6446 1
3423 310 1
3423 1000 1
3423 1398 1
3423 2559 1
3423 4417 1
3423 4636 1
3424 771 1
3424 2155 1
3424 2411 1
3424 3318 1
3424 3785 1
3424 3843 1
3424 4066 1
3424 4850 1
3424 5637 1
3424 8057 1
3425 397 1
3425 597 1
3425 735 1
3425 2733 1
3425 4617 1
3425 4867 1
3425 8269 1
3425 9001 1
3426 10 1
3426 779 1
3426 1048 1
3426 2683 1
3426 6547 1
3426 6584 1
3426 7646 1
3427 162 1
3427 313 1
3427 1322 1
3427 3234 1
3427 6207 1
3428 561 1
3428 640 1
3428 1005 1
3428 1091 1
3428 3483 1
3428 7565 1
3429 73 1
3429 744 1
3429 971 1
3429 2547 1
3430 98 1
3430 730 1
3430 2091 1
3430 2918 1
3430 3792 1
3430 5433 1
3430 7179 1
3430 8115 1
3431 6 1
3431 871 1
3431 1076 1
3431 1244 1
3431 3668 1
3431 7025 1
3431 8035 1
3431 8787 1
3432 37 1
3432 61 1
3432 320 1
3432 2234 1
3432 4459 1
3432 7185 1
3432 7470 1
3432 9134 1
3433 5 1
3433 305 1
3433 1486 1
3433 2903 1
3433 4346 1
3433 4684 1
3433 5832 1
3433 6124 1
3433 6506 1
3433 7447 1
3433 7504 1
3433 8504 1
3433 9816 1
3433 9879 1
3434 214 1
3434 377 1
3434 1480 1
3434 1544 1
3434 5061 1
3434 9111 1
3435 298 1
3435 1739 1
3435 2497 1
3435 3091 1
3435 4117 1
3435 7576 1
3435 7857 1
3435 9187 1
3436 358 1
3436 1150 1
3436 1550 1
3436 2379 1
3436 3945 1
3436 6560 1
3436 7263 1
3436 9316 1
3436 9484 1
3437 399 1
3437 465 1
3437 1525 1
3437 2432 1
3437 9061 1
3438 65 1
3438 93 1
3438 894 1
3438 1140 1
3438 3800 1
3438 3979 1
3439 546 1
3439 558 1
3439 1231 1
3439 2683 1
3440 40 1
3440 1755 1
3440 3297 1
3440 3389 1
3440 4414 1
3441 1 1
3441 6 1
3441 299 1
3441 2721 1
3441 4282 1
3441 6150 1
3441 9784 1
3441 9937 1
3442 150 1
3442 240 1
3442 1959 1
3442 2452 1
3442 3667 1
3442 4109 1
3442 7721 1
3442 8967 1
3443 11 1
3443 1020 1
3443 1529 1
3443 1866 1
3443 6261 1
3444 379 1
3444 683 1
3444 835 1
3444 1318 1
3445 6 1
3445 271 1
3445 944 1
3445 1196 1
3445 5560 1
3445 8151 1
3446 381 1
3446 1531 1
3446 2437 1
3446 3046 1
3446 4694 1
3446 6267 1
3446 6482 1
3446 8522 1
3447 23 1
3447 64 1
3447 496 1
3447 992 1
3447 3743 1
3447 5056 1
3447 5672 1
3448 66 1
3448 423 1
3448 924 1
3448 1426 1
3448 7613 1
3448 7821 1
3449 233 1
3449 420 1
3449 1075 1
3449 2630 1
3449 5326 1
3449 6528 1
3450 6 1
3450 599 1
3450 1985 1
3450 2762 1
3450 3996 1
3451 1246 1
3451 1541 1
3451 2053 1
3451 2365 1
3451 6915 1
3451 9835 1
3451 9948 1
3452 12 1
3452 28 1
3452 406 1
3452 1592 1
3452 9576 1
3453 1422 1
3453 1495 1
3453 2250 1
3453 3111 1
3453 5486 1
3453 6581 1
3453 7817 1
3454 8 1
3454 156 1
3454 221 1
3454 517 1
3454 3880 1
3454 4113 1
3454 7567 1
3455 110 1
3455 1036 1
3455 2574 1
3455 2845 1
3455 3647 1
3455 5534 1
3455 8532 1
3456 21 1
3456 34 1
3456 90 1
3456 2437 1
3456 4116 1
3456 5528 1
3456 7198 1
3457 120 1
3457 289 1
3457 301 1
3457 599 1
3457 9121 1
3458 5 1
3458 56 1
3458 200 1
3458 1757 1
3458 4163 1
3458 4901 1
3458 5372 1
3458 5740 1
3458 8150 1
3458 8162 1
3459 166 1
3459 667 1
3459 725 1
3459 2762 1
3459 4875 1
3460 118 1
3460 210 1
3460 990 1
3460 1309 1
3461 481 1
3461 1403 1
3461 2212 1
3461 2887 1
3461 3527 1
3461 8337 1
3461 9271 1
3462 5 1
3462 39 1
3462 63 1
3462 2027 1
3462 6043 1
3462 6331 1
3462 7073 1
3462 8283 1
3462 8904 1
3463 5 1
3463 254 1
3463 2824 1
3463 3214 1
3463 7299 1
3463 7909 1
3464 370 1
3464 1531 1
3464 1768 1
3464 2850 1
3464 3541 1
3464 5224 1
3465 213 1
3465 395 1
3465 1077 1
3465 1513 1
3465 6960 1
3465 7784 1
3465 8196 1
3466 184 1
3466 266 1
3466 884 1
3466 2472 1
3466 5567 1
3466 6845 1
3467 6 1
3467 482 1
3467 640 1
3467 1972 1
3467 5208 1
3467 6429 1
3467 8529 1
3467 8608 1
3468 226 1
3468 305 1
3468 401 1
3468 1528 1
3468 6533 1
3469 182 1
3469 255 1
3469 1188 1
3469 1815 1
3469 4645 1
3470 374 1
3470 899 1
3470 1493 1
3470 3281 1
3470 8294 1
3471 256 1
3471 452 1
3471 2556 1
3471 2591 1
3471 3775 1
3471 5415 1
3471 5448 1
3471 6657 1
3472 149 1
3472 634 1
3472 1757 1
3472 2314 1
3472 8502 1
3472 9060 1
3473 421 1
3473 485 1
3473 1507 1
3473 2681 1
3473 6612 1
3474 24 1
3474 637 1
3474 1087 1
3474 3204 1
3474 3658 1
3474 3662 1
3474 6322 1
3475 1 1
3475 161 1
3475 888 1
3475 3351 1
3475 4757 1
3475 4955 1
3475 8225 1
3476 65 1
3476 142 1
3476 358 1
3476 1125 1
3476 3934 1
3476 3958 1
3476 9237 1
3477 339 1
3477 487 1
3477 693 1
3477 2202 1
3477 5199 1
3477 6811 1
3477 8992 1
3478 154 1
3478 782 1
3478 1558 1
3478 2194 1
3478 3488 1
3478 6344 1
3479 106 1
3479 289 1
3479 1340 1
3479 2242 1
3479 7231 1
3480 188 1
3480 1877 1
3480 2835 1
3480 3088 1
3480 4830 1
3480 5003 1
3481 142 1
3481 600 1
3481 717 1
3481 2115 1
3481 4950 1
3481 5083 1
3481 5358 1
3481 7557 1
3481 8354 1
3481 9301 1
3482 20 1
3482 112 1
3482 833 1
3482 1264 1
3482 4336 1
3482 4470 1
3482 7977 1
3483 247 1
3483 471 1
3483 2486 1
3483 3428 1
3483 4431 1
3484 494 1
3484 1026 1
3484 1892 1
3484 3209 1
3484 6763 1
3484 8899 1
3485 174 1
3485 1609 1
3485 1864 1
3485 2221 1
3485 3591 1
3485 3858 1
3486 16 1
3486 1140 1
3486 3341 1
3486 3388 1
3486 3594 1
3486 8136 1
3487 832 1
3487 1326 1
3487 1381 1
3487 2960 1
3488 28 1
3488 210 1
3488 392 1
3488 3478 1
3488 3910 1
3488 4373 1
3488 5157 1
3488 6278 1
3489 86 1
3489 199 1
3489 233 1
3489 598 1
3489 5114 1
3489 5461 1
3489 6280 1
3489 6651 1
3489 7317 1
3489 7424 1
3489 8267 1
3490 95 1
3490 446 1
3490 762 1
3490 1777 1
3490 3952 1
3490 4876 1
3490 6415 1
3490 8370 1
3490 8424 1
3490 9727 1
3491 54 1
3491 55 1
3491 710 1
3491 1284 1
3492 355 1
3492 394 1
3492 976 1
3492 2118 1
3492 7216 1
3492 8054 1
3493 77 1
3493 271 1
3493 1422 1
3493 3162 1
3493 3862 1
3494 430 1
3494 529 1
3494 2951 1
3494 3235 1
3494 3594 1
3494 4941 1
3495 10 1
3495 475 1
3495 849 1
3495 1079 1
3496 330 1
3496 1300 1
3496 2088 1
3496 3326 1
3496 8961 1
3497 13 1
3497 487 1
3497 1290 1
3497 2561 1
3497 4489 1
3497 7604 1
3498 626 1
3498 815 1
3498 1775 1
3498 3392 1
3498 6523 1
3498 9630 1
3498 9838 1
3499 418 1
3499 1081 1
3499 1343 1
3499 2648 1
3499 5410 1
3499 5653 1
3499 8942 1
3500 216 1
3500 317 1
3500 1092 1
3500 1728 1
3500 3561 1
3500 8084 1
3501 54 1
3501 649 1
3501 777 1
3501 2840 1
3501 3554 1
3502 454 1
3502 2505 1
3502 2554 1
3502 3169 1
3502 6058 1
3503 3 1
3503 18 1
3503 287 1
3503 1688 1
3503 3746 1
3503 7209 1
3504 10 1
3504 31 1
3504 653 1
3504 2827 1
3504 3586 1
3504 4601 1
3504 4820 1
3504 5064 1
3504 5850 1
3504 5912 1
3504 8443 1
3505 7 1
3505 272 1
3505 1032 1
3505 1707 1
3505 8128 1
3505 9001 1
3505 9400 1
3506 149 1
3506 416 1
3506 1435 1
3506 2139 1
3506 6408 1
3506 8211 1
3506 8444 1
3506 8722 1
3506 9143 1
3506 9304 1
3506 9735 1
3507 197 1
3507 455 1
3507 3059 1
3507 3347 1
3507 8297 1
3508 6 1
3508 31 1
3508 547 1
3508 1761 1
3508 3796 1
3509 3 1
3509 206 1
3509 418 1
3509 2256 1
3509 6248 1
3509 9045 1
3510 479 1
3510 1576 1
3510 1668 1
3510 1969 1
3510 4308 1
3510 4443 1
3510 4527 1
3510 4758 1
3510 5025 1
3510 8080 1
3511 288 1
3511 615 1
3511 744 1
3511 2970 1
3511 9290 1
3512 92 1
3512 980 1
3512 1193 1
3512 1496 1
3512 4627 1
3512 5258 1
3512 6162 1
3512 8475 1
3512 8644 1
3513 89 1
3513 1878 1
3513 2125 1
3513 2202 1
3513 5323 1
3513 9915 1
3514 955 1
3514 1159 1
3514 2112 1
3514 2355 1
3514 7686 1
3514 8237 1
3515 570 1
3515 729 1
3515 1171 1
3515 1998 1
3515 5066 1
3516 228 1
3516 1285 1
3516 1911 1
3516 3199 1
3516 5048 1
3517 198 1
3517 1231 1
3517 1367 1
3517 1558 1
3517 6662 1
3517 8303 1
3517 9089 1
3518 642 1
3518 1207 1
3518 1908 1
3518 2034 1
3518 4233 1
3518 4536 1
3519 393 1
3519 406 1
3519 466 1
3519 2285 1
3519 5530 1
3519 9292 1
3520 85 1
3520 1312 1
3520 1552 1
3520 1786 1
3520 4071 1
3520 5060 1
3520 7206 1
3520 7592 1
3521 39 1
3521 601 1
3521 626 1
3521 1076 1
3521 3623 1
3521 4425 1
3521 4521 1
3521 8370 1
3521 9644 1
3522 8 1
3522 1248 1
3522 2114 1
3522 2992 1
3522 4486 1
3522 6615 1
3523 95 1
3523 137 1
3523 711 1
3523 1307 1
3523 3954 1
3523 5425 1
3523 9418 1
3524 65 1
3524 630 1
3524 1373 1
3524 1985 1
3524 8362 1
3525 302 1
3525 704 1
3525 1099 1
3525 1266 1
3525 4537 1
3525 4856 1
3525 6901 1
3526 310 1
3526 618 1
3526 647 1
3526 3420 1
3526 6759 1
3526 7084 1
3527 493 1
3527 1096 1
3527 1778 1
3527 3461 1
3527 3777 1
3527 4281 1
3527 4880 1
3527 5848 1
3528 524 1
3528 960 1
3528 1151 1
3528 2588 1
3528 7765 1
3529 86 1
3529 106 1
3529 1465 1
3529 2472 1
3529 3596 1
3529 3767 1
3529 6115 1
3529 6534 1
3529 8384 1
3529 8474 1
3530 10 1
3530 34 1
3530 500 1
3530 2870 1
3530 4234 1
3530 4517 1
3530 5690 1
3530 6084 1
3530 6464 1
3530 7863 1
3530 9075 1
3530 9574 1
3531 6 1
3531 16 1
3531 21 1
3531 1001 1
3531 7353 1
3532 183 1
3532 932 1
3532 1288 1
3532 2643 1
3532 9022 1
3533 477 1
3533 629 1
3533 1373 1
3533 2458 1
3533 4733 1
3533 5327 1
3534 58 1
3534 122 1
3534 403 1
3534 2775 1
3534 4552 1
3535 73 1
3535 1367 1
3535 1368 1
3535 3221 1
3535 6207 1
3535 8951 1
3536 36 1
3536 1505 1
3536 1686 1
3536 2257 1
3536 4180 1
3536 6706 1
3537 471 1
3537 1148 1
3537 2560 1
3537 2786 1
3537 5308 1
3538 45 1
3538 93 1
3538 553 1
3538 1269 1
3538 4025 1
3538 4548 1
3538 5380 1
3538 6885 1
3538 9280 1
3539 12 1
3539 891 1
3539 1358 1
3539 1532 1
3539 8002 1
3539 8771 1
3540 8 1
3540 765 1
3540 1320 1
3540 2505 1
3540 4946 1
3540 8086 1
3541 749 1
3541 2676 1
3541 3079 1
3541 3464 1
3541 5630 1
3541 7135 1
3541 7145 1
3542 19 1
3542 150 1
3542 394 1
3542 484 1
3542 4060 1
3542 4344 1
3542 5053 1
3542 6225 1
3542 7383 1
3543 591 1
3543 727 1
3543 2216 1
3543 2449 1
3543 5546 1
3544 56 1
3544 483 1
3544 735 1
3544 2870 1
3545 67 1
3545 297 1
3545 1198 1
3545 1331 1
3546 230 1
3546 772 1
3546 1327 1
3546 2856 1
3546 5929 1
3546 6033 1
3546 9726 1
3547 631 1
3547 2428 1
3547 2669 1
3547 2877 1
3547 6755 1
3547 7219 1
3548 539 1
3548 1147 1
3548 1568 1
3548 2964 1
3548 3951 1
3548 6072 1
3548 9809 1
3548 9985 1
3549 10 1
3549 20 1
3549 423 1
3549 1329 1
3549 6450 1
3549 6717 1
3549 8350 1
3550 346 1
3550 466 1
3550 716 1
3550 2881 1
3550 3824 1
3550 3863 1
3550 3880 1
3550 9597 1
3551 150 1
3551 1606 1
3551 1764 1
3551 2834 1
3551 4587 1
3551 4639 1
3551 9203 1
3552 125 1
3552 219 1
3552 265 1
3552 1064 1
3552 3718 1
3552 4428 1
3552 6741 1
3552 6844 1
3553 110 1
3553 1628 1
3553 1697 1
3553 1743 1
3553 4783 1
3553 5604 1
3553 6604 1
3553 7149 1
3553 9946 1
3554 1192 1
3554 2332 1
3554 2755 1
3554 3501 1
3554 3951 1
3554 6248 1
3554 6327 1
3554 8404 1
3555 626 1
3555 1274 1
3555 1307 1
3555 2245 1
3555 4109 1
3555 9520 1
3556 83 1
3556 95 1
3556 787 1
3556 914 1
3556 3561 1
3556 4816 1
3556 6364 1
3557 5 1
3557 49 1
3557 2239 1
3557 2721 1
3557 7483 1
3557 8534 1
3558 134 1
3558 149 1
3558 288 1
3558 3247 1
3558 4272 1
3558 4742 1
3558 6849 1
3558 8498 1
3559 1396 1
3559 2140 1
3559 3141 1
3559 3323 1
3559 3985 1
3559 5330 1
3559 5665 1
3559 6222 1
3559 7654 1
3559 7663 1
3559 7736 1
3559 8706 1
3559 9012 1
3559 9565 1
3560 328 1
3560 385 1
3560 1936 1
3560 2184 1
3560 4029 1
3560 4207 1
3560 5776 1
3560 5949 1
3560 6952 1
3560 8096 1
3560 8250 1
3560 8906 1
3560 8935 1
3561 440 1
3561 2976 1
3561 3500 1
3561 3556 1
3561 6782 1
3561 8257 1
3562 24 1
3562 54 1
3562 384 1
3562 3252 1
3562 4176 1
3562 6848 1
3562 9605 1
3563 466 1
3563 765 1
3563 2531 1
3563 3171 1
3563 4572 1
3563 5606 1
3563 6339 1
3564 6 1
3564 19 1
3564 300 1
3564 2518 1
3564 5442 1
3564 7835 1
3565 224 1
3565 828 1
3565 1078 1
3565 1299 1
3565 5176 1
3565 7899 1
3565 8167 1
3566 466 1
3566 744 1
3566 2815 1
3566 2944 1
3566 3710 1
3566 4066 1
3566 4811 1
3566 5509 1
3566 6951 1
3566 7693 1
3567 223 1
3567 248 1
3567 1724 1
3567 2106 1
3567 5398 1
3567 8473 1
3567 9464 1
3567 9782 1
3568 179 1
3568 228 1
3568 1575 1
3568 3171 1
3568 4281 1
3568 4335 1
3568 4487 1
3568 7563 1
3568 8640 1
3569 44 1
3569 67 1
3569 703 1
3569 1038 1
3570 832 1
3570 1226 1
3570 1633 1
3570 2795 1
3571 1173 1
3571 2882 1
3571 3054 1
3571 3262 1
3571 3966 1
3571 9440 1
3572 1 1
3572 52 1
3572 2410 1
3572 3250 1
3572 4264 1
3572 4333 1
3572 4686 1
3572 5865 1
3572 6055 1
3572 6410 1
3572 8638 1
3572 9016 1
3572 9965 1
3573 106 1
3573 561 1
3573 1036 1
3573 2708 1
3573 5727 1
3573 7345 1
3574 286 1
3574 920 1
3574 1587 1
3574 2999 1
3574 4416 1
3574 6185 1
3575 125 1
3575 1792 1
3575 1951 1
3575 2802 1
3575 4603 1
3575 5090 1
3575 6092 1
3575 7347 1
3575 8651 1
3575 8964 1
3575 9179 1
3575 9928 1
3576 30 1
3576 56 1
3576 206 1
3576 869 1
3576 5309 1
3576 7493 1
3576 8836 1
3577 39 1
3577 160 1
3577 243 1
3577 359 1
3577 3835 1
3577 4054 1
3577 4990 1
3577 5246 1
3577 5821 1
3577 6251 1
3577 7844 1
3577 9901 1
3578 361 1
3578 502 1
3578 711 1
3578 946 1
3578 5142 1
3578 7384 1
3579 352 1
3579 634 1
3579 685 1
3579 2711 1
3579 6307 1
3580 1522 1
3580 2292 1
3580 2457 1
3580 3108 1
3580 4713 1
3580 7282 1
3580 7796 1
3580 7948 1
3580 9922 1
3581 14 1
3581 287 1
3581 304 1
3581 2935 1
3581 8674 1
3582 130 1
3582 674 1
3582 1004 1
3582 1943 1
3582 3899 1
3582 5147 1
3582 5531 1
3582 6147 1
3582 7403 1
3582 7464 1
3582 8617 1
3583 25 1
3583 640 1
3583 1609 1
3583 3104 1
3583 3663 1
3583 4178 1
3583 9118 1
3584 6 1
3584 696 1
3584 999 1
3584 3338 1
3585 27 1
3585 364 1
3585 2113 1
3585 2639 1
3585 3622 1
3585 9209 1
3586 297 1
3586 655 1
3586 2755 1
3586 3504 1
3587 179 1
3587 208 1
3587 271 1
3587 1974 1
3587 4129 1
3587 4372 1
3587 6022 1
3587 8647 1
3587 9524 1
3587 9930 1
3588 1031 1
3588 1047 1
3588 1568 1
3588 2536 1
3588 6900 1
3588 6914 1
3589 1059 1
3589 1382 1
3589 1976 1
3589 2910 1
3589 4378 1
3589 4588 1
3589 5019 1
3589 5201 1
3589 7843 1
3589 9733 1
3590 468 1
3590 606 1
3590 2219 1
3590 3335 1
3590 5077 1
3591 120 1
3591 275 1
3591 1326 1
3591 3485 1
3591 3610 1
3591 6555 1
3592 255 1
3592 294 1
3592 558 1
3592 2676 1
3592 4105 1
3592 5697 1
3592 6462 1
3592 7139 1
3593 6 1
3593 927 1
3593 1277 1
3593 1699 1
3593 3741 1
3593 3851 1
3594 1922 1
3594 2719 1
3594 3486 1
3594 3494 1
3594 4881 1
3594 8392 1
3594 8872 1
3595 112 1
3595 208 1
3595 1746 1
3595 2870 1
3595 4341 1
3595 6191 1
3595 8027 1
3595 9201 1
3595 9745 1
3596 986 1
3596 2896 1
3596 3388 1
3596 3529 1
3596 6732 1
3596 8910 1
3596 9492 1
3597 428 1
3597 1611 1
3597 2522 1
3597 3420 1
3597 4393 1
3598 841 1
3598 1115 1
3598 2521 1
3598 2976 1
3598 3609 1
3598 5394 1
3598 6075 1
3598 7531 1
3598 8536 1
3599 50 1
3599 1535 1
3599 1959 1
3599 2033 1
3599 4604 1
3600 14 1
3600 408 1
3600 797 1
3600 2999 1
3600 4918 1
3600 7390 1
3600 9232 1
3601 141 1
3601 224 1
3601 1258 1
3601 3310 1
3601 4820 1
3601 4939 1
3601 5295 1
3602 125 1
3602 322 1
3602 786 1
3602 1145 1
3602 8105 1
3602 8454 1
3603 9 1
3603 1013 1
3603 1610 1
3603 2104 1
3603 4156 1
3603 8444 1
3603 8530 1
3604 182 1
3604 718 1
3604 1442 1
3604 2674 1
3604 4591 1
3605 270 1
3605 515 1
3605 1849 1
3605 2000 1
3605 7256 1
3605 7327 1
3606 385 1
3606 533 1
3606 1625 1
3606 1716 1
3606 5935 1
3607 2 1
3607 26 1
3607 609 1
3607 1573 1
3607 6804 1
3607 6920 1
3608 93 1
3608 233 1
3608 2386 1
3608 2679 1
3608 5377 1
3609 1053 1
3609 1758 1
3609 2564 1
3609 3598 1
3609 8309 1
3609 9693 1
3609 9750 1
3610 84 1
3610 151 1
3610 3058 1
3610 3591 1
3610 3808 1
3610 7104 1
3611 1792 1
3611 2016 1
3611 2608 1
3611 2819 1
3611 3623 1
3611 6219 1
3612 885 1
3612 888 1
3612 907 1
3612 921 1
3612 7040 1
3613 253 1
3613 780 1
3613 1964 1
3613 2880 1
3613 3615 1
3613 5398 1
3613 6516 1
3613 6616 1
3613 9397 1
3613 9942 1
3614 633 1
3614 1259 1
3614 1800 1
3614 2278 1
3614 3975 1
3614 5584 1
3614 8678 1
3614 9813 1
3615 867 1
3615 972 1
3615 1539 1
3615 3613 1
3615 7869 1
3615 7902 1
3615 8205 1
3616 21 1
3616 134 1
3616 934 1
3616 3200 1
3616 9081 1
3617 66 1
3617 81 1
3617 253 1
3617 1876 1
3617 6209 1
3617 9353 1
3618 36 1
3618 419 1
3618 1798 1
3618 2993 1
3619 1053 1
3619 2918 1
3619 3249 1
3619 3392 1
3620 63 1
3620 797 1
3620 1060 1
3620 3041 1
3620 5161 1
3620 8056 1
3620 8605 1
3621 288 1
3621 428 1
3621 793 1
3621 2888 1
3621 8936 1
3622 404 1
3622 1422 1
3622 3391 1
3622 3585 1
3622 4807 1
3622 4908 1
3622 6250 1
3622 6308 1
3622 7427 1
3622 7790 1
3622 9106 1
3622 9735 1
3623 572 1
3623 2366 1
3623 3521 1
3623 3611 1
3623 5330 1
3623 6093 1
3623 8658 1
3623 9907 1
3624 116 1
3624 131 1
3624 379 1
3624 1025 1
3624 4254 1
3624 6802 1
3624 8969 1
3625 224 1
3625 277 1
3625 1688 1
3625 2428 1
3625 6759 1
3625 8203 1
3626 1091 1
3626 2009 1
3626 2273 1
3626 2436 1
3626 3627 1
3626 3660 1
3626 3665 1
3626 5207 1
3627 365 1
3627 1724 1
3627 2376 1
3627 3626 1
3627 6125 1
3627 6847 1
3627 7416 1
3628 653 1
3628 1611 1
3628 2365 1
3628 3388 1
3628 9080 1
3628 9967 1
3629 328 1
3629 890 1
3629 972 1
3629 2830 1
3629 6199 1
3630 42 1
3630 103 1
3630 310 1
3630 2199 1
3630 4169 1
3630 6216 1
3631 1870 1
3631 2895 1
3631 2972 1
3631 3321 1
3631 4956 1
3632 80 1
3632 287 1
3632 1544 1
3632 1759 1
3633 525 1
3633 1044 1
3633 1477 1
3633 3293 1
3633 9488 1
3634 10 1
3634 58 1
3634 260 1
3634 1563 1
3634 4044 1
3634 4138 1
3634 5122 1
3634 5726 1
3634 8459 1
3634 8973 1
3635 36 1
3635 88 1
3635 277 1
3635 1155 1
3635 4419 1
3635 9391 1
3636 312 1
3636 1239 1
3636 1313 1
3636 1600 1
3636 7877 1
3636 8756 1
3637 263 1
3637 3171 1
3637 3185 1
3637 3266 1
3637 4514 1
3637 5988 1
3637 9359 1
3638 132 1
3638 381 1
3638 586 1
3638 631 1
3638 4204 1
3638 4910 1
3638 5318 1
3638 5463 1
3639 331 1
3639 478 1
3639 1235 1
3639 2800 1
3640 14 1
3640 483 1
3640 888 1
3640 1474 1
3640 6768 1
3640 8007 1
3640 8069 1
3640 8101 1
3640 9176 1
3640 9666 1
3641 99 1
3641 183 1
3641 1336 1
3641 2780 1
3641 3659 1
3641 3776 1
3641 3795 1
3641 8865 1
3642 20 1
3642 398 1
3642 2817 1
3642 2892 1
3642 3898 1
3642 7262 1
3643 127 1
3643 1114 1
3643 1205 1
3643 3108 1
3644 341 1
3644 489 1
3644 2898 1
3644 3233 1
3644 4142 1
3644 4549 1
3644 7133 1
3645 611 1
3645 612 1
3645 1288 1
3645 1710 1
3646 272 1
3646 632 1
3646 1689 1
3646 2915 1
3646 4226 1
3646 8120 1
3647 386 1
3647 979 1
3647 1058 1
3647 3455 1
3647 5441 1
3647 6627 1
3647 6831 1
3647 7726 1
3647 8245 1
3647 8546 1
3648 180 1
3648 955 1
3648 995 1
3648 1535 1
3648 4254 1
3648 8376 1
3648 9057 1
3648 9594 1
3648 9864 1
3649 20 1
3649 545 1
3649 1331 1
3649 3216 1
3649 4592 1
3649 5876 1
3649 7356 1
3649 8227 1
3650 123 1
3650 411 1
3650 599 1
3650 1139 1
3650 5523 1
3651 20 1
3651 937 1
3651 2540 1
3651 2713 1
3651 3796 1
3651 3991 1
3651 4401 1
3651 4928 1
3651 6965 1
3651 8801 1
3651 9186 1
3651 9527 1
3652 9 1
3652 535 1
3652 1721 1
3652 3108 1
3652 7498 1
3653 106 1
3653 509 1
3653 1735 1
3653 3017 1
3653 4644 1
3653 8013 1
3654 97 1
3654 828 1
3654 1157 1
3654 2274 1
3654 5127 1
3654 6901 1
3654 8710 1
3654 9378 1
3655 11 1
3655 719 1
3655 1481 1
3655 1484 1
3656 143 1
3656 190 1
3656 413 1
3656 761 1
3656 3858 1
3656 4858 1
3656 5108 1
3657 112 1
3657 147 1
3657 2006 1
3657 2055 1
3657 4404 1
3657 9865 1
3658 142 1
3658 149 1
3658 1057 1
3658 3474 1
3658 3832 1
3659 1530 1
3659 1708 1
3659 2340 1
3659 3641 1
3659 6365 1
3659 7387 1
3659 8009 1
3659 8362 1
3659 8763 1
3660 122 1
3660 307 1
3660 549 1
3660 3626 1
3660 8853 1
3661 103 1
3661 2369 1
3661 2927 1
3661 3421 1
3661 4760 1
3661 4842 1
3661 6233 1
3661 9059 1
3662 38 1
3662 64 1
3662 3239 1
3662 3474 1
3662 4644 1
3662 5057 1
3662 5459 1
3662 5567 1
3662 5984 1
3662 6312 1
3662 6475 1
3662 9153 1
3662 9757 1
3663 23 1
3663 66 1
3663 2594 1
3663 3583 1
3663 5050 1
3663 5501 1
3663 9947 1
3664 103 1
3664 531 1
3664 1281 1
3664 2133 1
3665 586 1
3665 1289 1
3665 3394 1
3665 3626 1
3666 121 1
3666 505 1
3666 1109 1
3666 1528 1
3666 9181 1
3667 250 1
3667 1623 1
3667 3216 1
3667 3442 1
3667 6078 1
3668 527 1
3668 718 1
3668 3088 1
3668 3431 1
3668 6398 1
3668 7627 1
3669 5 1
3669 696 1
3669 1205 1
3669 1378 1
3669 4316 1
3669 4772 1
3669 8037 1
3670 1410 1
3670 1933 1
3670 2543 1
3670 3076 1
3670 7533 1
3670 9897 1
3671 1579 1
3671 1597 1
3671 2436 1
3671 2492 1
3671 6270 1
3671 7932 1
3672 33 1
3672 259 1
3672 557 1
3672 1138 1
3672 7872 1
3672 8146 1
3672 8741 1
3672 8767 1
3672 8852 1
3673 51 1
3673 586 1
3673 2452 1
3673 2651 1
3673 3685 1
3673 5650 1
3673 6123 1
3673 6125 1
3673 7799 1
3674 9 1
3674 323 1
3674 637 1
3674 1548 1
3674 5566 1
3674 6658 1
3674 7115 1
3674 7647 1
3675 14 1
3675 297 1
3675 1046 1
3675 1201 1
3675 6535 1
3676 5 1
3676 554 1
3676 1829 1
3676 3142 1
3676 5876 1
3676 6937 1
3677 24 1
3677 298 1
3677 1158 1
3677 1932 1
3677 5010 1
3677 5406 1
3678 376 1
3678 782 1
3678 828 1
3678 937 1
3678 6136 1
3678 9412 1
3679 287 1
3679 1941 1
3679 2385 1
3679 2584 1
3679 9751 1
3680 653 1
3680 1383 1
3680 1401 1
3680 2442 1
3680 4381 1
3680 5935 1
3680 7437 1
3681 31 1
3681 266 1
3681 799 1
3681 3126 1
3681 5791 1
3681 6686 1
3681 9841 1
3682 16 1
3682 71 1
3682 2403 1
3682 2522 1
3682 4492 1
3682 8099 1
3683 617 1
3683 902 1
3683 1221 1
3683 2085 1
3683 8062 1
3684 1 1
3684 9 1
3684 47 1
3684 143 1
3685 3 1
3685 479 1
3685 1576 1
3685 3673 1
3685 4533 1
3685 6079 1
3685 8501 1
3685 9387 1
3686 14 1
3686 49 1
3686 89 1
3686 307 1
3687 1240 1
3687 1828 1
3687 1903 1
3687 2323 1
3687 4070 1
3687 7028 1
3687 8298 1
3687 9022 1
3687 9504 1
3688 20 1
3688 436 1
3688 1611 1
3688 2296 1
3688 7412 1
3689 84 1
3689 504 1
3689 721 1
3689 905 1
3689 3777 1
3689 3968 1
3689 4042 1
3689 4845 1
3689 5038 1
3689 5142 1
3689 6376 1
3689 7669 1
3689 8214 1
3690 80 1
3690 648 1
3690 721 1
3690 3012 1
3690 8085 1
3690 8416 1
3691 30 1
3691 313 1
3691 565 1
3691 1205 1
3692 466 1
3692 1462 1
3692 1665 1
3692 2650 1
3692 4425 1
3693 47 1
3693 606 1
3693 1034 1
3693 2185 1
3693 4694 1
3693 8393 1
3694 43 1
3694 786 1
3694 1478 1
3694 2155 1
3695 518 1
3695 1113 1
3695 1500 1
3695 2328 1
3696 90 1
3696 1130 1
3696 1190 1
3696 2433 1
3697 37 1
3697 230 1
3697 379 1
3697 2453 1
3697 5076 1
3697 6685 1
3698 85 1
3698 231 1
3698 1253 1
3698 2387 1
3698 6486 1
3698 6489 1
3699 392 1
3699 1174 1
3699 1573 1
3699 1724 1
3699 8777 1
3700 606 1
3700 1121 1
3700 1543 1
3700 1852 1
3700 5418 1
3701 134 1
3701 727 1
3701 1466 1
3701 1872 1
3701 4156 1
3701 4330 1
3702 106 1
3702 280 1
3702 307 1
3702 1492 1
3703 10 1
3703 56 1
3703 74 1
3703 1890 1
3704 388 1
3704 590 1
3704 851 1
3704 1435 1
3704 5069 1
3705 212 1
3705 707 1
3705 1079 1
3705 1681 1
3705 5447 1
3706 16 1
3706 98 1
3706 990 1
3706 3085 1
3706 4139 1
3706 5092 1
3706 6602 1
3707 149 1
3707 933 1
3707 1252 1
3707 2837 1
3707 8970 1
3708 60 1
3708 352 1
3708 1980 1
3708 3374 1
3708 3810 1
3708 4614 1
3708 7688 1
3709 357 1
3709 729 1
3709 2294 1
3709 2794 1
3710 123 1
3710 131 1
3710 1926 1
3710 3566 1
3710 4843 1
3710 8804 1
3711 38 1
3711 1734 1
3711 1780 1
3711 2665 1
3711 5913 1
3711 9184 1
3711 9393 1
3712 310 1
3712 1050 1
3712 1276 1
3712 2934 1
3712 4558 1
3712 5896 1
3712 6045 1
3712 6847 1
3712 6917 1
3713 148 1
3713 375 1
3713 853 1
3713 862 1
3714 104 1
3714 1035 1
3714 1249 1
3714 1475 1
3714 3850 1
3714 5296 1
3714 6360 1
3714 8335 1
3714 9296 1
3714 9541 1
3715 123 1
3715 184 1
3715 279 1
3715 2164 1
3715 3818 1
3715 4868 1
3715 6136 1
3715 8423 1
3715 8711 1
3715 9030 1
3716 8 1
3716 289 1
3716 615 1
3716 1190 1
3716 3852 1
3716 5627 1
3716 8424 1
3717 303 1
3717 529 1
3717 1221 1
3717 2044 1
3717 4471 1
3717 6445 1
3717 8403 1
3718 1 1
3718 126 1
3718 3388 1
3718 3552 1
3718 6382 1
3718 6866 1
3719 10 1
3719 183 1
3719 519 1
3719 2140 1
3719 5051 1
3720 6 1
3720 81 1
3720 1379 1
3720 1924 1
3720 5958 1
3721 176 1
3721 263 1
3721 2712 1
3721 3381 1
3721 4105 1
3721 8379 1
3722 224 1
3722 316 1
3722 622 1
3722 1754 1
3722 7202 1
3723 120 1
3723 546 1
3723 986 1
3723 2112 1
3723 4650 1
3723 4693 1
3723 5339 1
3723 5348 1
3723 7097 1
3723 8616 1
3723 8782 1
3723 9639 1
3723 9680 1
3724 277 1
3724 325 1
3724 832 1
3724 3416 1
3724 4212 1
3724 6418 1
3724 8948 1
3724 9069 1
3724 9712 1
3725 163 1
3725 221 1
3725 1563 1
3725 1636 1
3725 4743 1
3725 6475 1
3725 7350 1
3725 8229 1
3725 9632 1
3726 4 1
3726 182 1
3726 1878 1
3726 3271 1
3726 8071 1
3727 572 1
3727 632 1
3727 994 1
3727 3387 1
3727 5777 1
3728 80 1
3728 361 1
3728 680 1
3728 3253 1
3728 4619 1
3728 5671 1
3728 9880 1
3729 2 1
3729 152 1
3729 1268 1
3729 2679 1
3729 6883 1
3729 7956 1
3729 9338 1
3730 24 1
3730 329 1
3730 580 1
3730 1737 1
3730 5669 1
3730 5909 1
3730 7260 1
3731 5 1
3731 142 1
3731 184 1
3731 889 1
3731 3851 1
3731 7225 1
3731 9553 1
3732 138 1
3732 320 1
3732 1979 1
3732 3405 1
3732 7346 1
3733 591 1
3733 2124 1
3733 2128 1
3733 2446 1
3733 3997 1
3733 9386 1
3734 37 1
3734 84 1
3734 458 1
3734 1689 1
3734 4295 1
3734 8913 1
3735 14 1
3735 650 1
3735 2723 1
3735 2883 1
3735 5062 1
3735 8753 1
3736 38 1
3736 345 1
3736 2965 1
3736 3210 1
3736 4086 1
3737 206 1
3737 1912 1
3737 2770 1
3737 2875 1
3738 190 1
3738 641 1
3738 756 1
3738 2902 1
3738 4848 1
3738 5009 1
3738 8342 1
3739 133 1
3739 947 1
3739 1044 1
3739 3091 1
3739 4213 1
3739 4508 1
3739 5313 1
3739 6459 1
3739 6468 1
3739 6494 1
3739 6828 1
3739 7625 1
3739 9335 1
3740 14 1
3740 43 1
3740 1606 1
3740 3255 1
3740 3846 1
3740 6214 1
3740 6646 1
3741 3 1
3741 1598 1
3741 2240 1
3741 3593 1
3741 5341 1
3741 5732 1
3741 6777 1
3741 7461 1
3741 7539 1
3741 8729 1
3741 9817 1
3742 107 1
3742 794 1
3742 1192 1
3742 1196 1
3742 5890 1
3742 7134 1
3742 7887 1
3743 204 1
3743 1893 1
3743 2365 1
3743 3447 1
3744 29 1
3744 1004 1
3744 1242 1
3744 3072 1
3744 3937 1
3744 4186 1
3744 8055 1
3744 9381 1
3745 5 1
3745 209 1
3745 831 1
3745 3386 1
3745 5586 1
3745 9709 1
3746 706 1
3746 808 1
3746 2993 1
3746 3503 1
3746 8005 1
3747 12 1
3747 746 1
3747 1392 1
3747 3258 1
3747 6449 1
3747 7381 1
3747 7530 1
3747 7879 1
3747 8024 1
3747 9001 1
3747 9108 1
3748 229 1
3748 266 1
3748 2379 1
3748 2817 1
3748 4803 1
3748 4921 1
3748 6443 1
3749 301 1
3749 1972 1
3749 2826 1
3749 2960 1
3749 6398 1
3749 7197 1
3750 23 1
3750 375 1
3750 2987 1
3750 3357 1
3750 3882 1
3750 6851 1
3750 8571 1
3751 1016 1
3751 1552 1
3751 2933 1
3751 3176 1
3751 9270 1
3752 165 1
3752 309 1
3752 902 1
3752 3268 1
3752 3989 1
3752 4214 1
3752 4252 1
3752 5211 1
3752 7538 1
3752 8300 1
3752 9455 1
3752 9889 1
3753 5 1
3753 7 1
3753 305 1
3753 3238 1
3753 4652 1
3753 4838 1
3754 76 1
3754 491 1
3754 1417 1
3754 2075 1
3754 8172 1
3755 179 1
3755 664 1
3755 1921 1
3755 2228 1
3756 120 1
3756 317 1
3756 1166 1
3756 3078 1
3756 6539 1
3756 7485 1
3756 7611 1
3757 46 1
3757 461 1
3757 1177 1
3757 2956 1
3757 4162 1
3757 5019 1
3757 5472 1
3757 5741 1
3757 6936 1
3757 7327 1
3757 9041 1
3758 16 1
3758 51 1
3758 934 1
3758 1453 1
3758 5033 1
3758 6504 1
3758 8873 1
3759 305 1
3759 386 1
3759 3225 1
3759 3378 1
3759 4206 1
3759 6584 1
3759 6656 1
3760 30 1
3760 163 1
3760 1770 1
3760 2553 1
3760 6590 1
3760 7362 1
3760 7743 1
3761 166 1
3761 1324 1
3761 2584 1
3761 3390 1
3761 8024 1
3762 174 1
3762 239 1
3762 791 1
3762 830 1
3762 8876 1
3763 13 1
3763 28 1
3763 420 1
3763 867 1
3763 5216 1
3763 5700 1
3764 78 1
3764 310 1
3764 2259 1
3764 3264 1
3765 60 1
3765 293 1
3765 1981 1
3765 2684 1
3765 4596 1
3765 8658 1
3766 10 1
3766 319 1
3766 1280 1
3766 1679 1
3766 5947 1
3766 6088 1
3766 8783 1
3766 9900 1
3767 84 1
3767 176 1
3767 178 1
3767 3529 1
3767 6246 1
3767 6601 1
3768 71 1
3768 161 1
3768 1398 1
3768 1507 1
3768 5960 1
3768 6862 1
3768 9291 1
3769 218 1
3769 1319 1
3769 2442 1
3769 2719 1
3769 4982 1
3769 6115 1
3769 7145 1
3769 7965 1
3769 8092 1
3769 8868 1
3769 9052 1
3770 196 1
3770 423 1
3770 524 1
3770 2622 1
3770 3791 1
3770 3801 1
3771 58 1
3771 706 1
3771 1840 1
3771 2452 1
3771 7135 1
3771 9365 1
3772 406 1
3772 410 1
3772 1347 1
3772 2202 1
3772 4068 1
3772 5664 1
3773 220 1
3773 1038 1
3773 1104 1
3773 2714 1
3773 6534 1
3773 6758 1
3774 83 1
3774 3016 1
3774 3037 1
3774 3140 1
3774 5078 1
3774 5432 1
3774 6744 1
3775 436 1
3775 1390 1
3775 1816 1
3775 3471 1
3776 92 1
3776 690 1
3776 1115 1
3776 3641 1
3776 3978 1
3777 7 1
3777 514 1
3777 3527 1
3777 3689 1
3777 5483 1
3777 7564 1
3777 8953 1
3778 552 1
3778 1232 1
3778 1444 1
3778 2407 1
3779 256 1
3779 281 1
3779 1422 1
3779 2743 1
3779 4893 1
3779 5456 1
3779 9038 1
3780 611 1
3780 742 1
3780 1260 1
3780 2006 1
3780 4198 1
3780 4866 1
3780 7721 1
3780 8740 1
3781 56 1
3781 185 1
3781 1336 1
3781 2825 1
3782 15 1
3782 613 1
3782 2107 1
3782 2418 1
3782 6857 1
3782 9504 1
3783 184 1
3783 1864 1
3783 2599 1
3783 2641 1
3783 4306 1
3783 4696 1
3783 5103 1
3783 5675 1
3783 5848 1
3783 7365 1
3783 8945 1
3783 9039 1
3783 9599 1
3784 226 1
3784 611 1
3784 805 1
3784 1067 1
3784 4034 1
3784 7525 1
3784 9454 1
3785 136 1
3785 800 1
3785 1258 1
3785 3424 1
3785 5716 1
3785 8877 1
3786 93 1
3786 140 1
3786 459 1
3786 2184 1
3786 9937 1
3787 36 1
3787 339 1
3787 771 1
3787 1091 1
3787 4696 1
3787 7299 1
3788 30 1
3788 68 1
3788 305 1
3788 2889 1
3788 5033 1
3788 5084 1
3788 5658 1
3788 6961 1
3789 17 1
3789 1863 1
3789 2603 1
3789 2925 1
3790 260 1
3790 777 1
3790 883 1
3790 3272 1
3790 3883 1
3790 5591 1
3790 5609 1
3790 9010 1
3790 9692 1
3791 22 1
3791 329 1
3791 3139 1
3791 3770 1
3791 5701 1
3791 7065 1
3791 7778 1
3791 8136 1
3792 20 1
3792 313 1
3792 572 1
3792 3430 1
3792 5229 1
3792 7100 1
3792 7723 1
3793 76 1
3793 850 1
3793 1182 1
3793 1453 1
3794 30 1
3794 1433 1
3794 2370 1
3794 3374 1
3794 3941 1
3794 4560 1
3794 8947 1
3795 19 1
3795 355 1
3795 358 1
3795 3641 1
3795 5179 1
3795 6019 1
3795 6129 1
3795 7373 1
3796 17 1
3796 811 1
3796 3508 1
3796 3651 1
3796 5949 1
3796 6280 1
3796 6544 1
3796 8280 1
3797 1456 1
3797 1670 1
3797 2055 1
3797 2087 1
3798 55 1
3798 594 1
3798 1700 1
3798 2386 1
3798 3917 1
3798 7962 1
3798 9982 1
3799 70 1
3799 149 1
3799 615 1
3799 871 1
3800 26 1
3800 254 1
3800 553 1
3800 3438 1
3800 4281 1
3800 7727 1
3800 8121 1
3800 9640 1
3801 29 1
3801 77 1
3801 3108 1
3801 3770 1
3801 9611 1
3802 200 1
3802 475 1
3802 1623 1
3802 1812 1
3803 10 1
3803 341 1
3803 376 1
3803 1724 1
3803 4466 1
3803 4767 1
3803 9781 1
3804 111 1
3804 635 1
3804 2731 1
3804 3397 1
3804 7176 1
3804 7316 1
3804 7647 1
3804 9643 1
3804 9931 1
3805 48 1
3805 199 1
3805 281 1
3805 1483 1
3805 4244 1
3805 4560 1
3805 7868 1
3806 101 1
3806 256 1
3806 882 1
3806 1239 1
3806 4920 1
3806 6689 1
3807 33 1
3807 599 1
3807 1268 1
3807 1409 1
3807 4019 1
3807 4681 1
3807 5554 1
3807 5927 1
3807 6265 1
3807 6529 1
3807 7112 1
3807 7546 1
3807 8520 1
3808 47 1
3808 1568 1
3808 1971 1
3808 3610 1
3808 5079 1
3808 5642 1
3808 8306 1
3809 24 1
3809 102 1
3809 2457 1
3809 2540 1
3809 7547 1
3810 197 1
3810 277 1
3810 2616 1
3810 3708 1
3810 6160 1
3811 43 1
3811 199 1
3811 848 1
3811 3313 1
3812 14 1
3812 25 1
3812 65 1
3812 3041 1
3813 838 1
3813 1227 1
3813 1790 1
3813 2443 1
3813 5076 1
3813 5643 1
3813 8949 1
3814 1394 1
3814 2305 1
3814 2634 1
3814 2968 1
3814 5071 1
3814 6020 1
3814 7389 1
3814 9261 1
3815 247 1
3815 267 1
3815 606 1
3815 964 1
3815 4071 1
3815 6470 1
3815 9964 1
3816 59 1
3816 131 1
3816 626 1
3816 1280 1
3817 6 1
3817 135 1
3817 1791 1
3817 2216 1
3817 6268 1
3817 6777 1
3817 7847 1
3817 8029 1
3817 9711 1
3818 197 1
3818 256 1
3818 1715 1
3818 3715 1
3818 4088 1
3818 4729 1
3818 5777 1
3818 6064 1
3818 6508 1
3819 826 1
3819 2316 1
3819 3102 1
3819 3409 1
3820 19 1
3820 2981 1
3820 3290 1
3820 3379 1
3820 5062 1
3820 5765 1
3820 6122 1
3820 7512 1
3820 7518 1
3820 8932 1
3821 1481 1
3821 1903 1
3821 2108 1
3821 2146 1
3821 4383 1
3822 271 1
3822 718 1
3822 2189 1
3822 3129 1
3822 6978 1
3823 135 1
3823 586 1
3823 642 1
3823 1949 1
3824 2 1
3824 146 1
3824 2197 1
3824 3550 1
3824 6743 1
3824 8830 1
3825 74 1
3825 78 1
3825 394 1
3825 1867 1
3826 60 1
3826 65 1
3826 980 1
3826 2613 1
3826 5758 1
3826 6019 1
3827 107 1
3827 440 1
3827 2126 1
3827 3231 1
3828 125 1
3828 165 1
3828 924 1
3828 2850 1
3828 9506 1
3829 185 1
3829 546 1
3829 629 1
3829 1987 1
3829 6531 1
3830 1 1
3830 513 1
3830 892 1
3830 1005 1
3830 3837 1
3830 4292 1
3830 5102 1
3830 5904 1
3831 132 1
3831 415 1
3831 619 1
3831 3294 1
3831 6300 1
3832 214 1
3832 2395 1
3832 3216 1
3832 3658 1
3832 4328 1
3832 4833 1
3832 5245 1
3832 5902 1
3832 6365 1
3832 6980 1
3832 7460 1
3833 622 1
3833 1248 1
3833 2087 1
3833 2694 1
3833 5004 1
3834 102 1
3834 206 1
3834 460 1
3834 2577 1
3835 165 1
3835 2287 1
3835 2457 1
3835 3577 1
3835 4483 1
3835 5671 1
3835 5724 1
3835 6013 1
3835 6015 1
3836 97 1
3836 204 1
3836 1277 1
3836 3046 1
3836 8566 1
3836 9803 1
3837 461 1
3837 1336 1
3837 2958 1
3837 3830 1
3837 5008 1
3837 5691 1
3837 8726 1
3838 340 1
3838 625 1
3838 1911 1
3838 2582 1
3838 5090 1
3838 6035 1
3838 6052 1
3839 114 1
3839 1451 1
3839 1940 1
3839 3067 1
3839 6791 1
3840 24 1
3840 445 1
3840 748 1
3840 2767 1
3841 98 1
3841 510 1
3841 1244 1
3841 1372 1
3841 4917 1
3841 5167 1
3841 7856 1
3842 313 1
3842 481 1
3842 909 1
3842 2574 1
3842 4422 1
3842 8146 1
3843 885 1
3843 1507 1
3843 2548 1
3843 3424 1
3843 6665 1
3843 7954 1
3844 47 1
3844 1228 1
3844 2061 1
3844 2696 1
3844 7600 1
3844 9260 1
3845 618 1
3845 697 1
3845 1144 1
3845 2782 1
3845 4773 1
3845 9966 1
3846 119 1
3846 295 1
3846 416 1
3846 3740 1
3846 7608 1
3846 8801 1
3847 226 1
3847 632 1
3847 638 1
3847 1276 1
3847 7539 1
3848 48 1
3848 716 1
3848 833 1
3848 1539 1
3848 3900 1
3848 4214 1
3848 4610 1
3848 4772 1
3848 5277 1
3848 6039 1
3848 6975 1
3848 8224 1
3848 8937 1
3849 65 1
3849 287 1
3849 690 1
3849 1451 1
3849 7235 1
3850 12 1
3850 1456 1
3850 2669 1
3850 3714 1
3850 6824 1
3851 1363 1
3851 1515 1
3851 3593 1
3851 3731 1
3851 6753 1
3851 8620 1
3852 719 1
3852 1133 1
3852 2152 1
3852 3716 1
3852 4626 1
3852 7632 1
3852 9962 1
3853 80 1
3853 181 1
3853 1955 1
3853 2494 1
3853 6337 1
3853 8311 1
3854 213 1
3854 1367 1
3854 2966 1
3854 3232 1
3854 8018 1
3855 85 1
3855 365 1
3855 380 1
3855 1410 1
3855 8625 1
3856 31 1
3856 529 1
3856 1138 1
3856 2143 1
3856 8467 1
3857 65 1
3857 619 1
3857 1326 1
3857 3365 1
3857 4304 1
3857 5351 1
3857 9518 1
3857 9536 1
3858 1032 1
3858 1767 1
3858 3485 1
3858 3656 1
3858 6702 1
3858 9486 1
3859 29 1
3859 551 1
3859 2112 1
3859 2428 1
3859 6765 1
3860 1108 1
3860 1606 1
3860 2611 1
3860 2779 1
3860 5190 1
3860 8023 1
3861 201 1
3861 456 1
3861 1477 1
3861 2065 1
3861 6225 1
3861 6314 1
3861 6597 1
3861 7409 1
3862 37 1
3862 378 1
3862 1813 1
3862 3493 1
3862 3914 1
3862 4038 1
3862 9554 1
3862 9708 1
3863 219 1
3863 1041 1
3863 3334 1
3863 3550 1
3863 4735 1
3863 7843 1
3864 681 1
3864 894 1
3864 1500 1
3864 2389 1
3864 4745 1
3864 5058 1
3864 5325 1
3864 5898 1
3864 9492 1
3865 1175 1
3865 1689 1
3865 3080 1
3865 3252 1
3865 4006 1
3865 4747 1
3866 29 1
3866 76 1
3866 83 1
3866 591 1
3866 4159 1
3866 6232 1
3866 7101 1
3867 274 1
3867 2107 1
3867 2165 1
3867 2442 1
3867 6726 1
3867 9056 1
3868 128 1
3868 325 1
3868 1078 1
3868 1623 1
3868 8163 1
3868 8516 1
3868 9112 1
3869 26 1
3869 189 1
3869 2119 1
3869 2346 1
3869 6089 1
3870 14 1
3870 16 1
3870 44 1
3870 66 1
3870 3915 1
3870 4375 1
3870 5752 1
3870 7513 1
3870 8515 1
3871 34 1
3871 66 1
3871 1922 1
3871 2267 1
3871 5673 1
3871 9170 1
3872 173 1
3872 560 1
3872 767 1
3872 1798 1
3872 7770 1
3872 9737 1
3872 9935 1
3873 377 1
3873 399 1
3873 2678 1
3873 2795 1
3873 4991 1
3873 6594 1
3873 8299 1
3874 8 1
3874 152 1
3874 194 1
3874 2713 1
3874 4711 1
3874 9218 1
3875 48 1
3875 1739 1
3875 3001 1
3875 3165 1
3875 5021 1
3876 202 1
3876 466 1
3876 1866 1
3876 2158 1
3876 6060 1
3877 183 1
3877 229 1
3877 1972 1
3877 2028 1
3878 339 1
3878 1128 1
3878 1791 1
3878 2568 1
3878 5859 1
3878 6039 1
3878 7174 1
3879 55 1
3879 112 1
3879 1532 1
3879 2795 1
3880 366 1
3880 2131 1
3880 3454 1
3880 3550 1
3881 796 1
3881 1688 1
3881 1947 1
3881 2185 1
3881 5992 1
3881 8510 1
3882 51 1
3882 1795 1
3882 2236 1
3882 3750 1
3883 1096 1
3883 1381 1
3883 1391 1
3883 3790 1
3883 6541 1
3883 7156 1
3883 8439 1
3884 254 1
3884 295 1
3884 1990 1
3884 2679 1
3884 4059 1
3885 96 1
3885 539 1
3885 1348 1
3885 2711 1
3886 33 1
3886 641 1
3886 1530 1
3886 2847 1
3886 4582 1
3887 6 1
3887 98 1
3887 2729 1
3887 3142 1
3887 9272 1
3888 282 1
3888 855 1
3888 1516 1
3888 1626 1
3888 4964 1
3888 8828 1
3889 718 1
3889 857 1
3889 2418 1
3889 2440 1
3889 7026 1
3889 9575 1
3890 323 1
3890 953 1
3890 1286 1
3890 1568 1
3890 4488 1
3890 7004 1
3890 7052 1
3890 7369 1
3891 807 1
3891 1596 1
3891 1841 1
3891 3073 1
3891 4077 1
3891 4714 1
3891 5598 1
3891 5915 1
3891 6543 1
3891 7155 1
3891 8781 1
3892 171 1
3892 949 1
3892 1071 1
3892 1761 1
3892 6331 1
3892 9185 1
3893 267 1
3893 323 1
3893 520 1
3893 1280 1
3893 6660 1
3893 9090 1
3894 49 1
3894 338 1
3894 2307 1
3894 2393 1
3895 89 1
3895 296 1
3895 907 1
3895 1644 1
3896 958 1
3896 1462 1
3896 1924 1
3896 2636 1
3896 6836 1
3896 9125 1
3896 9803 1
3897 1983 1
3897 2240 1
3897 2366 1
3897 3233 1
3897 8290 1
3897 9227 1
3898 1545 1
3898 2322 1
3898 2718 1
3898 3642 1
3898 5900 1
3898 7976 1
3898 8141 1
3899 361 1
3899 1078 1
3899 1756 1
3899 3582 1
3899 7343 1
3899 7900 1
3899 8256 1
3899 9664 1
3900 84 1
3900 2196 1
3900 2745 1
3900 3848 1
3900 6750 1
3901 5 1
3901 683 1
3901 1116 1
3901 2043 1
3901 4204 1
3901 4615 1
3902 6 1
3902 1834 1
3902 2556 1
3902 3140 1
3902 6370 1
3903 1522 1
3903 1699 1
3903 2059 1
3903 3057 1
3903 6728 1
3903 7456 1
3903 9960 1
3904 398 1
3904 651 1
3904 891 1
3904 1427 1
3904 5630 1
3904 6362 1
3904 8428 1
3904 8539 1
3905 203 1
3905 361 1
3905 394 1
3905 1804 1
3906 23 1
3906 611 1
3906 1028 1
3906 1060 1
3906 3952 1
3906 4211 1
3906 6204 1
3906 7564 1
3906 8691 1
3907 3 1
3907 335 1
3907 1375 1
3907 2482 1
3907 3965 1
3907 4393 1
3907 4935 1
3907 5681 1
3907 6902 1
3907 7231 1
3908 194 1
3908 427 1
3908 674 1
3908 1897 1
3908 7502 1
3909 14 1
3909 316 1
3909 1868 1
3909 3221 1
3909 8710 1
3910 253 1
3910 602 1
3910 2040 1
3910 3488 1
3910 9410 1
3911 14 1
3911 476 1
3911 1614 1
3911 1723 1
3911 5925 1
3912 495 1
3912 1123 1
3912 1738 1
3912 3234 1
3912 5129 1
3912 5203 1
3912 7846 1
3912 7894 1
3912 8376 1
3912 9272 1
3913 8 1
3913 56 1
3913 1443 1
3913 2636 1
3913 4077 1
3913 4463 1
3913 6301 1
3913 7402 1
3914 39 1
3914 359 1
3914 838 1
3914 3862 1
3914 5391 1
3914 7161 1
3915 21 1
3915 2546 1
3915 2834 1
3915 3870 1
3915 6387 1
3916 26 1
3916 800 1
3916 1298 1
3916 2588 1
3916 5877 1
3916 6310 1
3916 9300 1
3917 16 1
3917 28 1
3917 1603 1
3917 3798 1
3917 7238 1
3917 9436 1
3918 4 1
3918 12 1
3918 160 1
3918 1657 1
3918 6820 1
3919 38 1
3919 441 1
3919 2219 1
3919 3157 1
3919 5781 1
3919 7044 1
3919 7074 1
3920 105 1
3920 265 1
3920 2840 1
3920 3203 1
3920 4124 1
3920 4621 1
3920 5503 1
3920 9308 1
3921 188 1
3921 328 1
3921 1454 1
3921 1642 1
3922 16 1
3922 947 1
3922 1940 1
3922 2673 1
3922 6276 1
3922 7453 1
3923 8 1
3923 2469 1
3923 2599 1
3923 3003 1
3923 4057 1
3923 4150 1
3924 1133 1
3924 1941 1
3924 2010 1
3924 3204 1
3924 8019 1
3925 17 1
3925 1644 1
3925 2748 1
3925 3095 1
3925 4962 1
3925 5094 1
3925 5296 1
3925 6024 1
3925 6347 1
3926 1683 1
3926 2460 1
3926 2627 1
3926 3262 1
3926 5080 1
3927 28 1
3927 127 1
3927 2426 1
3927 3386 1
3927 5022 1
3927 6874 1
3928 288 1
3928 1043 1
3928 1133 1
3928 2798 1
3928 6491 1
3928 8174 1
3928 9234 1
3929 58 1
3929 101 1
3929 351 1
3929 3262 1
3929 5490 1
3929 5859 1
3929 7957 1
3929 8474 1
3929 8714 1
3929 9377 1
3930 186 1
3930 287 1
3930 398 1
3930 1286 1
3930 4013 1
3930 4439 1
3930 5154 1
3930 8959 1
3931 16 1
3931 241 1
3931 2906 1
3931 3258 1
3931 3985 1
3931 5066 1
3931 6665 1
3932 422 1
3932 641 1
3932 800 1
3932 1031 1
3932 7162 1
3932 9717 1
3933 331 1
3933 811 1
3933 1085 1
3933 1419 1
3933 8400 1
3933 9750 1
3934 7 1
3934 1168 1
3934 3324 1
3934 3476 1
3935 14 1
3935 258 1
3935 282 1
3935 1648 1
3935 7369 1
3936 856 1
3936 2260 1
3936 2795 1
3936 3351 1
3936 5804 1
3936 6156 1
3936 8669 1
3936 8716 1
3937 390 1
3937 486 1
3937 572 1
3937 3744 1
3937 8142 1
3938 3 1
3938 1320 1
3938 1335 1
3938 1486 1
3938 5534 1
3938 6795 1
3939 228 1
3939 529 1
3939 2125 1
3939 2602 1
3939 4092 1
3939 4433 1
3939 4700 1
3939 4724 1
3939 5220 1
3939 5478 1
3939 5578 1
3939 7785 1
3940 13 1
3940 671 1
3940 871 1
3940 961 1
3940 4984 1
3940 8382 1
3941 10 1
3941 1750 1
3941 3088 1
3941 3794 1
3942 1 1
3942 628 1
3942 750 1
3942 1433 1
3942 7985 1
3942 9298 1
3943 105 1
3943 219 1
3943 735 1
3943 2758 1
3943 9891 1
3944 579 1
3944 603 1
3944 2946 1
3944 3084 1
3944 7298 1
3945 890 1
3945 2355 1
3945 3039 1
3945 3436 1
3945 6446 1
3946 14 1
3946 647 1
3946 664 1
3946 1450 1
3946 4851 1
3946 5196 1
3946 7467 1
3946 7536 1
3947 26 1
3947 756 1
3947 1394 1
3947 2630 1
3947 9535 1
3948 11 1
3948 483 1
3948 1483 1
3948 1534 1
3949 5 1
3949 20 1
3949 878 1
3949 2345 1
3949 4706 1
3949 5624 1
3949 5901 1
3949 8600 1
3949 8846 1
3949 9051 1
3949 9616 1
3949 9670 1
3950 946 1
3950 1358 1
3950 1472 1
3950 2805 1
3950 4075 1
3950 6753 1
3951 796 1
3951 2478 1
3951 3548 1
3951 3554 1
3951 4022 1
3951 4740 1
3952 2231 1
3952 3015 1
3952 3490 1
3952 3906 1
3952 4323 1
3952 4445 1
3952 8272 1
3952 9202 1
3953 21 1
3953 1813 1
3953 2146 1
3953 2830 1
3954 712 1
3954 2143 1
3954 2549 1
3954 3523 1
3954 5474 1
3954 6056 1
3954 6810 1
3954 9559 1
3954 9791 1
3955 393 1
3955 1768 1
3955 1829 1
3955 3163 1
3955 4522 1
3956 1171 1
3956 1844 1
3956 2158 1
3956 2854 1
3956 5712 1
3956 6411 1
3956 7333 1
3957 102 1
3957 611 1
3957 760 1
3957 1565 1
3957 8340 1
3957 8894 1
3958 13 1
3958 636 1
3958 992 1
3958 3476 1
3958 8243 1
3959 132 1
3959 390 1
3959 863 1
3959 1194 1
3959 3968 1
3960 636 1
3960 1577 1
3960 2742 1
3960 3088 1
3960 7990 1
3961 12 1
3961 1583 1
3961 2868 1
3961 3351 1
3962 20 1
3962 188 1
3962 323 1
3962 2737 1
3963 19 1
3963 162 1
3963 1076 1
3963 2617 1
3963 5976 1
3964 1285 1
3964 1606 1
3964 2886 1
3964 3067 1
3965 197 1
3965 1245 1
3965 3115 1
3965 3907 1
3965 7172 1
3965 8464 1
3966 599 1
3966 2045 1
3966 2415 1
3966 3571 1
3966 5416 1
3966 5866 1
3966 6414 1
3966 7338 1
3967 58 1
3967 706 1
3967 957 1
3967 1901 1
3967 9792 1
3968 615 1
3968 1294 1
3968 3689 1
3968 3959 1
3968 4234 1
3968 7852 1
3969 696 1
3969 1743 1
3969 2850 1
3969 3143 1
3969 4533 1
3969 5566 1
3969 7448 1
3969 9599 1
3970 188 1
3970 274 1
3970 1103 1
3970 1334 1
3971 128 1
3971 249 1
3971 681 1
3971 1078 1
3971 8402 1
3972 19 1
3972 522 1
3972 611 1
3972 1681 1
3972 4778 1
3973 683 1
3973 926 1
3973 1325 1
3973 1790 1
3974 45 1
3974 149 1
3974 2353 1
3974 2909 1
3974 4773 1
3975 2 1
3975 106 1
3975 2929 1
3975 3614 1
3975 4396 1
3975 4713 1
3975 5666 1
3975 9161 1
3976 693 1
3976 1044 1
3976 1560 1
3976 2345 1
3976 4158 1
3976 5141 1
3976 6381 1
3976 9165 1
3977 49 1
3977 58 1
3977 692 1
3977 2935 1
3977 4227 1
3977 5692 1
3978 6 1
3978 800 1
3978 2029 1
3978 3776 1
3978 8560 1
3978 8711 1
3978 8932 1
3979 115 1
3979 616 1
3979 1779 1
3979 3438 1
3979 8012 1
3980 632 1
3980 2086 1
3980 2713 1
3980 3155 1
3980 7792 1
3981 10 1
3981 2329 1
3981 2456 1
3981 2602 1
3981 4291 1
3981 4451 1
3981 7628 1
3981 8032 1
3981 8697 1
3982 287 1
3982 348 1
3982 425 1
3982 1232 1
3982 5997 1
3982 6217 1
3983 267 1
3983 430 1
3983 536 1
3983 2815 1
3983 5131 1
3983 8590 1
3983 8910 1
3984 1 1
3984 149 1
3984 1772 1
3984 1844 1
3984 7999 1
3985 89 1
3985 2197 1
3985 3559 1
3985 3931 1
3985 4933 1
3985 5056 1
3985 6428 1
3985 6484 1
3986 121 1
3986 375 1
3986 495 1
3986 1168 1
3986 4541 1
3986 5158 1
3986 5160 1
3986 5924 1
3986 6257 1
3986 6263 1
3986 8825 1
3987 78 1
3987 168 1
3987 323 1
3987 2854 1
3987 4178 1
3987 6419 1
3987 6930 1
3987 8981 1
3987 9325 1
3988 319 1
3988 2135 1
3988 2309 1
3988 2886 1
3988 4307 1
3988 7759 1
3989 651 1
3989 2147 1
3989 2179 1
3989 3752 1
3989 4261 1
3989 9898 1
3990 826 1
3990 848 1
3990 2268 1
3990 2352 1
3990 5084 1
3990 6055 1
3990 7349 1
3990 9447 1
3991 15 1
3991 47 1
3991 210 1
3991 3651 1
3992 517 1
3992 1166 1
3992 1641 1
3992 3378 1
3992 5400 1
3992 6260 1
3992 9094 1
3993 37 1
3993 83 1
3993 800 1
3993 2399 1
3993 5972 1
3993 5973 1
3993 8224 1
3994 1962 1
3994 2080 1
3994 2177 1
3994 2568 1
3994 6742 1
3994 9437 1
3995 31 1
3995 52 1
3995 845 1
3995 3293 1
3995 4320 1
3995 5341 1
3995 5615 1
3995 7146 1
3995 8416 1
3995 9330 1
3995 9390 1
3996 627 1
3996 644 1
3996 2392 1
3996 3450 1
3996 4241 1
3996 5533 1
3996 6718 1
3997 11 1
3997 162 1
3997 1297 1
3997 3733 1
3997 4354 1
3997 4468 1
3997 4699 1
3997 8415 1
3998 7 1
3998 521 1
3998 2295 1
3998 2694 1
3998 4088 1
3998 4150 1
3998 4199 1
3998 5118 1
3999 219 1
3999 513 1
3999 1591 1
3999 2336 1
3999 6339 1
3999 6355 1
3999 7508 1
4000 669 1
4000 1355 1
4000 2009 1
4000 2432 1
4000 6520 1
4001 2 1
4001 1415 1
4001 2350 1
4001 2561 1
4001 6630 1
4001 8976 1
4002 539 1
4002 2010 1
4002 2670 1
4002 3334 1
4002 9344 1
4003 304 1
4003 812 1
4003 2149 1
4003 2585 1
4004 248 1
4004 1527 1
4004 2543 1
4004 2647 1
4004 7566 1
4005 17 1
4005 80 1
4005 335 1
4005 2444 1
4006 13 1
4006 2107 1
4006 3164 1
4006 3865 1
4007 420 1
4007 871 1
4007 1551 1
4007 3259 1
4007 5316 1
4007 7152 1
4007 7867 1
4007 9042 1
4007 9112 1
4008 5 1
4008 76 1
4008 101 1
4008 631 1
4008 4500 1
4008 5070 1
4009 764 1
4009 1768 1
4009 1839 1
4009 2478 1
4009 4103 1
4009 8126 1
4010 95 1
4010 607 1
4010 774 1
4010 854 1
4010 4023 1
4010 5830 1
4011 495 1
4011 1058 1
4011 2583 1
4011 2889 1
4012 118 1
4012 448 1
4012 723 1
4012 1130 1
4012 4678 1
4012 8499 1
4012 8743 1
4013 372 1
4013 499 1
4013 1968 1
4013 3930 1
4013 4362 1
4014 1464 1
4014 1908 1
4014 2053 1
4014 2872 1
4014 5824 1
4014 5954 1
4014 9934 1
4015 64 1
4015 67 1
4015 1140 1
4015 2878 1
4015 5104 1
4015 7831 1
4015 8236 1
4015 9781 1
4016 49 1
4016 58 1
4016 106 1
4016 416 1
4016 4462 1
4016 4571 1
4016 4616 1
4016 4739 1
4016 6621 1
4016 7639 1
4016 7837 1
4016 7918 1
4017 64 1
4017 502 1
4017 688 1
4017 3392 1
4018 297 1
4018 1541 1
4018 2515 1
4018 3088 1
4018 4997 1
4018 8674 1
4018 9150 1
4019 91 1
4019 1192 1
4019 2935 1
4019 3807 1
4019 5621 1
4019 7232 1
4020 22 1
4020 487 1
4020 1001 1
4020 1579 1
4020 9752 1
4021 92 1
4021 1778 1
4021 2795 1
4021 3304 1
4021 4944 1
4021 5966 1
4022 14 1
4022 932 1
4022 963 1
4022 3951 1
4023 83 1
4023 597 1
4023 1739 1
4023 4010 1
4023 9113 1
4024 38 1
4024 313 1
4024 319 1
4024 879 1
4024 4138 1
4024 4162 1
4024 6350 1
4024 7090 1
4024 9429 1
4024 9992 1
4025 6 1
4025 691 1
4025 2428 1
4025 3538 1
4026 629 1
4026 1073 1
4026 1946 1
4026 3214 1
4027 97 1
4027 918 1
4027 1253 1
4027 1501 1
4027 4337 1
4027 6859 1
4027 7346 1
4027 7352 1
4028 115 1
4028 213 1
4028 352 1
4028 3261 1
4029 65 1
4029 1513 1
4029 3331 1
4029 3560 1
4030 23 1
4030 934 1
4030 1194 1
4030 1710 1
4030 5369 1
4030 5641 1
4030 6364 1
4030 8314 1
4030 8674 1
4031 601 1
4031 1312 1
4031 2058 1
4031 3039 1
4031 4441 1
4031 5404 1
4031 5928 1
4031 6431 1
4031 7908 1
4031 7958 1
4031 8432 1
4032 20 1
4032 34 1
4032 706 1
4032 1498 1
4033 56 1
4033 282 1
4033 486 1
4033 2392 1
4033 6192 1
4033 6891 1
4034 105 1
4034 1154 1
4034 2918 1
4034 3784 1
4034 6353 1
4034 9027 1
4035 413 1
4035 470 1
4035 888 1
4035 2933 1
4036 244 1
4036 969 1
4036 1128 1
4036 3406 1
4036 8997 1
4037 99 1
4037 696 1
4037 2581 1
4037 2716 1
4037 4275 1
4037 7319 1
4038 6 1
4038 1251 1
4038 3225 1
4038 3862 1
4038 4599 1
4038 4892 1
4038 5089 1
4038 6755 1
4038 7915 1
4039 110 1
4039 420 1
4039 807 1
4039 1856 1
4039 6960 1
4039 7747 1
4040 1088 1
4040 1089 1
4040 1180 1
4040 2475 1
4040 9900 1
4041 1867 1
4041 2357 1
4041 2627 1
4041 2940 1
4041 6212 1
4041 6305 1
4042 229 1
4042 290 1
4042 2854 1
4042 3689 1
4042 4477 1
4042 7446 1
4042 9471 1
4043 86 1
4043 927 1
4043 1106 1
4043 1445 1
4043 4219 1
4043 5632 1
4043 7547 1
4044 213 1
4044 253 1
4044 3353 1
4044 3634 1
4044 6134 1
4045 577 1
4045 833 1
4045 1717 1
4045 1847 1
4045 5537 1
4045 8617 1
4045 8792 1
4045 9423 1
4046 815 1
4046 1268 1
4046 2009 1
4046 2475 1
4046 5343 1
4046 5371 1
4047 63 1
4047 136 1
4047 602 1
4047 1382 1
4047 4990 1
4047 7174 1
4047 8187 1
4047 8917 1
4048 1 1
4048 17 1
4048 2523 1
4048 2550 1
4048 5525 1
4049 66 1
4049 209 1
4049 1555 1
4049 2835 1
4049 8813 1
4049 9135 1
4050 281 1
4050 651 1
4050 807 1
4050 1371 1
4050 4272 1
4050 8653 1
4050 8747 1
4050 9712 1
4051 121 1
4051 368 1
4051 2902 1
4051 3212 1
4051 5172 1
4051 5427 1
4052 646 1
4052 885 1
4052 1535 1
4052 2216 1
4052 6390 1
4052 7781 1
4052 9276 1
4053 70 1
4053 445 1
4053 1026 1
4053 1852 1
4053 4287 1
4054 47 1
4054 344 1
4054 1997 1
4054 3577 1
4054 5891 1
4055 365 1
4055 549 1
4055 1681 1
4055 3049 1
4055 4573 1
4055 4941 1
4055 9572 1
4056 333 1
4056 836 1
4056 1389 1
4056 3142 1
4056 5606 1
4056 6601 1
4056 7081 1
4057 11 1
4057 2071 1
4057 2319 1
4057 3923 1
4058 21 1
4058 41 1
4058 77 1
4058 893 1
4058 8509 1
4059 635 1
4059 790 1
4059 918 1
4059 3884 1
4059 4957 1
4059 6885 1
4059 8098 1
4060 247 1
4060 549 1
4060 1550 1
4060 3542 1
4060 5088 1
4060 6530 1
4060 8568 1
4060 9540 1
4061 81 1
4061 285 1
4061 753 1
4061 1798 1
4061 7032 1
4062 16 1
4062 95 1
4062 180 1
4062 1442 1
4063 895 1
4063 922 1
4063 1294 1
4063 1398 1
4063 5295 1
4063 5530 1
4063 5708 1
4063 9546 1
4064 12 1
4064 130 1
4064 1169 1
4064 1371 1
4064 8090 1
4065 121 1
4065 1023 1
4065 1753 1
4065 2969 1
4065 5222 1
4066 185 1
4066 754 1
4066 3424 1
4066 3566 1
4066 8912 1
4067 594 1
4067 595 1
4067 1255 1
4067 3039 1
4067 7921 1
4068 1022 1
4068 2929 1
4068 3096 1
4068 3772 1
4069 5 1
4069 1180 1
4069 1446 1
4069 1755 1
4070 10 1
4070 28 1
4070 1817 1
4070 3687 1
4070 4501 1
4070 5732 1
4070 5971 1
4070 6372 1
4070 7232 1
4070 8913 1
4071 139 1
4071 373 1
4071 3520 1
4071 3815 1
4071 4336 1
4071 4512 1
4071 8993 1
4071 9793 1
4072 54 1
4072 313 1
4072 381 1
4072 1843 1
4072 8354 1
4072 8561 1
4073 40 1
4073 1932 1
4073 2160 1
4073 3306 1
4073 4577 1
4073 5165 1
4073 5644 1
4073 6640 1
4073 8541 1
4074 451 1
4074 750 1
4074 878 1
4074 1193 1
4074 5006 1
4074 6277 1
4074 8556 1
4075 263 1
4075 1410 1
4075 2006 1
4075 3950 1
4076 67 1
4076 399 1
4076 898 1
4076 1625 1
4076 4342 1
4076 4398 1
4076 4806 1
4076 4867 1
4076 6854 1
4076 7440 1
4076 7827 1
4077 74 1
4077 2337 1
4077 3891 1
4077 3913 1
4077 5144 1
4077 5642 1
4077 6864 1
4078 213 1
4078 442 1
4078 839 1
4078 3334 1
4078 8477 1
4079 147 1
4079 2012 1
4079 2069 1
4079 3306 1
4079 4450 1
4079 7457 1
4080 156 1
4080 226 1
4080 2661 1
4080 2690 1
4081 16 1
4081 410 1
4081 559 1
4081 1317 1
4081 5821 1
4082 47 1
4082 121 1
4082 759 1
4082 1474 1
4082 8861 1
4083 6 1
4083 19 1
4083 222 1
4083 2188 1
4083 5141 1
4083 6218 1
4083 8939 1
4084 74 1
4084 1300 1
4084 2519 1
4084 2856 1
4085 235 1
4085 771 1
4085 1816 1
4085 1921 1
4085 4265 1
4085 6562 1
4085 7791 1
4085 8800 1
4086 987 1
4086 1292 1
4086 1890 1
4086 3736 1
4086 4963 1
4087 6 1
4087 313 1
4087 327 1
4087 859 1
4087 4303 1
4087 7381 1
4087 7447 1
4088 1369 1
4088 1710 1
4088 3818 1
4088 3998 1
4088 5806 1
4088 6252 1
4089 648 1
4089 1417 1
4089 1785 1
4089 2126 1
4089 6042 1
4089 7894 1
4089 8790 1
4089 9198 1
4090 110 1
4090 138 1
4090 676 1
4090 1344 1
4090 5733 1
4090 5737 1
4090 9709 1
4090 9758 1
4090 9862 1
4090 10000 1
4091 182 1
4091 461 1
4091 2155 1
4091 2857 1
4091 6898 1
4092 5 1
4092 362 1
4092 486 1
4092 3939 1
4092 7140 1
4093 22 1
4093 493 1
4093 1547 1
4093 2493 1
4094 6 1
4094 166 1
4094 295 1
4094 1661 1
4094 8092 1
4095 5 1
4095 260 1
4095 1160 1
4095 1189 1
4096 60 1
4096 220 1
4096 808 1
4096 1702 1
4096 4862 1
4096 6402 1
4096 7678 1
4096 7935 1
4097 6 1
4097 403 1
4097 1743 1
4097 2733 1
4098 167 1
4098 231 1
4098 637 1
4098 1748 1
4099 28 1
4099 1712 1
4099 3039 1
4099 3276 1
4099 4699 1
4100 579 1
4100 706 1
4100 737 1
4100 886 1
4100 7675 1
4100 8353 1
4101 94 1
4101 599 1
4101 1873 1
4101 2114 1
4101 4188 1
4101 6471 1
4102 6 1
4102 52 1
4102 642 1
4102 2483 1
4102 4358 1
4102 5511 1
4102 6748 1
4102 9845 1
4103 220 1
4103 543 1
4103 1358 1
4103 4009 1
4103 4448 1
4103 5616 1
4103 6651 1
4103 7392 1
4103 9539 1
4104 538 1
4104 634 1
4104 760 1
4104 2898 1
4104 4883 1
4104 5861 1
4105 135 1
4105 287 1
4105 3592 1
4105 3721 1
4105 6438 1
4105 7481 1
4105 7597 1
4106 347 1
4106 351 1
4106 462 1
4106 2080 1
4106 4842 1
4106 5656 1
4106 7258 1
4106 9239 1
4107 199 1
4107 1092 1
4107 1175 1
4107 2210 1
4107 5335 1
4107 6474 1
4107 6684 1
4107 9661 1
4108 426 1
4108 1548 1
4108 1681 1
4108 2111 1
4108 4115 1
4108 9590 1
4109 287 1
4109 1146 1
4109 3442 1
4109 3555 1
4109 4462 1
4109 5786 1
4109 6551 1
4109 7037 1
4110 13 1
4110 196 1
4110 1987 1
4110 2635 1
4111 303 1
4111 403 1
4111 1565 1
4111 2776 1
4111 5773 1
4111 8109 1
4112 3 1
4112 42 1
4112 100 1
4112 1287 1
4112 5614 1
4112 7165 1
4112 9707 1
4113 612 1
4113 1221 1
4113 2996 1
4113 3454 1
4113 6152 1
4113 7125 1
4113 9882 1
4114 185 1
4114 570 1
4114 594 1
4114 995 1
4114 6333 1
4115 1671 1
4115 2236 1
4115 2291 1
4115 4108 1
4115 4732 1
4115 5307 1
4115 9564 1
4116 184 1
4116 1788 1
4116 3313 1
4116 3456 1
4116 4495 1
4117 1276 1
4117 1514 1
4117 2549 1
4117 3435 1
4117 5786 1
4118 12 1
4118 269 1
4118 355 1
4118 576 1
4119 3 1
4119 573 1
4119 1048 1
4119 2382 1
4119 5365 1
4120 121 1
4120 188 1
4120 402 1
4120 2324 1
4120 8983 1
4121 48 1
4121 1770 1
4121 1951 1
4121 2234 1
4121 6120 1
4122 77 1
4122 120 1
4122 1051 1
4122 1883 1
4123 759 1
4123 799 1
4123 1969 1
4123 3149 1
4123 8726 1
4124 372 1
4124 983 1
4124 3123 1
4124 3920 1
4124 8844 1
4124 9446 1
4125 3 1
4125 88 1
4125 330 1
4125 1699 1
4125 4914 1
4125 6350 1
4125 6830 1
4125 7633 1
4125 8452 1
4126 6 1
4126 902 1
4126 1023 1
4126 2807 1
4126 7409 1
4126 8699 1
4127 1702 1
4127 1996 1
4127 2713 1
4127 2863 1
4127 4391 1
4127 4891 1
4128 127 1
4128 206 1
4128 508 1
4128 1011 1
4128 9608 1
4129 3 1
4129 985 1
4129 1693 1
4129 3587 1
4129 9960 1
4130 306 1
4130 651 1
4130 2425 1
4130 3142 1
4130 4718 1
4130 9794 1
4131 1898 1
4131 2125 1
4131 2476 1
4131 2521 1
4131 5185 1
4131 6379 1
4131 6897 1
4131 7079 1
4131 8146 1
4132 34 1
4132 674 1
4132 1253 1
4132 3344 1
4132 8596 1
4133 288 1
4133 2008 1
4133 2096 1
4133 2584 1
4134 433 1
4134 740 1
4134 966 1
4134 2495 1
4135 617 1
4135 635 1
4135 826 1
4135 2325 1
4135 6374 1
4136 22 1
4136 351 1
4136 623 1
4136 2864 1
4137 82 1
4137 440 1
4137 3072 1
4137 3419 1
4138 800 1
4138 3139 1
4138 3634 1
4138 4024 1
4138 5624 1
4138 6996 1
4138 7951 1
4138 9140 1
4139 1047 1
4139 1133 1
4139 1507 1
4139 3706 1
4139 4583 1
4139 6521 1
4139 6579 1
4139 8395 1
4140 246 1
4140 581 1
4140 914 1
4140 2527 1
4140 5726 1
4140 6256 1
4140 6323 1
4140 7379 1
4140 8621 1
4141 16 1
4141 1437 1
4141 2301 1
4141 3066 1
4141 6151 1
4141 6671 1
4141 9656 1
4142 355 1
4142 1410 1
4142 2037 1
4142 3644 1
4142 7162 1
4142 7237 1
4142 7279 1
4142 9880 1
4143 129 1
4143 505 1
4143 909 1
4143 1675 1
4143 4302 1
4143 4436 1
4143 4559 1
4143 5966 1
4143 8076 1
4143 8232 1
4144 30 1
4144 96 1
4144 1202 1
4144 2118 1
4144 4574 1
4144 9216 1
4145 673 1
4145 1212 1
4145 1265 1
4145 1418 1
4145 8589 1
4146 484 1
4146 953 1
4146 1873 1
4146 2865 1
4146 4908 1
4146 5352 1
4146 6666 1
4146 8658 1
4146 9573 1
4147 6 1
4147 603 1
4147 1003 1
4147 2256 1
4147 4168 1
4147 6157 1
4147 7055 1
4147 9898 1
4148 8 1
4148 105 1
4148 120 1
4148 222 1
4148 4183 1
4148 5824 1
4148 7122 1
4148 8576 1
4149 990 1
4149 1835 1
4149 1911 1
4149 1983 1
4149 4394 1
4149 5480 1
4149 7944 1
4149 9111 1
4149 9516 1
4150 140 1
4150 2532 1
4150 3923 1
4150 3998 1
4151 165 1
4151 615 1
4151 791 1
4151 2676 1
4151 5277 1
4152 78 1
4152 114 1
4152 1233 1
4152 1276 1
4152 7016 1
4153 3 1
4153 6 1
4153 58 1
4153 2274 1
4154 2 1
4154 339 1
4154 1381 1
4154 2775 1
4154 5025 1
4154 5678 1
4154 8687 1
4154 9178 1
4155 362 1
4155 368 1
4155 2231 1
4155 2343 1
4155 8570 1
4156 407 1
4156 584 1
4156 3603 1
4156 3701 1
4156 4238 1
4156 4464 1
4156 4822 1
4156 5428 1
4156 7297 1
4156 9415 1
4156 9690 1
4157 426 1
4157 486 1
4157 1324 1
4157 2689 1
4157 5162 1
4157 6770 1
4157 7905 1
4157 8080 1
4157 9101 1
4158 6 1
4158 14 1
4158 191 1
4158 3976 1
4158 6055 1
4158 6368 1
4158 8072 1
4159 9 1
4159 184 1
4159 261 1
4159 3866 1
4159 8944 1
4160 28 1
4160 81 1
4160 1573 1
4160 1684 1
4161 26 1
4161 1403 1
4161 1737 1
4161 3410 1
4161 5360 1
4161 5575 1
4162 799 1
4162 3100 1
4162 3757 1
4162 4024 1
4163 947 1
4163 1025 1
4163 2875 1
4163 3458 1
4163 4873 1
4163 4894 1
4163 6350 1
4163 7485 1
4164 281 1
4164 1025 1
4164 2630 1
4164 3275 1
4164 4420 1
4164 4495 1
4164 5266 1
4164 7794 1
4164 9165 1
4165 26 1
4165 69 1
4165 791 1
4165 840 1
4165 4536 1
4165 4616 1
4165 4693 1
4165 5339 1
4165 6776 1
4165 7413 1
4166 17 1
4166 64 1
4166 277 1
4166 1000 1
4166 9189 1
4167 45 1
4167 251 1
4167 1156 1
4167 1474 1
4167 5452 1
4167 9766 1
4168 260 1
4168 308 1
4168 410 1
4168 4147 1
4168 6294 1
4168 9676 1
4169 1028 1
4169 1574 1
4169 2057 1
4169 3630 1
4169 5486 1
4169 8141 1
4169 9773 1
4170 235 1
4170 271 1
4170 1091 1
4170 1461 1
4170 4256 1
4170 4621 1
4170 5260 1
4170 5478 1
4170 6073 1
4170 7437 1
4170 8981 1
4171 471 1
4171 1375 1
4171 1746 1
4171 2983 1
4171 9560 1
4172 785 1
4172 1092 1
4172 1158 1
4172 3375 1
4172 7265 1
4172 7801 1
4173 21 1
4173 157 1
4173 600 1
4173 1260 1
4173 6886 1
4173 7814 1
4173 8439 1
4174 260 1
4174 969 1
4174 1019 1
4174 1132 1
4175 121 1
4175 150 1
4175 332 1
4175 722 1
4176 3 1
4176 31 1
4176 718 1
4176 3562 1
4176 4942 1
4177 32 1
4177 120 1
4177 149 1
4177 605 1
4177 7223 1
4177 8453 1
4178 189 1
4178 2415 1
4178 3583 1
4178 3987 1
4178 4280 1
4178 4715 1
4178 5787 1
4179 334 1
4179 1756 1
4179 2012 1
4179 2779 1
4180 644 1
4180 1277 1
4180 2164 1
4180 3536 1
4180 4521 1
4180 7974 1
4181 29 1
4181 98 1
4181 167 1
4181 3315 1
4181 4613 1
4181 7091 1
4181 7200 1
4181 9139 1
4182 66 1
4182 79 1
4182 1079 1
4182 1397 1
4183 1321 1
4183 1442 1
4183 2252 1
4183 4148 1
4183 5224 1
4183 5756 1
4183 7307 1
4183 8476 1
4184 72 1
4184 2067 1
4184 2991 1
4184 3163 1
4184 4540 1
4185 293 1
4185 295 1
4185 1147 1
4185 1969 1
4185 5889 1
4185 6048 1
4185 6240 1
4185 6598 1
4185 7059 1
4186 472 1
4186 1411 1
4186 1518 1
4186 3744 1
4186 4353 1
4186 4757 1
4186 5348 1
4186 7205 1
4187 5 1
4187 364 1
4187 425 1
4187 1538 1
4187 6179 1
4187 6612 1
4188 162 1
4188 2822 1
4188 3390 1
4188 4101 1
4188 7607 1
4189 6 1
4189 140 1
4189 186 1
4189 939 1
4189 6734 1
4190 156 1
4190 767 1
4190 792 1
4190 1041 1
4190 4201 1
4191 134 1
4191 2898 1
4191 3131 1
4191 3166 1
4192 125 1
4192 975 1
4192 1697 1
4192 2864 1
4192 4649 1
4192 5124 1
4192 6023 1
4192 6920 1
4192 8524 1
4193 14 1
4193 272 1
4193 1207 1
4193 2835 1
4193 8355 1
4194 101 1
4194 1223 1
4194 1741 1
4194 1893 1
4195 393 1
4195 2467 1
4195 3110 1
4195 3329 1
4195 6454 1
4195 9852 1
4196 13 1
4196 1390 1
4196 1744 1
4196 3035 1
4197 426 1
4197 1252 1
4197 1454 1
4197 1939 1
4197 7478 1
4197 7545 1
4197 9976 1
4198 84 1
4198 956 1
4198 1940 1
4198 3780 1
4198 5039 1
4198 5665 1
4198 7396 1
4198 7570 1
4199 277 1
4199 2962 1
4199 3348 1
4199 3998 1
4199 4772 1
4199 8359 1
4200 63 1
4200 295 1
4200 648 1
4200 2131 1
4200 4362 1
4200 4385 1
4201 888 1
4201 1279 1
4201 3249 1
4201 4190 1
4201 4760 1
4201 4985 1
4201 7642 1
4202 200 1
4202 513 1
4202 949 1
4202 3162 1
4202 6788 1
4203 5 1
4203 24 1
4203 1332 1
4203 2676 1
4204 188 1
4204 2959 1
4204 3638 1
4204 3901 1
4204 9123 1
4205 7 1
4205 1744 1
4205 2613 1
4205 2758 1
4205 4507 1
4205 6905 1
4205 8134 1
4206 95 1
4206 237 1
4206 1049 1
4206 3759 1
4206 4681 1
4206 7483 1
4207 45 1
4207 444 1
4207 2881 1
4207 3560 1
4207 4822 1
4207 5607 1
4207 5919 1
4208 60 1
4208 666 1
4208 1381 1
4208 1606 1
4208 5667 1
4208 9454 1
4209 590 1
4209 624 1
4209 1793 1
4209 2206 1
4209 5605 1
4209 9572 1
4210 257 1
4210 1070 1
4210 1619 1
4210 3265 1
4210 4821 1
4210 5819 1
4210 6457 1
4210 6707 1
4211 752 1
4211 1007 1
4211 1038 1
4211 3906 1
4211 6005 1
4212 453 1
4212 2105 1
4212 3048 1
4212 3724 1
4213 545 1
4213 1912 1
4213 2034 1
4213 3739 1
4213 4511 1
4214 826 1
4214 2224 1
4214 3752 1
4214 3848 1
4215 235 1
4215 468 1
4215 1290 1
4215 1350 1
4215 4737 1
4215 4832 1
4215 6697 1
4215 9294 1
4216 698 1
4216 719 1
4216 1581 1
4216 2798 1
4216 5136 1
4217 22 1
4217 149 1
4217 580 1
4217 637 1
4217 5465 1
4217 6329 1
4217 6871 1
4217 7956 1
4218 575 1
4218 1251 1
4218 2029 1
4218 2064 1
4218 4624 1
4218 4907 1
4219 791 1
4219 1058 1
4219 2799 1
4219 4043 1
4219 4905 1
4219 4978 1
4219 7284 1
4219 8942 1
4220 19 1
4220 105 1
4220 296 1
4220 1416 1
4220 6280 1
4220 7980 1
4221 799 1
4221 826 1
4221 934 1
4221 1593 1
4221 6526 1
4221 9425 1
4222 119 1
4222 890 1
4222 1189 1
4222 1964 1
4222 4742 1
4222 7568 1
4223 866 1
4223 1034 1
4223 1099 1
4223 1248 1
4224 17 1
4224 42 1
4224 603 1
4224 2000 1
4224 4496 1
4224 7309 1
4224 8745 1
4224 9885 1
4225 11 1
4225 23 1
4225 680 1
4225 3372 1
4226 128 1
4226 1628 1
4226 1952 1
4226 3646 1
4226 4886 1
4227 13 1
4227 382 1
4227 963 1
4227 3977 1
4228 725 1
4228 726 1
4228 1060 1
4228 1710 1
4229 120 1
4229 1570 1
4229 1602 1
4229 1865 1
4229 5069 1
4229 5926 1
4229 9181 1
4230 1 1
4230 785 1
4230 1777 1
4230 2915 1
4230 4714 1
4230 5251 1
4230 5378 1
4230 8778 1
4230 9613 1
4230 9959 1
4231 1 1
4231 256 1
4231 1912 1
4231 2658 1
4231 9689 1
4232 219 1
4232 615 1
4232 1982 1
4232 3219 1
4233 13 1
4233 86 1
4233 196 1
4233 3518 1
4234 1004 1
4234 2400 1
4234 3530 1
4234 3968 1
4234 7702 1
4235 119 1
4235 635 1
4235 1277 1
4235 3213 1
4235 4353 1
4235 8863 1
4235 9557 1
4236 392 1
4236 1270 1
4236 1953 1
4236 2048 1
4236 4432 1
4236 4952 1
4236 5898 1
4236 6837 1
4236 7854 1
4236 8597 1
4236 9938 1
4237 83 1
4237 160 1
4237 2853 1
4237 2984 1
4237 5910 1
4237 7785 1
4237 9560 1
4238 1462 1
4238 1756 1
4238 2290 1
4238 4156 1
4238 5583 1
4238 6949 1
4238 7125 1
4238 7975 1
4239 486 1
4239 2062 1
4239 2907 1
4239 2980 1
4239 4739 1
4239 7879 1
4239 7972 1
4239 9113 1
4240 8 1
4240 12 1
4240 47 1
4240 1480 1
4240 8102 1
4241 481 1
4241 2425 1
4241 2942 1
4241 3996 1
4241 9114 1
4242 151 1
4242 947 1
4242 1029 1
4242 3371 1
4242 4599 1
4242 7502 1
4243 390 1
4243 468 1
4243 681 1
4243 2113 1
4243 4351 1
4244 515 1
4244 622 1
4244 864 1
4244 3805 1
4245 97 1
4245 702 1
4245 1172 1
4245 2636 1
4245 5664 1
4245 7898 1
4245 9832 1
4246 286 1
4246 309 1
4246 555 1
4246 725 1
4246 6266 1
4246 6990 1
4247 13 1
4247 282 1
4247 1443 1
4247 3421 1
4247 8982 1
4247 9228 1
4247 9832 1
4248 181 1
4248 559 1
4248 616 1
4248 1028 1
4249 143 1
4249 1115 1
4249 1932 1
4249 3246 1
4249 4722 1
4249 6682 1
4249 7874 1
4250 477 1
4250 505 1
4250 2636 1
4250 3293 1
4251 41 1
4251 1023 1
4251 3132 1
4251 3240 1
4251 5769 1
4251 7124 1
4251 9907 1
4252 27 1
4252 155 1
4252 2878 1
4252 3752 1
4253 24 1
4253 683 1
4253 1296 1
4253 2999 1
4253 4566 1
4253 5214 1
4253 6568 1
4254 122 1
4254 2773 1
4254 3624 1
4254 3648 1
4254 4909 1
4254 5902 1
4254 6777 1
4254 6799 1
4254 9514 1
4255 13 1
4255 1837 1
4255 2796 1
4255 3336 1
4256 31 1
4256 38 1
4256 381 1
4256 4170 1
4257 15 1
4257 378 1
4257 632 1
4257 1494 1
4257 5035 1
4257 7613 1
4257 8031 1
4258 304 1
4258 1107 1
4258 1873 1
4258 3176 1
4258 6550 1
4259 59 1
4259 1929 1
4259 2767 1
4259 3018 1
4259 5292 1
4259 9209 1
4259 9278 1
4260 609 1
4260 1694 1
4260 2177 1
4260 3141 1
4260 6372 1
4260 7658 1
4260 8529 1
4260 8691 1
4261 428 1
4261 1562 1
4261 2864 1
4261 3989 1
4261 6088 1
4261 8033 1
4261 8147 1
4261 8770 1
4261 9507 1
4262 57 1
4262 411 1
4262 1120 1
4262 2379 1
4262 5516 1
4262 6359 1
4262 6559 1
4262 7166 1
4262 7194 1
4262 7774 1
4262 8820 1
4263 5 1
4263 465 1
4263 619 1
4263 1297 1
4263 4856 1
4263 9441 1
4264 425 1
4264 1814 1
4264 2381 1
4264 3572 1
4264 6087 1
4264 7017 1
4264 8001 1
4265 157 1
4265 832 1
4265 2019 1
4265 4085 1
4266 6 1
4266 56 1
4266 696 1
4266 1451 1
4266 7166 1
4267 145 1
4267 271 1
4267 2505 1
4267 3383 1
4268 1 1
4268 25 1
4268 368 1
4268 3244 1
4269 253 1
4269 1139 1
4269 1561 1
4269 3337 1
4269 5142 1
4269 6157 1
4269 6354 1
4269 6404 1
4269 6458 1
4269 9890 1
4270 57 1
4270 466 1
4270 570 1
4270 1737 1
4271 22 1
4271 91 1
4271 2678 1
4271 3357 1
4271 5190 1
4271 8125 1
4272 24 1
4272 2093 1
4272 3558 1
4272 4050 1
4272 6513 1
4272 7522 1
4273 25 1
4273 227 1
4273 732 1
4273 1789 1
4274 362 1
4274 628 1
4274 1086 1
4274 1843 1
4274 6180 1
4274 6574 1
4274 8164 1
4274 9760 1
4275 294 1
4275 827 1
4275 2801 1
4275 4037 1
4275 6145 1
4276 143 1
4276 854 1
4276 917 1
4276 2797 1
4276 4884 1
4276 6861 1
4276 7779 1
4277 356 1
4277 2353 1
4277 2518 1
4277 3397 1
4278 651 1
4278 2344 1
4278 2411 1
4278 2972 1
4279 564 1
4279 2930 1
4279 3002 1
4279 3319 1
4279 4413 1
4279 5555 1
4279 7662 1
4279 7864 1
4279 8805 1
4279 9163 1
4280 12 1
4280 54 1
4280 467 1
4280 4178 1
4280 8263 1
4281 313 1
4281 3527 1
4281 3568 1
4281 3800 1
4281 5514 1
4281 6277 1
4281 6618 1
4282 482 1
4282 668 1
4282 696 1
4282 3441 1
4282 4405 1
4282 4823 1
4283 711 1
4283 746 1
4283 953 1
4283 2763 1
4284 29 1
4284 237 1
4284 562 1
4284 996 1
4285 1292 1
4285 1451 1
4285 1579 1
4285 3131 1
4285 7586 1
4286 699 1
4286 824 1
4286 1223 1
4286 2636 1
4286 8782 1
4286 8957 1
4287 3 1
4287 156 1
4287 385 1
4287 4053 1
4288 195 1
4288 693 1
4288 2676 1
4288 3255 1
4288 8587 1
4288 8618 1
4289 55 1
4289 212 1
4289 328 1
4289 838 1
4290 134 1
4290 233 1
4290 854 1
4290 2732 1
4290 5895 1
4291 137 1
4291 1418 1
4291 1484 1
4291 3981 1
4291 4422 1
4292 212 1
4292 2654 1
4292 2779 1
4292 3830 1
4292 9767 1
4293 316 1
4293 1922 1
4293 1990 1
4293 2924 1
4293 6034 1
4293 6659 1
4294 521 1
4294 684 1
4294 2651 1
4294 2675 1
4294 4440 1
4294 4472 1
4294 5277 1
4294 5429 1
4294 5648 1
4294 5912 1
4294 6752 1
4294 6958 1
4294 6995 1
4294 8026 1
4294 9679 1
4294 9879 1
4295 154 1
4295 199 1
4295 349 1
4295 3734 1
4295 5358 1
4295 5660 1
4295 9998 1
4296 63 1
4296 448 1
4296 694 1
4296 1792 1
4296 4402 1
4296 4595 1
4296 4820 1
4296 6957 1
4296 7724 1
4296 7925 1
4296 8941 1
4296 9864 1
4297 37 1
4297 98 1
4297 406 1
4297 899 1
4297 6096 1
4297 7115 1
4297 8127 1
4298 41 1
4298 153 1
4298 381 1
4298 794 1
4298 8996 1
4299 307 1
4299 314 1
4299 1867 1
4299 2354 1
4299 4712 1
4299 7291 1
4300 357 1
4300 485 1
4300 1358 1
4300 1909 1
4300 4535 1
4300 6442 1
4301 70 1
4301 288 1
4301 831 1
4301 3172 1
4301 5421 1
4301 5748 1
4301 6249 1
4302 5 1
4302 298 1
4302 816 1
4302 4143 1
4302 7811 1
4303 13 1
4303 236 1
4303 3380 1
4303 4087 1
4303 4675 1
4303 4937 1
4303 7292 1
4303 9606 1
4304 105 1
4304 199 1
4304 2589 1
4304 3857 1
4304 4705 1
4305 90 1
4305 263 1
4305 947 1
4305 2253 1
4305 5661 1
4305 9489 1
4306 308 1
4306 334 1
4306 1125 1
4306 3783 1
4306 4874 1
4306 5045 1
4306 5211 1
4306 6184 1
4306 6780 1
4306 7083 1
4306 7350 1
4307 384 1
4307 557 1
4307 1607 1
4307 3988 1
4307 4785 1
4307 9936 1
4308 19 1
4308 2907 1
4308 3110 1
4308 3510 1
4308 8223 1
4309 281 1
4309 868 1
4309 1101 1
4309 2450 1
4309 4803 1
4309 5235 1
4309 5833 1
4309 6067 1
4309 9242 1
4310 124 1
4310 1476 1
4310 1693 1
4310 2723 1
4310 6416 1
4311 14 1
4311 278 1
4311 991 1
4311 1157 1
4311 4876 1
4311 6203 1
4311 6922 1
4312 642 1
4312 1055 1
4312 1740 1
4312 3293 1
4313 166 1
4313 434 1
4313 1046 1
4313 1556 1
4313 4454 1
4314 58 1
4314 474 1
4314 1147 1
4314 2011 1
4314 5836 1
4314 8011 1
4315 26 1
4315 113 1
4315 1083 1
4315 1827 1
4315 5839 1
4315 6161 1
4315 7735 1
4315 7739 1
4316 134 1
4316 1604 1
4316 2218 1
4316 3669 1
4317 95 1
4317 1073 1
4317 1961 1
4317 2713 1
4317 9316 1
4318 54 1
4318 2816 1
4318 3074 1
4318 3221 1
4318 4588 1
4318 6538 1
4318 7433 1
4318 9482 1
4319 97 1
4319 427 1
4319 898 1
4319 2374 1
4320 154 1
4320 612 1
4320 1861 1
4320 3995 1
4320 7505 1
4321 39 1
4321 658 1
4321 694 1
4321 802 1
4322 450 1
4322 868 1
4322 1833 1
4322 3174 1
4322 4565 1
4323 31 1
4323 537 1
4323 1579 1
4323 3952 1
4323 9635 1
4324 789 1
4324 1041 1
4324 1511 1
4324 2107 1
4324 5673 1
4324 8139 1
4324 9596 1
4325 8 1
4325 26 1
4325 298 1
4325 515 1
4325 4783 1
4325 9679 1
4325 9784 1
4326 37 1
4326 68 1
4326 2080 1
4326 2516 1
4326 4695 1
4326 5240 1
4326 7180 1
4326 9577 1
4327 33 1
4327 1380 1
4327 1762 1
4327 1772 1
4328 14 1
4328 66 1
4328 2720 1
4328 3832 1
4328 4621 1
4328 5747 1
4329 4 1
4329 225 1
4329 615 1
4329 1914 1
4329 7421 1
4329 7625 1
4329 7637 1
4330 690 1
4330 701 1
4330 3238 1
4330 3701 1
4330 6771 1
4330 9166 1
4330 9885 1
4331 93 1
4331 785 1
4331 946 1
4331 1568 1
4331 5409 1
4331 8422 1
4331 8639 1
4331 8939 1
4331 9704 1
4332 77 1
4332 172 1
4332 295 1
4332 1289 1
4332 8762 1
4333 117 1
4333 1913 1
4333 2029 1
4333 3572 1
4333 5731 1
4333 6458 1
4334 583 1
4334 1410 1
4334 2062 1
4334 2499 1
4334 5186 1
4335 117 1
4335 1852 1
4335 2713 1
4335 3568 1
4335 4343 1
4335 5203 1
4335 5562 1
4335 9429 1
4336 1446 1
4336 1573 1
4336 3482 1
4336 4071 1
4336 6804 1
4337 393 1
4337 986 1
4337 1600 1
4337 4027 1
4337 6632 1
4337 7245 1
4337 7902 1
4337 9612 1
4338 339 1
4338 364 1
4338 586 1
4338 1294 1
4338 8585 1
4338 9913 1
4339 147 1
4339 577 1
4339 709 1
4339 916 1
4339 6400 1
4340 4 1
4340 114 1
4340 1499 1
4340 2183 1
4341 162 1
4341 1176 1
4341 3140 1
4341 3595 1
4341 4517 1
4342 153 1
4342 448 1
4342 698 1
4342 4076 1
4342 4454 1
4342 8913 1
4343 86 1
4343 1080 1
4343 1562 1
4343 4335 1
4343 6702 1
4343 6999 1
4343 9858 1
4343 9906 1
4344 583 1
4344 1310 1
4344 2213 1
4344 3542 1
4344 5524 1
4344 9610 1
4345 411 1
4345 664 1
4345 963 1
4345 1042 1
4345 9253 1
4346 287 1
4346 2832 1
4346 2905 1
4346 3433 1
4346 7019 1
4347 1385 1
4347 1752 1
4347 1862 1
4347 2987 1
4347 9220 1
4348 48 1
4348 120 1
4348 296 1
4348 302 1
4348 4384 1
4348 6193 1
4348 6479 1
4348 6605 1
4348 7061 1
4349 5 1
4349 81 1
4349 1666 1
4349 1788 1
4350 44 1
4350 1126 1
4350 1497 1
4350 1781 1
4351 368 1
4351 408 1
4351 1259 1
4351 4243 1
4351 4433 1
4351 6540 1
4351 7131 1
4351 7261 1
4351 7494 1
4351 8448 1
4351 9483 1
4352 19 1
4352 52 1
4352 2080 1
4352 3173 1
4352 4601 1
4353 402 1
4353 2371 1
4353 4186 1
4353 4235 1
4353 6254 1
4354 1 1
4354 17 1
4354 1721 1
4354 3997 1
4354 6641 1
4355 281 1
4355 2002 1
4355 2274 1
4355 3346 1
4355 6397 1
4355 9115 1
4356 562 1
4356 1683 1
4356 1828 1
4356 3115 1
4356 7438 1
4357 12 1
4357 16 1
4357 597 1
4357 2650 1
4358 937 1
4358 1279 1
4358 1334 1
4358 4102 1
4359 25 1
4359 157 1
4359 912 1
4359 2557 1
4360 71 1
4360 104 1
4360 1660 1
4360 3204 1
4360 5760 1
4361 812 1
4361 1999 1
4361 2693 1
4361 2976 1
4361 4611 1
4361 4620 1
4361 4987 1
4361 5543 1
4361 7018 1
4361 7132 1
4361 9427 1
4362 1027 1
4362 2052 1
4362 4013 1
4362 4200 1
4362 8328 1
4363 93 1
4363 433 1
4363 829 1
4363 1146 1
4364 179 1
4364 181 1
4364 2150 1
4364 2409 1
4364 4781 1
4364 7266 1
4364 8117 1
4364 9442 1
4365 7 1
4365 27 1
4365 188 1
4365 425 1
4365 5693 1
4365 8128 1
4365 8643 1
4366 377 1
4366 608 1
4366 1632 1
4366 2903 1
4366 5812 1
4366 6355 1
4366 8203 1
4367 427 1
4367 1504 1
4367 2352 1
4367 3158 1
4367 7590 1
4368 265 1
4368 1060 1
4368 1802 1
4368 1882 1
4368 5520 1
4368 7628 1
4368 8666 1
4369 1005 1
4369 1068 1
4369 1493 1
4369 2945 1
4369 4397 1
4369 8541 1
4370 156 1
4370 190 1
4370 443 1
4370 1059 1
4370 6219 1
4371 2 1
4371 387 1
4371 535 1
4371 2581 1
4371 8629 1
4372 166 1
4372 2512 1
4372 3269 1
4372 3587 1
4372 7861 1
4373 19 1
4373 758 1
4373 1941 1
4373 3488 1
4373 5266 1
4373 6697 1
4373 7572 1
4374 20 1
4374 108 1
4374 1699 1
4374 3050 1
4374 5474 1
4374 5557 1
4374 5691 1
4375 651 1
4375 856 1
4375 3065 1
4375 3870 1
4375 9977 1
4376 201 1
4376 203 1
4376 312 1
4376 1133 1
4377 8 1
4377 325 1
4377 1625 1
4377 2240 1
4378 1082 1
4378 1727 1
4378 2829 1
4378 3589 1
4378 9110 1
4379 115 1
4379 873 1
4379 931 1
4379 2769 1
4379 5060 1
4379 5913 1
4379 6048 1
4379 7791 1
4379 7896 1
4379 8096 1
4380 82 1
4380 186 1
4380 2578 1
4380 2914 1
4380 4631 1
4380 5182 1
4381 38 1
4381 160 1
4381 491 1
4381 3680 1
4381 4435 1
4381 4988 1
4381 6299 1
4381 7066 1
4382 5 1
4382 891 1
4382 1048 1
4382 2180 1
4382 8978 1
4383 410 1
4383 702 1
4383 746 1
4383 3821 1
4383 4476 1
4383 5434 1
4383 7644 1
4384 86 1
4384 396 1
4384 2376 1
4384 4348 1
4384 7595 1
4385 1050 1
4385 1066 1
4385 1142 1
4385 4200 1
4386 177 1
4386 312 1
4386 571 1
4386 873 1
4386 5192 1
4386 7965 1
4386 9974 1
4387 134 1
4387 481 1
4387 2995 1
4387 3086 1
4387 4904 1
4387 8219 1
4388 3 1
4388 178 1
4388 882 1
4388 2587 1
4388 5229 1
4389 352 1
4389 497 1
4389 594 1
4389 1848 1
4389 9679 1
4390 149 1
4390 256 1
4390 267 1
4390 835 1
4390 9098 1
4391 118 1
4391 2387 1
4391 3320 1
4391 4127 1
4391 4412 1
4391 4456 1
4391 4852 1
4391 5970 1
4391 6485 1
4391 9289 1
4391 9780 1
4392 15 1
4392 24 1
4392 1405 1
4392 2137 1
4392 4637 1
4392 5800 1
4392 8691 1
4393 387 1
4393 1295 1
4393 3597 1
4393 3907 1
4393 8774 1
4394 1005 1
4394 2200 1
4394 3067 1
4394 4149 1
4394 6371 1
4394 6593 1
4394 8055 1
4394 8104 1
4395 975 1
4395 1131 1
4395 1354 1
4395 1958 1
4396 455 1
4396 1688 1
4396 2713 1
4396 3975 1
4396 6903 1
4397 10 1
4397 1396 1
4397 1730 1
4397 4369 1
4397 5352 1
4398 412 1
4398 2715 1
4398 3028 1
4398 4076 1
4398 9090 1
4399 347 1
4399 385 1
4399 713 1
4399 2560 1
4399 4813 1
4399 6253 1
4400 702 1
4400 1358 1
4400 1539 1
4400 3112 1
4400 6080 1
4401 147 1
4401 273 1
4401 1696 1
4401 3651 1
4401 4921 1
4402 824 1
4402 1107 1
4402 1737 1
4402 4296 1
4402 5797 1
4403 36 1
4403 132 1
4403 564 1
4403 2675 1
4404 1534 1
4404 1614 1
4404 1724 1
4404 3657 1
4405 14 1
4405 212 1
4405 1474 1
4405 4282 1
4406 3 1
4406 1552 1
4406 1648 1
4406 2023 1
4406 8263 1
4407 75 1
4407 77 1
4407 1308 1
4407 2071 1
4407 8628 1
4408 19 1
4408 81 1
4408 88 1
4408 1982 1
4408 9835 1
4409 48 1
4409 385 1
4409 2197 1
4409 2959 1
4409 5547 1
4409 6455 1
4410 7 1
4410 850 1
4410 1079 1
4410 2791 1
4410 5068 1
4410 6097 1
4411 68 1
4411 674 1
4411 929 1
4411 1111 1
4412 601 1
4412 1405 1
4412 3105 1
4412 4391 1
4412 4760 1
4412 5497 1
4412 6721 1
4413 70 1
4413 2449 1
4413 3181 1
4413 4279 1
4413 9847 1
4414 33 1
4414 616 1
4414 1763 1
4414 3440 1
4415 10 1
4415 13 1
4415 433 1
4415 691 1
4415 4722 1
4415 6239 1
4415 9493 1
4416 6 1
4416 11 1
4416 3253 1
4416 3574 1
4416 9841 1
4416 9972 1
4417 16 1
4417 1695 1
4417 2161 1
4417 3423 1
4417 5268 1
4417 6762 1
4417 9719 1
4418 42 1
4418 390 1
4418 456 1
4418 906 1
4418 8115 1
4419 19 1
4419 771 1
4419 2859 1
4419 3635 1
4419 8657 1
4419 9865 1
4420 190 1
4420 1710 1
4420 2917 1
4420 4164 1
4420 5228 1
4420 6938 1
4420 7901 1
4421 745 1
4421 1396 1
4421 1974 1
4421 2366 1
4421 9604 1
4422 392 1
4422 1088 1
4422 3842 1
4422 4291 1
4422 5515 1
4422 8061 1
4422 8461 1
4422 8485 1
4422 8856 1
4423 34 1
4423 158 1
4423 460 1
4423 1417 1
4423 4819 1
4423 5609 1
4423 8349 1
4424 109 1
4424 236 1
4424 928 1
4424 1969 1
4425 320 1
4425 668 1
4425 3521 1
4425 3692 1
4425 5339 1
4425 8589 1
4426 269 1
4426 2252 1
4426 2777 1
4426 3035 1
4426 7489 1
4426 8209 1
4426 9721 1
4427 101 1
4427 353 1
4427 450 1
4427 2437 1
4427 4664 1
4427 6010 1
4427 6135 1
4427 6168 1
4427 7435 1
4428 138 1
4428 1247 1
4428 1777 1
4428 3552 1
4429 8 1
4429 399 1
4429 749 1
4429 1046 1
4429 6844 1
4429 8586 1
4430 14 1
4430 19 1
4430 356 1
4430 965 1
4431 60 1
4431 845 1
4431 1616 1
4431 3483 1
4431 4980 1
4431 8078 1
4431 9521 1
4432 120 1
4432 2474 1
4432 2981 1
4432 4236 1
4433 270 1
4433 1056 1
4433 3939 1
4433 4351 1
4433 7174 1
4434 295 1
4434 309 1
4434 475 1
4434 533 1
4435 19 1
4435 255 1
4435 388 1
4435 4381 1
4435 4557 1
4435 7172 1
4435 7884 1
4435 8900 1
4436 423 1
4436 822 1
4436 1044 1
4436 4143 1
4436 8033 1
4437 6 1
4437 1770 1
4437 2549 1
4437 3236 1
4437 6289 1
4437 7667 1
4438 399 1
4438 755 1
4438 1224 1
4438 2722 1
4438 7757 1
4439 182 1
4439 785 1
4439 3360 1
4439 3930 1
4439 9087 1
4440 32 1
4440 390 1
4440 1530 1
4440 4294 1
4440 4911 1
4441 301 1
4441 318 1
4441 1123 1
4441 4031 1
4441 4890 1
4441 5575 1
4441 6212 1
4441 6745 1
4441 9300 1
4441 9601 1
4442 13 1
4442 33 1
4442 385 1
4442 1046 1
4443 30 1
4443 39 1
4443 230 1
4443 3510 1
4443 8344 1
4444 64 1
4444 84 1
4444 218 1
4444 1236 1
4444 4945 1
4445 965 1
4445 1134 1
4445 2018 1
4445 3952 1
4445 5744 1
4446 15 1
4446 107 1
4446 295 1
4446 2624 1
4446 5063 1
4446 5633 1
4447 11 1
4447 22 1
4447 104 1
4447 308 1
4448 52 1
4448 1658 1
4448 2864 1
4448 4103 1
4448 6074 1
4448 7849 1
4448 9907 1
4449 520 1
4449 1229 1
4449 2395 1
4449 2619 1
4449 6443 1
4449 8915 1
4450 1055 1
4450 1089 1
4450 3039 1
4450 4079 1
4450 4908 1
4450 5902 1
4450 6354 1
4450 7291 1
4451 39 1
4451 202 1
4451 1813 1
4451 3981 1
4452 132 1
4452 1209 1
4452 2995 1
4452 3216 1
4452 5062 1
4452 7901 1
4453 27 1
4453 301 1
4453 343 1
4453 1771 1
4453 6168 1
4453 9843 1
4454 2137 1
4454 3090 1
4454 4313 1
4454 4342 1
4454 6133 1
4455 85 1
4455 991 1
4455 2974 1
4455 3039 1
4455 5730 1
4455 6367 1
4456 906 1
4456 1260 1
4456 3268 1
4456 4391 1
4456 7049 1
4456 9884 1
4457 10 1
4457 45 1
4457 1366 1
4457 1416 1
4457 8530 1
4458 552 1
4458 1708 1
4458 2311 1
4458 2400 1
4458 7198 1
4459 60 1
4459 217 1
4459 2229 1
4459 3432 1
4459 9763 1
4459 9782 1
4460 93 1
4460 374 1
4460 1339 1
4460 3358 1
4461 381 1
4461 549 1
4461 2381 1
4461 3182 1
4461 4680 1
4462 11 1
4462 182 1
4462 4016 1
4462 4109 1
4462 4811 1
4462 6325 1
4462 6764 1
4463 1925 1
4463 1932 1
4463 2200 1
4463 3913 1
4464 178 1
4464 2017 1
4464 3395 1
4464 4156 1
4464 7733 1
4464 7982 1
4465 606 1
4465 1079 1
4465 1438 1
4465 2815 1
4465 5238 1
4465 6412 1
4465 6926 1
4466 706 1
4466 2944 1
4466 3223 1
4466 3803 1
4466 4888 1
4466 5001 1
4466 6687 1
4466 6873 1
4466 9955 1
4467 80 1
4467 2075 1
4467 2285 1
4467 3404 1
4468 51 1
4468 1476 1
4468 1719 1
4468 3997 1
4468 4479 1
4468 5317 1
4469 841 1
4469 1126 1
4469 3144 1
4469 3356 1
4469 5143 1
4469 6737 1
4470 95 1
4470 615 1
4470 1481 1
4470 3482 1
4470 4753 1
4470 8328 1
4471 892 1
4471 2665 1
4471 3054 1
4471 3717 1
4471 4607 1
4471 7941 1
4471 8962 1
4471 9738 1
4472 301 1
4472 673 1
4472 1136 1
4472 4294 1
4472 9471 1
4473 29 1
4473 2113 1
4473 2504 1
4473 2556 1
4473 4632 1
4473 4697 1
4473 9155 1
4474 11 1
4474 993 1
4474 1635 1
4474 3242 1
4475 37 1
4475 298 1
4475 816 1
4475 2839 1
4475 9439 1
4476 34 1
4476 139 1
4476 1757 1
4476 4383 1
4476 4885 1
4476 6770 1
4476 7882 1
4476 8986 1
4477 1042 1
4477 1421 1
4477 1821 1
4477 4042 1
4477 5829 1
4477 6994 1
4478 104 1
4478 198 1
4478 719 1
4478 1355 1
4478 4517 1
4478 5837 1
4478 6438 1
4478 7236 1
4478 8080 1
4479 147 1
4479 1326 1
4479 2604 1
4479 4468 1
4479 4754 1
4479 5188 1
4480 166 1
4480 518 1
4480 1596 1
4480 2109 1
4480 7056 1
4481 1166 1
4481 1952 1
4481 2958 1
4481 3112 1
4481 8759 1
4482 63 1
4482 79 1
4482 709 1
4482 3131 1
4482 8413 1
4483 160 1
4483 571 1
4483 2947 1
4483 3835 1
4483 6028 1
4484 251 1
4484 1190 1
4484 1922 1
4484 2744 1
4484 4582 1
4484 5962 1
4484 9279 1
4485 516 1
4485 2648 1
4485 2661 1
4485 3162 1
4485 6181 1
4486 98 1
4486 305 1
4486 2113 1
4486 3522 1
4486 8168 1
4486 9348 1
4487 254 1
4487 651 1
4487 2640 1
4487 3568 1
4487 5773 1
4487 8138 1
4487 8478 1
4487 9780 1
4488 1 1
4488 614 1
4488 996 1
4488 3890 1
4488 8550 1
4488 8783 1
4488 9473 1
4489 2494 1
4489 2701 1
4489 2763 1
4489 3497 1
4489 5661 1
4489 7078 1
4489 7803 1
4489 9395 1
4490 30 1
4490 320 1
4490 357 1
4490 1114 1
4490 7531 1
4491 11 1
4491 28 1
4491 47 1
4491 308 1
4491 6205 1
4491 6881 1
4491 6927 1
4491 7879 1
4491 8140 1
4491 9445 1
4492 680 1
4492 1128 1
4492 2165 1
4492 3682 1
4492 4637 1
4493 381 1
4493 640 1
4493 1223 1
4493 2458 1
4493 5197 1
4493 6017 1
4493 6940 1
4493 7444 1
4493 8563 1
4493 9734 1
4494 38 1
4494 78 1
4494 2452 1
4494 2752 1
4494 4945 1
4494 5133 1
4494 5281 1
4494 5368 1
4494 6747 1
4495 586 1
4495 2530 1
4495 4116 1
4495 4164 1
4495 5693 1
4495 6175 1
4496 59 1
4496 828 1
4496 1652 1
4496 4224 1
4496 6045 1
4497 282 1
4497 412 1
4497 1093 1
4497 1151 1
4497 5993 1
4497 6542 1
4497 6919 1
4497 7705 1
4497 8331 1
4498 49 1
4498 255 1
4498 599 1
4498 1757 1
4498 5092 1
4498 5991 1
4498 7927 1
4498 8326 1
4499 220 1
4499 980 1
4499 1311 1
4499 3349 1
4500 634 1
4500 952 1
4500 1138 1
4500 4008 1
4500 5411 1
4500 7571 1
4501 384 1
4501 2561 1
4501 3018 1
4501 4070 1
4501 6363 1
4501 7717 1
4502 58 1
4502 1104 1
4502 1168 1
4502 3172 1
4502 4643 1
4502 4676 1
4502 6173 1
4502 9628 1
4503 36 1
4503 305 1
4503 351 1
4503 2951 1
4503 6032 1
4503 8977 1
4503 9525 1
4504 91 1
4504 279 1
4504 1001 1
4504 2445 1
4504 6034 1
4504 7873 1
4504 8481 1
4504 9577 1
4505 16 1
4505 556 1
4505 580 1
4505 1523 1
4505 4657 1
4505 5058 1
4505 7644 1
4505 8964 1
4505 9402 1
4506 375 1
4506 432 1
4506 584 1
4506 2540 1
4506 6162 1
4507 288 1
4507 2834 1
4507 2902 1
4507 4205 1
4508 158 1
4508 700 1
4508 2460 1
4508 3739 1
4509 22 1
4509 98 1
4509 473 1
4509 2481 1
4510 254 1
4510 729 1
4510 931 1
4510 1260 1
4511 204 1
4511 890 1
4511 3175 1
4511 4213 1
4511 5429 1
4511 7405 1
4511 8047 1
4512 599 1
4512 1354 1
4512 2459 1
4512 4071 1
4512 5003 1
4512 6158 1
4512 6861 1
4512 7974 1
4513 84 1
4513 186 1
4513 3157 1
4513 3270 1
4513 9017 1
4514 84 1
4514 1306 1
4514 3334 1
4514 3637 1
4515 683 1
4515 1504 1
4515 2319 1
4515 2809 1
4515 5829 1
4515 9432 1
4515 9815 1
4516 275 1
4516 1269 1
4516 1989 1
4516 2488 1
4516 8163 1
4517 27 1
4517 3530 1
4517 4341 1
4517 4478 1
4517 5408 1
4517 8277 1
4517 8426 1
4518 34 1
4518 56 1
4518 97 1
4518 1376 1
4519 482 1
4519 498 1
4519 1507 1
4519 1616 1
4519 6677 1
4519 6766 1
4519 8014 1
4520 39 1
4520 83 1
4520 574 1
4520 616 1
4521 2124 1
4521 2283 1
4521 3521 1
4521 4180 1
4521 4567 1
4521 5875 1
4521 6607 1
4521 7421 1
4522 23 1
4522 687 1
4522 1762 1
4522 3955 1
4523 117 1
4523 160 1
4523 1953 1
4523 3300 1
4523 4933 1
4523 6267 1
4523 7577 1
4524 32 1
4524 171 1
4524 1794 1
4524 3212 1
4524 5045 1
4524 5876 1
4524 8552 1
4524 8835 1
4525 11 1
4525 171 1
4525 690 1
4525 875 1
4526 20 1
4526 2276 1
4526 2392 1
4526 2747 1
4526 9547 1
4527 21 1
4527 539 1
4527 541 1
4527 3510 1
4527 4752 1
4527 5803 1
4528 27 1
4528 48 1
4528 519 1
4528 851 1
4529 854 1
4529 1176 1
4529 1926 1
4529 2713 1
4529 6383 1
4530 13 1
4530 244 1
4530 390 1
4530 2615 1
4530 5049 1
4530 5192 1
4530 6771 1
4531 12 1
4531 26 1
4531 894 1
4531 1767 1
4531 4827 1
4532 461 1
4532 507 1
4532 1159 1
4532 1496 1
4532 5152 1
4533 1424 1
4533 3112 1
4533 3685 1
4533 3969 1
4534 3 1
4534 53 1
4534 78 1
4534 961 1
4535 1 1
4535 1253 1
4535 1737 1
4535 4300 1
4535 6851 1
4535 7344 1
4535 8570 1
4535 8724 1
4536 85 1
4536 206 1
4536 3518 1
4536 4165 1
4537 12 1
4537 415 1
4537 1297 1
4537 3525 1
4537 6434 1
4537 6550 1
4537 8356 1
4537 8757 1
4537 9011 1
4538 1 1
4538 265 1
4538 631 1
4538 1471 1
4538 7662 1
4539 14 1
4539 36 1
4539 440 1
4539 1251 1
4539 7569 1
4539 7993 1
4540 309 1
4540 357 1
4540 678 1
4540 4184 1
4540 4973 1
4540 5036 1
4540 6139 1
4540 6573 1
4540 9774 1
4541 6 1
4541 206 1
4541 933 1
4541 3986 1
4541 4601 1
4541 5052 1
4542 470 1
4542 1239 1
4542 1366 1
4542 2367 1
4542 5389 1
4542 6086 1
4543 73 1
4543 199 1
4543 1741 1
4543 2669 1
4543 7679 1
4543 8148 1
4543 9198 1
4544 222 1
4544 381 1
4544 823 1
4544 2300 1
4544 5035 1
4545 38 1
4545 96 1
4545 1480 1
4545 2057 1
4545 8149 1
4546 41 1
4546 157 1
4546 236 1
4546 2029 1
4547 592 1
4547 1229 1
4547 1468 1
4547 2957 1
4547 8123 1
4548 287 1
4548 376 1
4548 549 1
4548 3538 1
4548 7956 1
4549 13 1
4549 17 1
4549 2643 1
4549 3644 1
4549 7141 1
4549 8515 1
4550 21 1
4550 101 1
4550 361 1
4550 2866 1
4550 4869 1
4550 9806 1
4551 150 1
4551 239 1
4551 793 1
4551 2579 1
4551 9430 1
4552 636 1
4552 1080 1
4552 1449 1
4552 3534 1
4552 5012 1
4552 6747 1
4552 9327 1
4553 3 1
4553 812 1
4553 901 1
4553 1360 1
4553 5146 1
4553 5438 1
4554 16 1
4554 647 1
4554 1255 1
4554 3210 1
4554 7126 1
4554 8818 1
4554 9293 1
4555 31 1
4555 1394 1
4555 1493 1
4555 3112 1
4555 7164 1
4556 194 1
4556 293 1
4556 823 1
4556 1697 1
4556 9702 1
4557 8 1
4557 91 1
4557 2197 1
4557 4435 1
4557 5460 1
4557 7587 1
4558 77 1
4558 103 1
4558 188 1
4558 3712 1
4558 8337 1
4558 9102 1
4559 17 1
4559 107 1
4559 2281 1
4559 4143 1
4559 5399 1
4559 9079 1
4560 1073 1
4560 1615 1
4560 3794 1
4560 3805 1
4560 9010 1
4561 625 1
4561 631 1
4561 1284 1
4561 1822 1
4561 8497 1
4561 9021 1
4562 274 1
4562 846 1
4562 867 1
4562 998 1
4563 89 1
4563 207 1
4563 555 1
4563 3290 1
4564 1104 1
4564 1614 1
4564 1719 1
4564 1897 1
4564 9770 1
4565 599 1
4565 668 1
4565 1079 1
4565 4322 1
4565 6837 1
4565 7904 1
4566 2 1
4566 6 1
4566 2919 1
4566 4253 1
4566 4770 1
4566 5056 1
4566 9791 1
4567 192 1
4567 649 1
4567 2564 1
4567 4521 1
4567 5540 1
4568 796 1
4568 1526 1
4568 2905 1
4568 3198 1
4568 5560 1
4568 6194 1
4568 6254 1
4568 9402 1
4569 63 1
4569 879 1
4569 1134 1
4569 1212 1
4569 6135 1
4570 21 1
4570 253 1
4570 2944 1
4570 3157 1
4570 4743 1
4570 8437 1
4571 744 1
4571 1108 1
4571 1176 1
4571 4016 1
4572 1680 1
4572 2292 1
4572 2619 1
4572 3563 1
4572 4636 1
4572 6340 1
4573 331 1
4573 1255 1
4573 1442 1
4573 4055 1
4573 5923 1
4573 5964 1
4573 7732 1
4573 8124 1
4573 8656 1
4574 482 1
4574 664 1
4574 736 1
4574 4144 1
4575 320 1
4575 1749 1
4575 2179 1
4575 2515 1
4575 5572 1
4575 7110 1
4575 8032 1
4576 15 1
4576 97 1
4576 545 1
4576 957 1
4576 5749 1
4576 9467 1
4577 132 1
4577 539 1
4577 1865 1
4577 4073 1
4577 5209 1
4577 5697 1
4577 7999 1
4578 29 1
4578 165 1
4578 1175 1
4578 2889 1
4578 7446 1
4578 8653 1
4578 9481 1
4578 9502 1
4579 52 1
4579 93 1
4579 1246 1
4579 1693 1
4580 218 1
4580 914 1
4580 1121 1
4580 1251 1
4580 7989 1
4580 8275 1
4581 110 1
4581 378 1
4581 1305 1
4581 2177 1
4581 4741 1
4581 4804 1
4581 9469 1
4582 76 1
4582 2529 1
4582 3886 1
4582 4484 1
4582 8234 1
4583 2411 1
4583 2709 1
4583 2727 1
4583 4139 1
4584 83 1
4584 118 1
4584 1596 1
4584 2792 1
4584 5024 1
4584 9228 1
4585 9 1
4585 415 1
4585 2024 1
4585 2659 1
4585 6674 1
4585 8495 1
4585 9488 1
4586 1 1
4586 1016 1
4586 2076 1
4586 3157 1
4586 6007 1
4587 41 1
4587 2210 1
4587 2622 1
4587 3551 1
4587 7486 1
4588 3 1
4588 1269 1
4588 3589 1
4588 4318 1
4588 4921 1
4588 7232 1
4588 8544 1
4588 8663 1
4589 60 1
4589 362 1
4589 543 1
4589 724 1
4589 8718 1
4590 6 1
4590 14 1
4590 1761 1
4590 2721 1
4590 6057 1
4591 34 1
4591 2111 1
4591 3147 1
4591 3604 1
4591 5510 1
4591 5749 1
4592 17 1
4592 102 1
4592 716 1
4592 3649 1
4592 9448 1
4593 357 1
4593 663 1
4593 700 1
4593 2048 1
4593 5766 1
4593 6521 1
4594 127 1
4594 358 1
4594 1922 1
4594 2401 1
4595 240 1
4595 374 1
4595 1489 1
4595 4296 1
4595 5624 1
4595 7226 1
4595 8365 1
4596 88 1
4596 691 1
4596 2112 1
4596 3765 1
4597 301 1
4597 615 1
4597 1091 1
4597 2906 1
4597 7260 1
4598 153 1
4598 539 1
4598 1381 1
4598 2587 1
4598 7883 1
4599 118 1
4599 380 1
4599 4038 1
4599 4242 1
4599 4642 1
4599 4834 1
4599 5258 1
4599 7332 1
4599 7788 1
4599 9161 1
4600 1120 1
4600 1304 1
4600 2585 1
4600 2828 1
4601 2242 1
4601 3504 1
4601 4352 1
4601 4541 1
4601 6283 1
4601 8744 1
4602 8 1
4602 192 1
4602 423 1
4602 2829 1
4602 6261 1
4602 7917 1
4602 8046 1
4603 23 1
4603 2501 1
4603 3085 1
4603 3575 1
4604 8 1
4604 3147 1
4604 3320 1
4604 3599 1
4604 6200 1
4605 278 1
4605 317 1
4605 368 1
4605 1597 1
4605 4702 1
4606 30 1
4606 1392 1
4606 2392 1
4606 2564 1
4606 7191 1
4607 274 1
4607 1605 1
4607 1896 1
4607 4471 1
4608 32 1
4608 246 1
4608 1135 1
4608 2544 1
4609 6 1
4609 441 1
4609 1421 1
4609 2607 1
4609 4691 1
4609 5606 1
4609 8919 1
4609 9006 1
4609 9215 1
4609 9416 1
4609 9552 1
4610 471 1
4610 1945 1
4610 2677 1
4610 3848 1
4610 6874 1
4610 9633 1
4611 245 1
4611 455 1
4611 2223 1
4611 4361 1
4611 5554 1
4612 31 1
4612 186 1
4612 893 1
4612 1487 1
4612 5431 1
4612 7474 1
4612 9207 1
4612 9450 1
4612 9629 1
4613 1478 1
4613 1544 1
4613 3237 1
4613 4181 1
4613 4787 1
4613 5891 1
4613 7140 1
4613 7277 1
4613 7999 1
4613 9671 1
4614 11 1
4614 43 1
4614 57 1
4614 3708 1
4614 8376 1
4614 8545 1
4614 9535 1
4615 8 1
4615 518 1
4615 2025 1
4615 3901 1
4615 5767 1
4615 6339 1
4615 6415 1
4615 6473 1
4615 7961 1
4616 1751 1
4616 2200 1
4616 4016 1
4616 4165 1
4616 9183 1
4617 136 1
4617 313 1
4617 1575 1
4617 3425 1
4617 4751 1
4618 866 1
4618 1699 1
4618 2333 1
4618 2468 1
4618 5178 1
4618 5922 1
4619 28 1
4619 2172 1
4619 3137 1
4619 3728 1
4619 4903 1
4619 6073 1
4619 7465 1
4619 7594 1
4619 7668 1
4619 9033 1
4620 30 1
4620 386 1
4620 1178 1
4620 4361 1
4620 4879 1
4620 7928 1
4620 9404 1
4621 1128 1
4621 3920 1
4621 4170 1
4621 4328 1
4621 4882 1
4621 5496 1
4621 5696 1
4622 185 1
4622 794 1
4622 1073 1
4622 1270 1
4622 6582 1
4623 10 1
4623 226 1
4623 381 1
4623 1618 1
4623 9768 1
4624 39 1
4624 132 1
4624 1900 1
4624 4218 1
4624 5707 1
4624 5911 1
4624 9795 1
4625 835 1
4625 1564 1
4625 1586 1
4625 2370 1
4625 5511 1
4625 8167 1
4626 264 1
4626 504 1
4626 2377 1
4626 3852 1
4626 7445 1
4627 31 1
4627 43 1
4627 916 1
4627 3512 1
4628 100 1
4628 669 1
4628 761 1
4628 1342 1
4628 5218 1
4628 6803 1
4628 6954 1
4629 961 1
4629 1342 1
4629 1631 1
4629 1911 1
4629 5768 1
4629 6315 1
4629 7363 1
4629 7534 1
4629 8119 1
4630 132 1
4630 325 1
4630 2484 1
4630 2486 1
4630 5270 1
4630 5865 1
4630 7466 1
4630 7890 1
4631 218 1
4631 3140 1
4631 3388 1
4631 4380 1
4631 7566 1
4632 96 1
4632 109 1
4632 2415 1
4632 4473 1
4633 7 1
4633 112 1
4633 123 1
4633 1025 1
4634 6 1
4634 272 1
4634 528 1
4634 3324 1
4634 4870 1
4634 5539 1
4634 6430 1
4634 6778 1
4634 7283 1
4634 8141 1
4634 8878 1
4635 30 1
4635 162 1
4635 580 1
4635 2722 1
4636 67 1
4636 184 1
4636 3423 1
4636 4572 1
4636 5236 1
4636 5310 1
4636 7394 1
4637 442 1
4637 1475 1
4637 4392 1
4637 4492 1
4637 5185 1
4637 9660 1
4638 483 1
4638 487 1
4638 2948 1
4638 3323 1
4639 167 1
4639 721 1
4639 2183 1
4639 3551 1
4639 5233 1
4639 6846 1
4639 8583 1
4639 9548 1
4640 1 1
4640 20 1
4640 96 1
4640 2679 1
4640 5055 1
4640 5150 1
4640 6616 1
4640 8216 1
4641 6 1
4641 1004 1
4641 1109 1
4641 1768 1
4641 5158 1
4642 262 1
4642 513 1
4642 1498 1
4642 4599 1
4642 5206 1
4642 5357 1
4642 6585 1
4642 7203 1
4642 7799 1
4643 440 1
4643 586 1
4643 2263 1
4643 4502 1
4643 5962 1
4643 8471 1
4643 8557 1
4644 2025 1
4644 2579 1
4644 3653 1
4644 3662 1
4644 4763 1
4644 7443 1
4645 76 1
4645 340 1
4645 1159 1
4645 3469 1
4646 104 1
4646 182 1
4646 2245 1
4646 2591 1
4646 4774 1
4646 5442 1
4646 5989 1
4646 6671 1
4647 56 1
4647 842 1
4647 1134 1
4647 1584 1
4647 6200 1
4648 76 1
4648 179 1
4648 818 1
4648 3162 1
4648 5610 1
4648 7600 1
4648 8542 1
4648 9392 1
4648 9799 1
4649 3 1
4649 14 1
4649 832 1
4649 4192 1
4649 5168 1
4649 7263 1
4649 9652 1
4650 421 1
4650 1168 1
4650 2980 1
4650 3723 1
4650 5374 1
4650 6733 1
4651 6 1
4651 110 1
4651 1001 1
4651 2810 1
4651 5714 1
4651 8706 1
4651 8744 1
4652 45 1
4652 1042 1
4652 3407 1
4652 3753 1
4652 4859 1
4652 5622 1
4652 8013 1
4653 274 1
4653 918 1
4653 1357 1
4653 1467 1
4653 6454 1
4654 78 1
4654 81 1
4654 178 1
4654 2066 1
4654 5292 1
4654 6455 1
4655 91 1
4655 575 1
4655 1276 1
4655 1422 1
4656 262 1
4656 273 1
4656 1086 1
4656 1105 1
4656 6261 1
4657 64 1
4657 737 1
4657 2866 1
4657 4505 1
4657 5645 1
4657 6346 1
4657 6709 1
4657 8792 1
4658 179 1
4658 318 1
4658 483 1
4658 2605 1
4658 5402 1
4658 8006 1
4658 9653 1
4659 200 1
4659 1354 1
4659 1535 1
4659 2029 1
4659 4982 1
4659 6694 1
4659 7613 1
4660 390 1
4660 946 1
4660 1190 1
4660 2894 1
4660 6338 1
4660 8318 1
4661 13 1
4661 380 1
4661 2375 1
4661 2725 1
4661 5241 1
4661 5528 1
4662 336 1
4662 515 1
4662 1284 1
4662 3328 1
4662 5614 1
4662 8569 1
4662 8688 1
4663 33 1
4663 1444 1
4663 1596 1
4663 2163 1
4663 4975 1
4663 4993 1
4663 5206 1
4663 5595 1
4663 5887 1
4663 9292 1
4664 159 1
4664 577 1
4664 2514 1
4664 4427 1
4664 4808 1
4664 7193 1
4665 602 1
4665 714 1
4665 1931 1
4665 3345 1
4665 4747 1
4666 64 1
4666 209 1
4666 244 1
4666 663 1
4666 7923 1
4667 30 1
4667 39 1
4667 947 1
4667 1073 1
4667 9787 1
4668 115 1
4668 181 1
4668 374 1
4668 3066 1
4669 200 1
4669 683 1
4669 702 1
4669 739 1
4669 5815 1
4670 151 1
4670 973 1
4670 1422 1
4670 2196 1
4671 24 1
4671 523 1
4671 1557 1
4671 2057 1
4671 6508 1
4672 13 1
4672 989 1
4672 2475 1
4672 3321 1
4673 40 1
4673 926 1
4673 1922 1
4673 2120 1
4673 4894 1
4673 7429 1
4673 8479 1
4674 438 1
4674 1757 1
4674 1924 1
4674 2706 1
4674 7930 1
4675 1727 1
4675 1830 1
4675 1952 1
4675 4303 1
4675 7513 1
4676 41 1
4676 160 1
4676 714 1
4676 4502 1
4676 5785 1
4676 6937 1
4677 1147 1
4677 1257 1
4677 1547 1
4677 2090 1
4677 5904 1
4678 322 1
4678 1324 1
4678 3017 1
4678 4012 1
4678 6170 1
4679 597 1
4679 828 1
4679 1047 1
4679 1951 1
4679 6714 1
4680 7 1
4680 1944 1
4680 1965 1
4680 4461 1
4680 6210 1
4680 9049 1
4681 58 1
4681 619 1
4681 3807 1
4681 4206 1
4682 79 1
4682 1384 1
4682 2372 1
4682 2826 1
4683 97 1
4683 2033 1
4683 2469 1
4683 3346 1
4683 5305 1
4683 7421 1
4683 8472 1
4684 10 1
4684 581 1
4684 1843 1
4684 3433 1
4684 6570 1
4684 8281 1
4685 1066 1
4685 1398 1
4685 2613 1
4685 3070 1
4685 5459 1
4685 6351 1
4685 6715 1
4685 8809 1
4685 9249 1
4686 13 1
4686 81 1
4686 773 1
4686 3572 1
4686 5856 1
4686 6681 1
4686 7832 1
4687 715 1
4687 2579 1
4687 2590 1
4687 2755 1
4688 406 1
4688 707 1
4688 2447 1
4688 3126 1
4689 134 1
4689 136 1
4689 845 1
4689 2271 1
4689 9553 1
4690 134 1
4690 1263 1
4690 2216 1
4690 2879 1
4690 5400 1
4690 9654 1
4691 37 1
4691 57 1
4691 2367 1
4691 4609 1
4691 5610 1
4691 6444 1
4691 8944 1
4692 295 1
4692 1550 1
4692 1898 1
4692 2520 1
4692 6532 1
4692 6840 1
4692 7392 1
4692 8045 1
4692 9893 1
4693 48 1
4693 2881 1
4693 3723 1
4693 4165 1
4694 149 1
4694 791 1
4694 3446 1
4694 3693 1
4694 7076 1
4695 277 1
4695 845 1
4695 1350 1
4695 4326 1
4695 5219 1
4696 1678 1
4696 2675 1
4696 3783 1
4696 3787 1
4696 6738 1
4697 26 1
4697 726 1
4697 2994 1
4697 4473 1
4697 7883 1
4697 8286 1
4697 8727 1
4698 77 1
4698 807 1
4698 1565 1
4698 1707 1
4698 5159 1
4698 6086 1
4698 7088 1
4698 9407 1
4699 338 1
4699 482 1
4699 3997 1
4699 4099 1
4699 6402 1
4699 7233 1
4699 7284 1
4699 9938 1
4700 1 1
4700 23 1
4700 382 1
4700 3939 1
4700 5198 1
4701 275 1
4701 952 1
4701 1069 1
4701 2830 1
4701 5282 1
4701 5303 1
4701 6867 1
4701 9620 1
4702 1047 1
4702 1264 1
4702 2355 1
4702 4605 1
4702 8170 1
4703 1 1
4703 448 1
4703 694 1
4703 1010 1
4703 5030 1
4703 5798 1
4704 459 1
4704 651 1
4704 1976 1
4704 3049 1
4704 5223 1
4704 7012 1
4704 7514 1
4704 8949 1
4704 9606 1
4705 209 1
4705 1126 1
4705 1141 1
4705 4304 1
4706 843 1
4706 1212 1
4706 1365 1
4706 3949 1
4706 6893 1
4706 7433 1
4706 8021 1
4707 123 1
4707 1147 1
4707 1247 1
4707 2156 1
4707 4870 1
4707 6271 1
4707 9971 1
4708 121 1
4708 1565 1
4708 1567 1
4708 3112 1
4708 7865 1
4709 19 1
4709 1180 1
4709 1326 1
4709 3400 1
4709 5509 1
4709 6945 1
4709 9945 1
4710 115 1
4710 621 1
4710 1897 1
4710 3060 1
4711 88 1
4711 744 1
4711 3314 1
4711 3874 1
4711 4887 1
4711 5121 1
4711 5574 1
4711 8521 1
4711 9278 1
4711 9952 1
4712 289 1
4712 2003 1
4712 2706 1
4712 4299 1
4712 5087 1
4712 5420 1
4712 6000 1
4712 6159 1
4712 6296 1
4712 9369 1
4713 403 1
4713 833 1
4713 3580 1
4713 3975 1
4713 6194 1
4714 101 1
4714 491 1
4714 3891 1
4714 4230 1
4714 5220 1
4714 8549 1
4715 138 1
4715 999 1
4715 3254 1
4715 4178 1
4715 5843 1
4715 5846 1
4715 6432 1
4716 69 1
4716 422 1
4716 1277 1
4716 2936 1
4716 6775 1
4717 13 1
4717 1580 1
4717 2172 1
4717 2929 1
4718 597 1
4718 959 1
4718 3100 1
4718 4130 1
4718 7704 1
4718 9024 1
4719 98 1
4719 1195 1
4719 1810 1
4719 1968 1
4719 5231 1
4719 7396 1
4719 8904 1
4719 9587 1
4720 1012 1
4720 1905 1
4720 2958 1
4720 3163 1
4721 8 1
4721 166 1
4721 690 1
4721 2029 1
4721 6128 1
4721 9576 1
4722 135 1
4722 487 1
4722 4249 1
4722 4415 1
4722 5720 1
4722 6921 1
4723 390 1
4723 1228 1
4723 1569 1
4723 3326 1
4723 6074 1
4723 7561 1
4723 8227 1
4723 9223 1
4723 9734 1
4724 97 1
4724 115 1
4724 2037 1
4724 3939 1
4724 7148 1
4724 7520 1
4724 9132 1
4725 580 1
4725 1541 1
4725 1825 1
4725 2845 1
4725 7765 1
4726 875 1
4726 885 1
4726 2817 1
4726 2933 1
4726 9921 1
4727 557 1
4727 723 1
4727 741 1
4727 3271 1
4727 7324 1
4727 7541 1
4727 7818 1
4727 9767 1
4728 167 1
4728 562 1
4728 722 1
4728 904 1
4728 5475 1
4728 7532 1
4728 8867 1
4728 8977 1
4729 493 1
4729 622 1
4729 1407 1
4729 3818 1
4729 6115 1
4729 7699 1
4730 65 1
4730 723 1
4730 1035 1
4730 1620 1
4730 5045 1
4730 6195 1
4730 6393 1
4731 335 1
4731 1274 1
4731 1768 1
4731 2486 1
4731 9317 1
4732 73 1
4732 2959 1
4732 3394 1
4732 4115 1
4733 606 1
4733 724 1
4733 1427 1
4733 3533 1
4733 4895 1
4733 5846 1
4733 7399 1
4734 21 1
4734 280 1
4734 399 1
4734 657 1
4734 5000 1
4734 5612 1
4734 7092 1
4735 205 1
4735 232 1
4735 2355 1
4735 3863 1
4735 8513 1
4736 34 1
4736 50 1
4736 256 1
4736 879 1
4736 5654 1
4736 5918 1
4737 2623 1
4737 2674 1
4737 3221 1
4737 4215 1
4737 6600 1
4737 8288 1
4737 8406 1
4738 45 1
4738 889 1
4738 991 1
4738 2566 1
4738 6822 1
4738 7321 1
4738 7810 1
4739 2185 1
4739 3238 1
4739 4016 1
4739 4239 1
4739 5684 1
4740 83 1
4740 268 1
4740 1363 1
4740 3951 1
4740 5316 1
4740 5706 1
4740 8078 1
4741 2 1
4741 636 1
4741 2399 1
4741 4581 1
4741 5521 1
4742 854 1
4742 2242 1
4742 3558 1
4742 4222 1
4742 5106 1
4742 5301 1
4742 8363 1
4743 12 1
4743 61 1
4743 3725 1
4743 4570 1
4744 137 1
4744 327 1
4744 487 1
4744 807 1
4744 5896 1
4744 6645 1
4744 7228 1
4744 9800 1
4745 374 1
4745 1445 1
4745 2586 1
4745 3864 1
4745 7376 1
4746 14 1
4746 39 1
4746 2287 1
4746 3196 1
4746 5571 1
4747 59 1
4747 1264 1
4747 3865 1
4747 4665 1
4747 5749 1
4747 9555 1
4748 467 1
4748 569 1
4748 1012 1
4748 1539 1
4748 6095 1
4748 6142 1
4748 6727 1
4749 403 1
4749 1091 1
4749 1878 1
4749 3158 1
4749 5170 1
4749 5907 1
4750 259 1
4750 1252 1
4750 1639 1
4750 3416 1
4750 6558 1
4750 7068 1
4750 7094 1
4751 429 1
4751 1099 1
4751 3266 1
4751 4617 1
4752 13 1
4752 1340 1
4752 3035 1
4752 4527 1
4752 5507 1
4753 320 1
4753 1498 1
4753 2456 1
4753 4470 1
4753 5180 1
4754 158 1
4754 1498 1
4754 3325 1
4754 4479 1
4754 6626 1
4755 329 1
4755 519 1
4755 610 1
4755 2161 1
4755 5545 1
4756 523 1
4756 986 1
4756 2160 1
4756 2768 1
4756 4813 1
4756 6833 1
4757 13 1
4757 1221 1
4757 3475 1
4757 4186 1
4757 5636 1
4757 7833 1
4757 9393 1
4758 159 1
4758 1326 1
4758 1580 1
4758 3510 1
4758 6741 1
4758 8866 1
4759 66 1
4759 981 1
4759 1347 1
4759 2380 1
4760 140 1
4760 3661 1
4760 4201 1
4760 4412 1
4760 6607 1
4760 7767 1
4760 8766 1
4761 39 1
4761 299 1
4761 1959 1
4761 2679 1
4761 6736 1
4762 26 1
4762 495 1
4762 907 1
4762 2169 1
4763 2247 1
4763 2829 1
4763 3188 1
4763 4644 1
4763 5318 1
4763 5852 1
4763 6951 1
4763 7459 1
4763 7461 1
4763 8107 1
4763 8547 1
4764 212 1
4764 684 1
4764 2485 1
4764 2494 1
4764 5237 1
4764 8896 1
4765 365 1
4765 758 1
4765 1621 1
4765 3183 1
4765 7765 1
4765 8056 1
4766 7 1
4766 241 1
4766 1485 1
4766 2163 1
4766 5238 1
4766 5737 1
4766 5980 1
4766 6101 1
4767 26 1
4767 671 1
4767 1848 1
4767 3803 1
4768 10 1
4768 268 1
4768 722 1
4768 1617 1
4769 173 1
4769 310 1
4769 1210 1
4769 1811 1
4769 7403 1
4769 7671 1
4769 8579 1
4770 3 1
4770 1626 1
4770 2879 1
4770 4566 1
4770 6150 1
4770 6198 1
4770 7808 1
4770 9220 1
4771 1167 1
4771 1408 1
4771 1469 1
4771 1674 1
4771 7374 1
4772 312 1
4772 3669 1
4772 3848 1
4772 4199 1
4772 5609 1
4772 8883 1
4772 9573 1
4773 147 1
4773 2390 1
4773 3845 1
4773 3974 1
4773 7809 1
4773 8202 1
4774 193 1
4774 607 1
4774 1863 1
4774 4646 1
4774 5231 1
4775 80 1
4775 282 1
4775 946 1
4775 1681 1
4775 5189 1
4775 7451 1
4775 8224 1
4776 227 1
4776 235 1
4776 301 1
4776 792 1
4777 8 1
4777 24 1
4777 1137 1
4777 2169 1
4777 7278 1
4778 11 1
4778 75 1
4778 816 1
4778 3972 1
4779 484 1
4779 681 1
4779 2412 1
4779 2520 1
4779 5907 1
4779 6556 1
4779 7233 1
4779 8217 1
4780 22 1
4780 49 1
4780 119 1
4780 2068 1
4780 6215 1
4781 522 1
4781 2683 1
4781 2947 1
4781 4364 1
4782 120 1
4782 148 1
4782 2530 1
4782 3019 1
4783 474 1
4783 1770 1
4783 3553 1
4783 4325 1
4784 244 1
4784 521 1
4784 1786 1
4784 2588 1
4785 13 1
4785 584 1
4785 2267 1
4785 4307 1
4785 7952 1
4785 9589 1
4786 113 1
4786 398 1
4786 1025 1
4786 1820 1
4786 5662 1
4786 9169 1
4787 6 1
4787 286 1
4787 2354 1
4787 4613 1
4787 6524 1
4787 9396 1
4788 36 1
4788 235 1
4788 281 1
4788 1204 1
4789 17 1
4789 690 1
4789 910 1
4789 1484 1
4790 715 1
4790 1376 1
4790 2608 1
4790 3105 1
4790 9869 1
4791 56 1
4791 91 1
4791 1425 1
4791 1569 1
4792 491 1
4792 1771 1
4792 2259 1
4792 2527 1
4792 6716 1
4792 7561 1
4793 3 1
4793 23 1
4793 910 1
4793 1126 1
4793 7553 1
4793 9470 1
4794 30 1
4794 213 1
4794 254 1
4794 3054 1
4794 5971 1
4795 8 1
4795 279 1
4795 2670 1
4795 2791 1
4795 7388 1
4796 318 1
4796 1369 1
4796 2065 1
4796 2768 1
4796 5515 1
4796 5923 1
4796 6998 1
4796 7131 1
4796 7483 1
4796 7944 1
4796 8481 1
4796 9066 1
4796 9613 1
4797 11 1
4797 824 1
4797 2184 1
4797 2635 1
4797 5298 1
4797 5936 1
4798 30 1
4798 86 1
4798 457 1
4798 2488 1
4798 5097 1
4798 7311 1
4799 51 1
4799 627 1
4799 748 1
4799 2003 1
4800 132 1
4800 954 1
4800 2257 1
4800 2426 1
4801 11 1
4801 78 1
4801 1912 1
4801 2555 1
4801 7329 1
4802 55 1
4802 1568 1
4802 2007 1
4802 2642 1
4802 5845 1
4803 1322 1
4803 3150 1
4803 3748 1
4803 4309 1
4803 7034 1
4804 9 1
4804 645 1
4804 1324 1
4804 4581 1
4805 417 1
4805 909 1
4805 930 1
4805 1277 1
4805 6581 1
4805 7338 1
4805 8711 1
4806 246 1
4806 279 1
4806 351 1
4806 4076 1
4806 5921 1
4806 7878 1
4806 8070 1
4806 8831 1
4806 9138 1
4807 386 1
4807 961 1
4807 2127 1
4807 3622 1
4808 415 1
4808 705 1
4808 2682 1
4808 4664 1
4808 5813 1
4808 5959 1
4808 9103 1
4809 485 1
4809 1073 1
4809 1301 1
4809 1442 1
4809 8030 1
4809 8667 1
4810 142 1
4810 2455 1
4810 2492 1
4810 2627 1
4810 6421 1
4810 9275 1
4811 2527 1
4811 3145 1
4811 3566 1
4811 4462 1
4811 6717 1
4811 9024 1
4812 6 1
4812 58 1
4812 329 1
4812 3035 1
4812 4835 1
4812 6655 1
4813 1969 1
4813 2856 1
4813 4399 1
4813 4756 1
4813 5704 1
4813 5882 1
4814 63 1
4814 1328 1
4814 2802 1
4814 3159 1
4814 9431 1
4815 127 1
4815 289 1
4815 535 1
4815 2847 1
4815 4932 1
4815 7499 1
4815 7708 1
4815 7917 1
4815 7981 1
4816 393 1
4816 518 1
4816 2210 1
4816 3556 1
4816 5731 1
4816 7245 1
4816 8967 1
4817 907 1
4817 1941 1
4817 2349 1
4817 3175 1
4817 6495 1
4817 9330 1
4818 56 1
4818 268 1
4818 1189 1
4818 1921 1
4818 8676 1
4818 8773 1
4818 9290 1
4819 8 1
4819 11 1
4819 624 1
4819 4423 1
4820 286 1
4820 3504 1
4820 3601 1
4820 4296 1
4821 1358 1
4821 2274 1
4821 2497 1
4821 4210 1
4821 5791 1
4821 9936 1
4822 26 1
4822 1521 1
4822 4156 1
4822 4207 1
4822 6848 1
4822 7635 1
4823 19 1
4823 33 1
4823 1286 1
4823 4282 1
4823 8555 1
4824 205 1
4824 994 1
4824 1977 1
4824 3128 1
4824 8985 1
4825 83 1
4825 249 1
4825 1819 1
4825 2231 1
4825 5040 1
4826 1551 1
4826 2713 1
4826 2875 1
4826 3117 1
4827 89 1
4827 1406 1
4827 2138 1
4827 4531 1
4827 7563 1
4828 157 1
4828 724 1
4828 1248 1
4828 2063 1
4828 7386 1
4828 8384 1
4828 9096 1
4828 9626 1
4829 84 1
4829 303 1
4829 652 1
4829 1896 1
4830 308 1
4830 1944 1
4830 2443 1
4830 3480 1
4830 9595 1
4831 27 1
4831 191 1
4831 320 1
4831 1297 1
4832 229 1
4832 771 1
4832 1714 1
4832 4215 1
4832 4979 1
4832 7160 1
4832 9705 1
4833 278 1
4833 1833 1
4833 2570 1
4833 3832 1
4833 6731 1
4834 422 1
4834 1797 1
4834 2870 1
4834 4599 1
4834 5102 1
4835 137 1
4835 782 1
4835 907 1
4835 4812 1
4835 4873 1
4835 6589 1
4835 7691 1
4835 8128 1
4836 1178 1
4836 1624 1
4836 2062 1
4836 2468 1
4837 19 1
4837 118 1
4837 465 1
4837 2556 1
4837 7519 1
4837 9368 1
4837 9481 1
4838 16 1
4838 193 1
4838 1224 1
4838 3753 1
4838 6557 1
4838 7439 1
4839 197 1
4839 609 1
4839 1078 1
4839 1374 1
4839 6156 1
4839 8583 1
4839 8915 1
4840 5 1
4840 72 1
4840 338 1
4840 1143 1
4841 16 1
4841 160 1
4841 461 1
4841 1567 1
4842 6 1
4842 1458 1
4842 3661 1
4842 4106 1
4842 7802 1
4842 8075 1
4843 1548 1
4843 2413 1
4843 2431 1
4843 3710 1
4844 7 1
4844 165 1
4844 883 1
4844 3395 1
4844 5186 1
4844 6027 1
4844 6345 1
4844 9538 1
4845 10 1
4845 145 1
4845 2122 1
4845 3689 1
4845 6376 1
4846 229 1
4846 515 1
4846 2019 1
4846 3228 1
4846 9135 1
4847 523 1
4847 1977 1
4847 2466 1
4847 2815 1
4847 8670 1
4848 2152 1
4848 2386 1
4848 2835 1
4848 3738 1
4848 4940 1
4848 5503 1
4848 7733 1
4849 10 1
4849 11 1
4849 100 1
4849 748 1
4849 5273 1
4849 5416 1
4849 5980 1
4849 6325 1
4849 8065 1
4849 9819 1
4850 7 1
4850 574 1
4850 636 1
4850 3424 1
4850 7141 1
4851 55 1
4851 101 1
4851 932 1
4851 3946 1
4851 6359 1
4852 24 1
4852 321 1
4852 811 1
4852 4391 1
4852 9134 1
4852 9235 1
4852 9280 1
4852 9859 1
4853 1064 1
4853 1603 1
4853 2415 1
4853 2591 1
4854 7 1
4854 586 1
4854 1674 1
4854 2669 1
4854 5276 1
4854 9060 1
4855 323 1
4855 390 1
4855 634 1
4855 765 1
4855 9252 1
4856 164 1
4856 2822 1
4856 3525 1
4856 4263 1
4857 65 1
4857 488 1
4857 1264 1
4857 2081 1
4857 5394 1
4857 5886 1
4857 6546 1
4857 7725 1
4857 7895 1
4858 500 1
4858 2768 1
4858 2960 1
4858 3656 1
4858 5323 1
4858 5672 1
4858 5746 1
4858 6291 1
4858 9896 1
4859 501 1
4859 1565 1
4859 3320 1
4859 4652 1
4859 5601 1
4859 6790 1
4859 6842 1
4859 7023 1
4859 7266 1
4859 7606 1
4860 581 1
4860 1664 1
4860 1711 1
4860 2095 1
4861 204 1
4861 1335 1
4861 1833 1
4861 3374 1
4862 195 1
4862 1059 1
4862 1867 1
4862 4096 1
4862 5709 1
4863 16 1
4863 76 1
4863 403 1
4863 864 1
4863 7076 1
4863 7566 1
4864 19 1
4864 24 1
4864 175 1
4864 304 1
4865 35 1
4865 44 1
4865 1827 1
4865 3083 1
4865 6378 1
4865 7024 1
4866 21 1
4866 28 1
4866 281 1
4866 3780 1
4866 7408 1
4867 49 1
4867 3088 1
4867 3425 1
4867 4076 1
4867 5605 1
4867 9224 1
4867 9874 1
4868 11 1
4868 1151 1
4868 3420 1
4868 3715 1
4868 5356 1
4869 42 1
4869 341 1
4869 2006 1
4869 4550 1
4869 5093 1
4869 5155 1
4869 5482 1
4869 6216 1
4870 530 1
4870 2493 1
4870 4634 1
4870 4707 1
4870 5975 1
4870 6081 1
4870 7432 1
4871 4 1
4871 186 1
4871 205 1
4871 615 1
4871 4927 1
4871 8411 1
4872 877 1
4872 1479 1
4872 1598 1
4872 1689 1
4872 5018 1
4872 5910 1
4873 1719 1
4873 3342 1
4873 4163 1
4873 4835 1
4873 5917 1
4873 6158 1
4873 9205 1
4874 6 1
4874 561 1
4874 1333 1
4874 4306 1
4875 909 1
4875 1295 1
4875 2234 1
4875 3459 1
4876 2718 1
4876 2760 1
4876 3490 1
4876 4311 1
4876 7029 1
4877 623 1
4877 2555 1
4877 2875 1
4877 3298 1
4877 7080 1
4878 85 1
4878 125 1
4878 180 1
4878 717 1
4879 95 1
4879 282 1
4879 2136 1
4879 4620 1
4880 60 1
4880 780 1
4880 2395 1
4880 3527 1
4880 6880 1
4880 9215 1
4881 145 1
4881 1036 1
4881 2127 1
4881 3594 1
4881 5491 1
4881 5853 1
4882 6 1
4882 1001 1
4882 2064 1
4882 4621 1
4882 6033 1
4882 6907 1
4882 7912 1
4883 15 1
4883 767 1
4883 1598 1
4883 4104 1
4883 9452 1
4884 138 1
4884 2374 1
4884 2814 1
4884 4276 1
4885 3 1
4885 312 1
4885 690 1
4885 4476 1
4885 6498 1
4885 7293 1
4886 599 1
4886 1246 1
4886 1948 1
4886 4226 1
4887 543 1
4887 1600 1
4887 1912 1
4887 4711 1
4887 5873 1
4887 6958 1
4887 9326 1
4888 35 1
4888 56 1
4888 365 1
4888 4466 1
4888 9422 1
4889 1332 1
4889 1477 1
4889 1724 1
4889 2048 1
4889 4975 1
4889 5178 1
4889 6862 1
4889 7556 1
4890 162 1
4890 910 1
4890 1062 1
4890 4441 1
4890 6986 1
4891 978 1
4891 1008 1
4891 1724 1
4891 4127 1
4891 4945 1
4891 9720 1
4892 2044 1
4892 2113 1
4892 2985 1
4892 4038 1
4893 19 1
4893 325 1
4893 2787 1
4893 3779 1
4893 5164 1
4893 6500 1
4893 8249 1
4893 8897 1
4894 896 1
4894 2769 1
4894 4163 1
4894 4673 1
4895 1411 1
4895 1890 1
4895 2558 1
4895 4733 1
4895 5395 1
4896 11 1
4896 635 1
4896 800 1
4896 2984 1
4896 6566 1
4897 279 1
4897 794 1
4897 2061 1
4897 2258 1
4898 2050 1
4898 2166 1
4898 3232 1
4898 3300 1
4898 5629 1
4898 6156 1
4898 6671 1
4898 7115 1
4898 7849 1
4898 8595 1
4898 9311 1
4899 267 1
4899 320 1
4899 668 1
4899 3203 1
4899 8105 1
4900 754 1
4900 865 1
4900 1066 1
4900 2065 1
4901 11 1
4901 20 1
4901 1312 1
4901 3458 1
4902 107 1
4902 263 1
4902 1348 1
4902 1527 1
4902 5209 1
4902 5438 1
4903 38 1
4903 142 1
4903 1943 1
4903 4619 1
4903 5260 1
4903 6145 1
4903 6722 1
4903 8049 1
4903 9102 1
4904 196 1
4904 1995 1
4904 3027 1
4904 4387 1
4905 476 1
4905 606 1
4905 1140 1
4905 4219 1
4906 9 1
4906 288 1
4906 364 1
4906 1505 1
4906 6039 1
4906 8371 1
4906 9475 1
4907 427 1
4907 606 1
4907 1197 1
4907 4218 1
4907 6411 1
4907 9074 1
4908 139 1
4908 3622 1
4908 4146 1
4908 4450 1
4908 5041 1
4908 5844 1
4908 7426 1
4909 352 1
4909 431 1
4909 797 1
4909 4254 1
4909 7639 1
4909 7922 1
4910 797 1
4910 1172 1
4910 3228 1
4910 3638 1
4911 1573 1
4911 1784 1
4911 1816 1
4911 4440 1
4911 5741 1
4911 6860 1
4912 202 1
4912 1167 1
4912 1909 1
4912 2982 1
4912 6352 1
4912 7614 1
4912 7867 1
4912 8357 1
4912 8466 1
4913 6 1
4913 33 1
4913 429 1
4913 2981 1
4914 128 1
4914 288 1
4914 1792 1
4914 4125 1
4914 6695 1
4915 28 1
4915 284 1
4915 2399 1
4915 2876 1
4915 5935 1
4915 7502 1
4915 9780 1
4916 123 1
4916 394 1
4916 452 1
4916 2347 1
4916 6496 1
4916 7074 1
4916 8073 1
4917 2 1
4917 149 1
4917 196 1
4917 3841 1
4917 6760 1
4917 7491 1
4917 8598 1
4918 48 1
4918 753 1
4918 807 1
4918 3600 1
4918 8091 1
4918 9031 1
4919 525 1
4919 794 1
4919 1671 1
4919 2628 1
4919 5777 1
4919 6783 1
4919 6827 1
4920 1599 1
4920 2990 1
4920 3332 1
4920 3806 1
4921 284 1
4921 3748 1
4921 4401 1
4921 4588 1
4922 11 1
4922 19 1
4922 578 1
4922 1922 1
4923 388 1
4923 742 1
4923 1626 1
4923 2607 1
4924 3 1
4924 1503 1
4924 2392 1
4924 2876 1
4925 307 1
4925 333 1
4925 2334 1
4925 2687 1
4925 6357 1
4925 7630 1
4925 9895 1
4926 29 1
4926 70 1
4926 156 1
4926 2141 1
4926 6396 1
4926 6705 1
4927 32 1
4927 33 1
4927 202 1
4927 4871 1
4927 4938 1
4927 9477 1
4928 482 1
4928 983 1
4928 1620 1
4928 3651 1
4928 6112 1
4928 6730 1
4929 307 1
4929 1916 1
4929 2680 1
4929 3184 1
4930 112 1
4930 170 1
4930 897 1
4930 1223 1
4930 5158 1
4930 8264 1
4931 1060 1
4931 1528 1
4931 1551 1
4931 2578 1
4931 5956 1
4932 281 1
4932 905 1
4932 2462 1
4932 4815 1
4933 1086 1
4933 2461 1
4933 3985 1
4933 4523 1
4934 41 1
4934 46 1
4934 202 1
4934 2021 1
4934 5264 1
4934 5353 1
4934 6423 1
4934 7533 1
4934 8943 1
4934 9119 1
4935 512 1
4935 2314 1
4935 3200 1
4935 3907 1
4936 10 1
4936 721 1
4936 1530 1
4936 3321 1
4937 555 1
4937 580 1
4937 926 1
4937 4303 1
4937 7143 1
4938 147 1
4938 573 1
4938 1814 1
4938 4927 1
4938 6993 1
4938 8548 1
4938 8822 1
4939 468 1
4939 2854 1
4939 3194 1
4939 3601 1
4939 6149 1
4939 6519 1
4939 9919 1
4940 390 1
4940 1512 1
4940 2963 1
4940 4848 1
4940 9543 1
4941 362 1
4941 478 1
4941 3494 1
4941 4055 1
4941 7980 1
4942 1021 1
4942 1041 1
4942 2811 1
4942 4176 1
4942 6652 1
4943 8 1
4943 19 1
4943 1590 1
4943 3044 1
4943 8253 1
4944 206 1
4944 2370 1
4944 2794 1
4944 4021 1
4945 4 1
4945 4444 1
4945 4494 1
4945 4891 1
4945 7511 1
4945 8457 1
4946 10 1
4946 368 1
4946 1929 1
4946 3540 1
4946 6031 1
4946 6153 1
4946 6259 1
4946 8650 1
4947 7 1
4947 50 1
4947 366 1
4947 2798 1
4947 6209 1
4948 292 1
4948 765 1
4948 1668 1
4948 2244 1
4948 7474 1
4949 16 1
4949 38 1
4949 329 1
4949 2576 1
4949 5040 1
4950 19 1
4950 105 1
4950 399 1
4950 3481 1
4950 5653 1
4950 7661 1
4950 8372 1
4951 10 1
4951 400 1
4951 1321 1
4951 2380 1
4952 66 1
4952 179 1
4952 452 1
4952 4236 1
4952 7984 1
4952 9022 1
4953 112 1
4953 256 1
4953 692 1
4953 749 1
4953 9860 1
4954 261 1
4954 285 1
4954 1341 1
4954 1405 1
4954 7008 1
4954 9168 1
4955 185 1
4955 547 1
4955 3213 1
4955 3475 1
4956 983 1
4956 2445 1
4956 2484 1
4956 3631 1
4956 6922 1
4956 7609 1
4956 9655 1
4957 368 1
4957 482 1
4957 658 1
4957 4059 1
4957 5278 1
4957 5382 1
4957 6574 1
4958 138 1
4958 498 1
4958 784 1
4958 1922 1
4958 7714 1
4959 2 1
4959 82 1
4959 123 1
4959 2434 1
4959 5325 1
4959 6608 1
4959 7209 1
4959 7432 1
4959 9207 1
4960 41 1
4960 766 1
4960 2603 1
4960 2623 1
4960 6140 1
4960 6966 1
4961 804 1
4961 1926 1
4961 3035 1
4961 3337 1
4962 101 1
4962 786 1
4962 1359 1
4962 3925 1
4963 1097 1
4963 1417 1
4963 1499 1
4963 4086 1
4963 8700 1
4964 5 1
4964 711 1
4964 2958 1
4964 3888 1
4964 8183 1
4964 8550 1
4965 179 1
4965 656 1
4965 1631 1
4965 3364 1
4965 5280 1
4965 9059 1
4966 988 1
4966 1008 1
4966 1662 1
4966 2886 1
4966 6335 1
4967 31 1
4967 2591 1
4967 2999 1
4967 3390 1
4967 5634 1
4967 6426 1
4967 6660 1
4968 174 1
4968 848 1
4968 1107 1
4968 3400 1
4968 7444 1
4968 7673 1
4968 9253 1
4969 26 1
4969 74 1
4969 220 1
4969 2676 1
4969 6687 1
4969 8104 1
4969 9508 1
4969 9921 1
4970 220 1
4970 434 1
4970 845 1
4970 2707 1
4971 98 1
4971 1483 1
4971 2116 1
4971 2714 1
4971 9822 1
4972 22 1
4972 515 1
4972 754 1
4972 2627 1
4972 5255 1
4972 7199 1
4972 8811 1
4972 8833 1
4973 526 1
4973 2519 1
4973 2970 1
4973 4540 1
4974 63 1
4974 484 1
4974 3022 1
4974 3087 1
4975 755 1
4975 1894 1
4975 4663 1
4975 4889 1
4975 6896 1
4975 6933 1
4976 13 1
4976 78 1
4976 270 1
4976 1408 1
4977 339 1
4977 1530 1
4977 2599 1
4977 2945 1
4977 5446 1
4977 8627 1
4978 375 1
4978 1889 1
4978 2947 1
4978 4219 1
4979 341 1
4979 1181 1
4979 3000 1
4979 4832 1
4979 5401 1
4980 13 1
4980 437 1
4980 1377 1
4980 4431 1
4980 5598 1
4980 5687 1
4981 199 1
4981 840 1
4981 1769 1
4981 2142 1
4981 6167 1
4981 7405 1
4982 190 1
4982 1688 1
4982 3769 1
4982 4659 1
4982 6054 1
4983 57 1
4983 555 1
4983 785 1
4983 1504 1
4983 6082 1
4983 7259 1
4984 6 1
4984 65 1
4984 610 1
4984 3940 1
4985 72 1
4985 702 1
4985 1134 1
4985 4201 1
4985 6190 1
4986 11 1
4986 13 1
4986 2719 1
4986 3053 1
4986 7693 1
4987 253 1
4987 308 1
4987 3169 1
4987 4361 1
4988 398 1
4988 3103 1
4988 3134 1
4988 4381 1
4988 7616 1
4988 7665 1
4988 7959 1
4989 70 1
4989 1018 1
4989 1342 1
4989 2753 1
4989 8605 1
4989 8667 1
4990 425 1
4990 1048 1
4990 3577 1
4990 4047 1
4991 24 1
4991 614 1
4991 2823 1
4991 3873 1
4991 5501 1
4991 5901 1
4991 7866 1
4991 7899 1
4992 175 1
4992 336 1
4992 403 1
4992 1286 1
4992 7950 1
4992 8077 1
4993 5 1
4993 71 1
4993 946 1
4993 4663 1
4994 200 1
4994 468 1
4994 2154 1
4994 3231 1
4994 5040 1
4994 5368 1
4994 6541 1
4994 8285 1
4995 119 1
4995 759 1
4995 1529 1
4995 2851 1
4996 56 1
4996 888 1
4996 1406 1
4996 2595 1
4997 427 1
4997 1279 1
4997 1548 1
4997 4018 1
4997 8247 1
4997 9453 1
4998 120 1
4998 1827 1
4998 2188 1
4998 2333 1
4998 5620 1
4998 6411 1
4999 260 1
4999 580 1
4999 2232 1
4999 3303 1
4999 6113 1
5000 199 1
5000 441 1
5000 812 1
5000 4734 1
5000 9662 1
5001 70 1
5001 1158 1
5001 2234 1
5001 4466 1
5001 7891 1
5002 572 1
5002 630 1
5002 754 1
5002 1214 1
5002 5417 1
5002 5534 1
5002 7414 1
5003 455 1
5003 1642 1
5003 3480 1
5003 4512 1
5004 173 1
5004 1653 1
5004 1957 1
5004 3833 1
5004 7496 1
5005 13 1
5005 789 1
5005 1015 1
5005 1516 1
5005 5931 1
5005 9216 1
5006 339 1
5006 758 1
5006 1692 1
5006 4074 1
5006 5862 1
5006 7611 1
5006 7722 1
5006 8118 1
5007 74 1
5007 420 1
5007 1740 1
5007 2526 1
5007 5230 1
5008 895 1
5008 1161 1
5008 1717 1
5008 3837 1
5008 5229 1
5008 5535 1
5008 6229 1
5008 6392 1
5008 6668 1
5008 7207 1
5008 8025 1
5009 997 1
5009 1196 1
5009 2065 1
5009 3738 1
5009 5811 1
5009 6172 1
5009 7064 1
5009 7618 1
5009 7773 1
5009 8866 1
5009 9416 1
5010 65 1
5010 134 1
5010 1201 1
5010 3677 1
5010 6445 1
5011 12 1
5011 351 1
5011 513 1
5011 847 1
5011 5232 1
5012 151 1
5012 698 1
5012 1912 1
5012 4552 1
5012 6828 1
5012 7574 1
5012 9799 1
5013 165 1
5013 240 1
5013 390 1
5013 1097 1
5013 5677 1
5013 5801 1
5013 5879 1
5014 12 1
5014 506 1
5014 907 1
5014 1872 1
5014 6536 1
5015 744 1
5015 1050 1
5015 1077 1
5015 2744 1
5015 7093 1
5016 663 1
5016 1118 1
5016 2211 1
5016 2832 1
5016 6077 1
5017 527 1
5017 610 1
5017 1619 1
5017 2349 1
5017 9438 1
5018 231 1
5018 628 1
5018 2469 1
5018 4872 1
5019 2360 1
5019 2570 1
5019 3589 1
5019 3757 1
5020 399 1
5020 1354 1
5020 1784 1
5020 2825 1
5020 5304 1
5020 5512 1
5020 7351 1
5020 9924 1
5021 323 1
5021 1839 1
5021 2879 1
5021 3875 1
5022 25 1
5022 136 1
5022 518 1
5022 3927 1
5022 7510 1
5023 263 1
5023 510 1
5023 539 1
5023 1931 1
5023 7297 1
5024 321 1
5024 1682 1
5024 2989 1
5024 4584 1
5024 9231 1
5025 896 1
5025 2848 1
5025 3510 1
5025 4154 1
5026 21 1
5026 670 1
5026 796 1
5026 2774 1
5027 278 1
5027 1055 1
5027 2349 1
5027 2889 1
5027 5836 1
5027 7910 1
5027 8842 1
5027 9107 1
5028 1368 1
5028 2086 1
5028 3036 1
5028 3203 1
5028 5417 1
5029 27 1
5029 60 1
5029 112 1
5029 1742 1
5029 8004 1
5030 64 1
5030 616 1
5030 1003 1
5030 4703 1
5030 8283 1
5030 8684 1
5031 358 1
5031 452 1
5031 1168 1
5031 2229 1
5032 12 1
5032 265 1
5032 504 1
5032 703 1
5033 719 1
5033 2333 1
5033 3758 1
5033 3788 1
5034 101 1
5034 210 1
5034 808 1
5034 924 1
5034 5783 1
5035 423 1
5035 2758 1
5035 4257 1
5035 4544 1
5036 262 1
5036 416 1
5036 637 1
5036 4540 1
5037 311 1
5037 417 1
5037 1150 1
5037 3364 1
5037 9733 1
5038 32 1
5038 34 1
5038 190 1
5038 3689 1
5039 373 1
5039 2637 1
5039 3067 1
5039 4198 1
5039 5781 1
5039 7282 1
5039 7621 1
5039 9074 1
5040 674 1
5040 4825 1
5040 4949 1
5040 4994 1
5040 7647 1
5041 1193 1
5041 3098 1
5041 3365 1
5041 4908 1
5041 6580 1
5041 6691 1
5041 6877 1
5041 8540 1
5042 17 1
5042 125 1
5042 656 1
5042 2624 1
5043 4 1
5043 41 1
5043 398 1
5043 1745 1
5043 5073 1
5044 24 1
5044 2231 1
5044 2520 1
5044 3300 1
5044 5182 1
5044 5663 1
5044 9288 1
5045 17 1
5045 4306 1
5045 4524 1
5045 4730 1
5045 5235 1
5045 5561 1
5045 6431 1
5045 8299 1
5046 6 1
5046 31 1
5046 1036 1
5046 1102 1
5046 9250 1
5047 13 1
5047 70 1
5047 364 1
5047 1635 1
5047 5293 1
5047 5302 1
5047 8525 1
5048 13 1
5048 2838 1
5048 3062 1
5048 3516 1
5049 119 1
5049 1605 1
5049 3280 1
5049 4530 1
5050 1090 1
5050 1907 1
5050 2485 1
5050 3663 1
5050 5491 1
5051 139 1
5051 1158 1
5051 2999 1
5051 3719 1
5051 5556 1
5051 7095 1
5051 9583 1
5052 1579 1
5052 1677 1
5052 2643 1
5052 4541 1
5052 9849 1
5053 117 1
5053 765 1
5053 1233 1
5053 3542 1
5053 7118 1
5053 7241 1
5054 6 1
5054 46 1
5054 267 1
5054 338 1
5054 6631 1
5055 245 1
5055 281 1
5055 645 1
5055 4640 1
5056 39 1
5056 3447 1
5056 3985 1
5056 4566 1
5057 66 1
5057 272 1
5057 1046 1
5057 3662 1
5057 6977 1
5058 430 1
5058 537 1
5058 3864 1
5058 4505 1
5058 6506 1
5059 1227 1
5059 2340 1
5059 2746 1
5059 3067 1
5059 6810 1
5059 9762 1
5060 8 1
5060 1101 1
5060 3520 1
5060 4379 1
5060 5745 1
5060 6601 1
5061 119 1
5061 171 1
5061 2969 1
5061 3434 1
5061 5649 1
5062 926 1
5062 3735 1
5062 3820 1
5062 4452 1
5062 5132 1
5063 155 1
5063 283 1
5063 2695 1
5063 4446 1
5063 6477 1
5063 6855 1
5063 7908 1
5063 7980 1
5063 8832 1
5064 31 1
5064 90 1
5064 3073 1
5064 3504 1
5064 5573 1
5064 6199 1
5064 7757 1
5065 138 1
5065 200 1
5065 2187 1
5065 3184 1
5066 42 1
5066 2823 1
5066 3515 1
5066 3931 1
5066 6235 1
5066 6412 1
5066 6866 1
5066 7228 1
5066 7537 1
5066 9309 1
5066 9479 1
5067 990 1
5067 2080 1
5067 2130 1
5067 2933 1
5068 42 1
5068 385 1
5068 1457 1
5068 4410 1
5068 9078 1
5069 190 1
5069 1623 1
5069 3704 1
5069 4229 1
5069 7682 1
5070 16 1
5070 236 1
5070 1928 1
5070 4008 1
5071 1351 1
5071 3015 1
5071 3105 1
5071 3814 1
5071 7015 1
5071 8919 1
5072 120 1
5072 199 1
5072 823 1
5072 2163 1
5072 6469 1
5072 7267 1
5072 7885 1
5073 4 1
5073 595 1
5073 2011 1
5073 5043 1
5073 5238 1
5074 327 1
5074 871 1
5074 899 1
5074 3052 1
5075 6 1
5075 26 1
5075 457 1
5075 1826 1
5076 1729 1
5076 2113 1
5076 3697 1
5076 3813 1
5076 5467 1
5076 8034 1
5077 688 1
5077 781 1
5077 1599 1
5077 3590 1
5078 30 1
5078 77 1
5078 1354 1
5078 3774 1
5078 5887 1
5078 6551 1
5078 7253 1
5079 726 1
5079 1665 1
5079 2946 1
5079 3808 1
5079 5739 1
5079 7175 1
5079 7537 1
5080 153 1
5080 212 1
5080 2117 1
5080 3926 1
5081 58 1
5081 140 1
5081 2615 1
5081 3030 1
5081 6142 1
5082 121 1
5082 145 1
5082 1557 1
5082 1899 1
5083 52 1
5083 659 1
5083 3077 1
5083 3481 1
5083 5104 1
5083 8996 1
5084 352 1
5084 3369 1
5084 3788 1
5084 3990 1
5084 6011 1
5085 51 1
5085 273 1
5085 345 1
5085 3049 1
5085 5467 1
5085 9379 1
5086 735 1
5086 1322 1
5086 2048 1
5086 2469 1
5086 7370 1
5086 7426 1
5087 239 1
5087 1379 1
5087 1596 1
5087 4712 1
5087 5531 1
5087 6619 1
5087 7331 1
5087 7426 1
5088 67 1
5088 1319 1
5088 1343 1
5088 4060 1
5088 6004 1
5088 9451 1
5089 151 1
5089 2080 1
5089 2910 1
5089 4038 1
5090 42 1
5090 3186 1
5090 3575 1
5090 3838 1
5090 8053 1
5091 1288 1
5091 1476 1
5091 1900 1
5091 3357 1
5092 13 1
5092 95 1
5092 3706 1
5092 4498 1
5092 8823 1
5093 316 1
5093 2637 1
5093 2892 1
5093 4869 1
5093 5245 1
5093 7519 1
5093 8694 1
5094 493 1
5094 2104 1
5094 2189 1
5094 3925 1
5094 6163 1
5094 6236 1
5094 7000 1
5094 9565 1
5095 98 1
5095 137 1
5095 1385 1
5095 2488 1
5095 5988 1
5095 9359 1
5095 9499 1
5096 1264 1
5096 2020 1
5096 2212 1
5096 2761 1
5096 6158 1
5096 6701 1
5096 6876 1
5096 7327 1
5096 7591 1
5096 9099 1
5097 764 1
5097 1815 1
5097 2095 1
5097 4798 1
5097 7401 1
5098 21 1
5098 30 1
5098 51 1
5098 2564 1
5098 7080 1
5098 9585 1
5099 7 1
5099 184 1
5099 1314 1
5099 2972 1
5099 8371 1
5100 425 1
5100 1083 1
5100 2158 1
5100 2839 1
5100 5940 1
5100 8584 1
5100 9780 1
5101 29 1
5101 63 1
5101 192 1
5101 2009 1
5101 9561 1
5102 168 1
5102 2085 1
5102 3830 1
5102 4834 1
5102 9980 1
5103 6 1
5103 329 1
5103 464 1
5103 3783 1
5103 9448 1
5103 9904 1
5104 417 1
5104 1273 1
5104 4015 1
5104 5083 1
5105 10 1
5105 335 1
5105 710 1
5105 2216 1
5106 381 1
5106 2405 1
5106 3327 1
5106 4742 1
5106 5670 1
5106 6699 1
5106 8323 1
5107 345 1
5107 369 1
5107 518 1
5107 527 1
5108 1218 1
5108 1920 1
5108 2080 1
5108 3656 1
5108 7711 1
5109 184 1
5109 2321 1
5109 3231 1
5109 3408 1
5110 58 1
5110 607 1
5110 1120 1
5110 2581 1
5110 5246 1
5110 5562 1
5111 361 1
5111 766 1
5111 2691 1
5111 3162 1
5112 137 1
5112 290 1
5112 518 1
5112 2246 1
5112 5692 1
5112 5710 1
5112 5943 1
5112 9063 1
5113 97 1
5113 142 1
5113 441 1
5113 2648 1
5113 5695 1
5113 7430 1
5114 566 1
5114 1040 1
5114 3405 1
5114 3489 1
5115 14 1
5115 72 1
5115 1003 1
5115 2728 1
5115 5476 1
5115 8187 1
5116 37 1
5116 122 1
5116 1730 1
5116 2430 1
5116 6814 1
5116 9014 1
5116 9377 1
5117 75 1
5117 441 1
5117 527 1
5117 2573 1
5117 6085 1
5117 8014 1
5118 167 1
5118 2345 1
5118 3072 1
5118 3998 1
5119 248 1
5119 273 1
5119 555 1
5119 2928 1
5120 177 1
5120 290 1
5120 901 1
5120 3304 1
5120 8470 1
5121 3 1
5121 1376 1
5121 2654 1
5121 4711 1
5121 5662 1
5121 6215 1
5121 8680 1
5122 190 1
5122 2970 1
5122 3240 1
5122 3634 1
5123 362 1
5123 528 1
5123 1558 1
5123 3413 1
5123 9458 1
5124 190 1
5124 2348 1
5124 2922 1
5124 4192 1
5124 7081 1
5125 14 1
5125 89 1
5125 398 1
5125 1723 1
5126 519 1
5126 993 1
5126 1008 1
5126 1111 1
5126 6000 1
5126 9398 1
5126 9632 1
5127 218 1
5127 987 1
5127 2200 1
5127 3654 1
5127 8337 1
5127 9647 1
5128 13 1
5128 14 1
5128 656 1
5128 2164 1
5128 5998 1
5128 6451 1
5128 6456 1
5128 7109 1
5128 8990 1
5128 9263 1
5129 10 1
5129 118 1
5129 290 1
5129 3912 1
5129 5744 1
5129 6018 1
5130 417 1
5130 515 1
5130 583 1
5130 1040 1
5131 651 1
5131 923 1
5131 2530 1
5131 3983 1
5131 8134 1
5132 620 1
5132 838 1
5132 928 1
5132 5062 1
5133 10 1
5133 2097 1
5133 2263 1
5133 4494 1
5133 7360 1
5133 7935 1
5134 828 1
5134 2288 1
5134 2442 1
5134 3378 1
5134 6638 1
5134 8103 1
5134 8250 1
5134 8918 1
5134 9160 1
5135 147 1
5135 173 1
5135 1618 1
5135 3158 1
5135 6142 1
5135 7047 1
5135 7656 1
5135 7891 1
5136 120 1
5136 446 1
5136 3326 1
5136 4216 1
5137 1604 1
5137 1710 1
5137 1780 1
5137 2645 1
5138 101 1
5138 192 1
5138 487 1
5138 1193 1
5138 9193 1
5139 822 1
5139 1004 1
5139 2795 1
5139 3387 1
5139 6589 1
5139 8428 1
5140 7 1
5140 132 1
5140 2068 1
5140 2798 1
5140 5756 1
5140 8418 1
5140 8669 1
5140 9037 1
5141 448 1
5141 899 1
5141 3976 1
5141 4083 1
5141 8868 1
5142 2476 1
5142 3578 1
5142 3689 1
5142 4269 1
5142 5700 1
5142 6211 1
5142 9187 1
5143 58 1
5143 690 1
5143 1767 1
5143 4469 1
5144 209 1
5144 397 1
5144 519 1
5144 4077 1
5144 5254 1
5144 7480 1
5144 7795 1
5144 8777 1
5145 319 1
5145 1066 1
5145 1956 1
5145 2231 1
5145 5785 1
5145 6186 1
5146 95 1
5146 140 1
5146 2325 1
5146 4553 1
5147 1881 1
5147 2215 1
5147 3285 1
5147 3582 1
5148 11 1
5148 990 1
5148 1821 1
5148 3223 1
5149 10 1
5149 109 1
5149 233 1
5149 3183 1
5149 5945 1
5149 7053 1
5150 555 1
5150 900 1
5150 1293 1
5150 4640 1
5151 233 1
5151 750 1
5151 1681 1
5151 3053 1
5151 5279 1
5151 7748 1
5152 1488 1
5152 2212 1
5152 2530 1
5152 4532 1
5153 791 1
5153 1908 1
5153 2542 1
5153 3232 1
5153 6201 1
5153 8241 1
5154 93 1
5154 307 1
5154 3216 1
5154 3930 1
5154 6782 1
5154 7455 1
5154 9579 1
5155 473 1
5155 696 1
5155 3395 1
5155 4869 1
5155 6262 1
5156 63 1
5156 106 1
5156 1172 1
5156 1466 1
5157 742 1
5157 862 1
5157 1157 1
5157 3488 1
5157 5371 1
5157 7428 1
5158 1821 1
5158 3986 1
5158 4641 1
5158 4930 1
5158 6016 1
5159 1516 1
5159 1642 1
5159 2161 1
5159 4698 1
5159 6582 1
5159 8998 1
5160 987 1
5160 2250 1
5160 2509 1
5160 3986 1
5160 5414 1
5160 6917 1
5160 7854 1
5161 828 1
5161 1530 1
5161 2814 1
5161 3620 1
5161 5309 1
5162 241 1
5162 1744 1
5162 2142 1
5162 4157 1
5162 6393 1
5162 8052 1
5163 264 1
5163 322 1
5163 860 1
5163 916 1
5163 6121 1
5164 123 1
5164 749 1
5164 1919 1
5164 4893 1
5165 5 1
5165 421 1
5165 490 1
5165 4073 1
5165 6858 1
5166 13 1
5166 24 1
5166 1158 1
5166 2721 1
5166 5878 1
5166 6234 1
5167 738 1
5167 1539 1
5167 2111 1
5167 3841 1
5167 6974 1
5167 8349 1
5167 9036 1
5167 9319 1
5168 7 1
5168 1198 1
5168 1232 1
5168 4649 1
5168 8974 1
5168 9739 1
5169 227 1
5169 323 1
5169 1023 1
5169 1868 1
5170 120 1
5170 455 1
5170 1821 1
5170 4749 1
5170 7300 1
5171 6 1
5171 42 1
5171 1036 1
5171 2293 1
5172 146 1
5172 175 1
5172 2732 1
5172 4051 1
5172 8750 1
5173 17 1
5173 298 1
5173 2854 1
5173 2959 1
5174 371 1
5174 762 1
5174 2897 1
5174 3257 1
5174 5375 1
5174 9019 1
5174 9136 1
5175 43 1
5175 172 1
5175 266 1
5175 603 1
5175 5283 1
5176 316 1
5176 328 1
5176 2578 1
5176 3565 1
5176 7744 1
5176 9225 1
5177 237 1
5177 365 1
5177 960 1
5177 3124 1
5177 6829 1
5178 154 1
5178 3141 1
5178 4618 1
5178 4889 1
5178 7657 1
5178 8598 1
5179 139 1
5179 1676 1
5179 2116 1
5179 3795 1
5179 5886 1
5179 6546 1
5179 7400 1
5179 9826 1
5180 108 1
5180 1856 1
5180 2898 1
5180 4753 1
5180 8087 1
5181 60 1
5181 190 1
5181 713 1
5181 1544 1
5181 8765 1
5182 14 1
5182 678 1
5182 4380 1
5182 5044 1
5182 8401 1
5183 151 1
5183 384 1
5183 1066 1
5183 3010 1
5183 6629 1
5183 7007 1
5184 341 1
5184 1165 1
5184 1481 1
5184 2029 1
5184 7549 1
5185 1789 1
5185 1862 1
5185 4131 1
5185 4637 1
5185 5540 1
5185 5756 1
5185 5763 1
5185 8205 1
5186 1728 1
5186 1781 1
5186 4334 1
5186 4844 1
5187 76 1
5187 177 1
5187 267 1
5187 1222 1
5187 7677 1
5188 27 1
5188 823 1
5188 1329 1
5188 4479 1
5188 8425 1
5189 604 1
5189 1953 1
5189 2235 1
5189 4775 1
5189 8012 1
5190 2156 1
5190 2214 1
5190 3860 1
5190 4271 1
5190 9078 1
5190 9635 1
5191 132 1
5191 440 1
5191 932 1
5191 1933 1
5192 8 1
5192 2465 1
5192 4386 1
5192 4530 1
5193 16 1
5193 62 1
5193 149 1
5193 826 1
5194 32 1
5194 336 1
5194 807 1
5194 1220 1
5194 7593 1
5194 9989 1
5195 3 1
5195 224 1
5195 1750 1
5195 2484 1
5196 637 1
5196 651 1
5196 3181 1
5196 3946 1
5196 6685 1
5196 9818 1
5197 133 1
5197 1138 1
5197 2696 1
5197 4493 1
5197 6806 1
5198 170 1
5198 1375 1
5198 2430 1
5198 4700 1
5198 6071 1
5198 6082 1
5198 8160 1
5198 9788 1
5199 1355 1
5199 2427 1
5199 2658 1
5199 3477 1
5199 8741 1
5200 971 1
5200 1836 1
5200 2407 1
5200 2752 1
5200 7419 1
5201 271 1
5201 1678 1
5201 2451 1
5201 3589 1
5202 65 1
5202 501 1
5202 1517 1
5202 1767 1
5202 6721 1
5202 9061 1
5203 67 1
5203 2972 1
5203 3912 1
5203 4335 1
5204 347 1
5204 603 1
5204 2168 1
5204 3181 1
5204 5827 1
5204 8298 1
5205 69 1
5205 163 1
5205 904 1
5205 1260 1
5205 6479 1
5205 7098 1
5205 8350 1
5206 127 1
5206 3288 1
5206 4642 1
5206 4663 1
5206 5993 1
5206 8451 1
5207 1091 1
5207 1897 1
5207 3207 1
5207 3626 1
5207 6926 1
5208 5 1
5208 97 1
5208 2360 1
5208 3467 1
5209 66 1
5209 180 1
5209 4577 1
5209 4902 1
5209 7874 1
5209 8795 1
5210 374 1
5210 1652 1
5210 2403 1
5210 2544 1
5210 8089 1
5211 155 1
5211 427 1
5211 3752 1
5211 4306 1
5211 6679 1
5211 9624 1
5212 45 1
5212 549 1
5212 661 1
5212 2620 1
5212 6286 1
5212 6352 1
5212 6607 1
5212 7087 1
5212 9226 1
5213 101 1
5213 415 1
5213 1176 1
5213 3360 1
5213 7054 1
5214 6 1
5214 165 1
5214 1044 1
5214 4253 1
5214 8492 1
5215 13 1
5215 829 1
5215 2522 1
5215 3419 1
5215 6515 1
5215 7045 1
5215 8558 1
5216 181 1
5216 388 1
5216 1239 1
5216 3763 1
5216 7508 1
5217 138 1
5217 143 1
5217 1065 1
5217 1301 1
5217 7436 1
5218 185 1
5218 390 1
5218 2909 1
5218 4628 1
5218 5449 1
5218 7852 1
5218 8469 1
5218 9412 1
5219 358 1
5219 1868 1
5219 2533 1
5219 4695 1
5219 5729 1
5219 6059 1
5219 9440 1
5220 25 1
5220 2166 1
5220 3939 1
5220 4714 1
5221 325 1
5221 485 1
5221 807 1
5221 1904 1
5221 6148 1
5221 8114 1
5222 251 1
5222 933 1
5222 2981 1
5222 4065 1
5222 8701 1
5223 21 1
5223 525 1
5223 3170 1
5223 4704 1
5223 5933 1
5223 6719 1
5223 8314 1
5223 9061 1
5224 596 1
5224 1415 1
5224 3464 1
5224 4183 1
5224 6367 1
5224 7692 1
5224 9663 1
5225 274 1
5225 1026 1
5225 1442 1
5225 1994 1
5225 6722 1
5225 7443 1
5225 7716 1
5225 7829 1
5225 8512 1
5226 281 1
5226 749 1
5226 2762 1
5226 2826 1
5226 6028 1
5226 7258 1
5226 9770 1
5227 15 1
5227 1166 1
5227 1412 1
5227 3207 1
5228 6 1
5228 17 1
5228 2442 1
5228 4420 1
5228 5827 1
5228 6834 1
5228 8683 1
5229 3 1
5229 3792 1
5229 4388 1
5229 5008 1
5229 7349 1
5229 8052 1
5230 14 1
5230 682 1
5230 1069 1
5230 5007 1
5230 6514 1
5231 172 1
5231 1489 1
5231 4719 1
5231 4774 1
5231 5370 1
5231 6238 1
5232 176 1
5232 694 1
5232 1927 1
5232 5011 1
5232 6016 1
5232 8245 1
5232 9443 1
5233 54 1
5233 1155 1
5233 2548 1
5233 4639 1
5234 8 1
5234 126 1
5234 1832 1
5234 2569 1
5235 509 1
5235 2732 1
5235 4309 1
5235 5045 1
5235 6310 1
5235 8019 1
5236 6 1
5236 534 1
5236 2486 1
5236 4636 1
5236 5320 1
5237 644 1
5237 1319 1
5237 2160 1
5237 4764 1
5237 9480 1
5238 1077 1
5238 4465 1
5238 4766 1
5238 5073 1
5238 5965 1
5238 6623 1
5239 676 1
5239 2387 1
5239 2440 1
5239 3408 1
5239 8369 1
5239 9669 1
5240 901 1
5240 1381 1
5240 2627 1
5240 4326 1
5240 5453 1
5240 8988 1
5241 65 1
5241 1063 1
5241 3392 1
5241 4661 1
5241 7631 1
5241 7948 1
5241 8698 1
5241 9280 1
5242 490 1
5242 840 1
5242 2301 1
5242 3273 1
5243 38 1
5243 390 1
5243 604 1
5243 1779 1
5243 6946 1
5244 295 1
5244 380 1
5244 919 1
5244 1772 1
5245 8 1
5245 628 1
5245 3832 1
5245 5093 1
5245 5448 1
5245 6008 1
5245 6095 1
5245 8358 1
5245 8680 1
5246 3 1
5246 96 1
5246 3577 1
5246 5110 1
5246 5286 1
5247 295 1
5247 1209 1
5247 1851 1
5247 2914 1
5247 5874 1
5247 8583 1
5247 9664 1
5248 16 1
5248 91 1
5248 1356 1
5248 2888 1
5249 17 1
5249 80 1
5249 795 1
5249 2510 1
5249 5332 1
5249 6283 1
5249 7270 1
5249 9615 1
5250 1 1
5250 145 1
5250 707 1
5250 2445 1
5250 6653 1
5251 27 1
5251 128 1
5251 3032 1
5251 4230 1
5251 6680 1
5251 9140 1
5252 134 1
5252 143 1
5252 1141 1
5252 1662 1
5252 8132 1
5252 9436 1
5252 9442 1
5252 9636 1
5253 249 1
5253 445 1
5253 1878 1
5253 3312 1
5253 5419 1
5253 7787 1
5253 7968 1
5254 153 1
5254 2026 1
5254 2400 1
5254 5144 1
5255 559 1
5255 1920 1
5255 3158 1
5255 4972 1
5255 5822 1
5255 6270 1
5256 36 1
5256 70 1
5256 118 1
5256 3081 1
5256 8540 1
5257 56 1
5257 584 1
5257 820 1
5257 1291 1
5257 7365 1
5258 125 1
5258 188 1
5258 3512 1
5258 4599 1
5258 5287 1
5258 5581 1
5258 5633 1
5258 8448 1
5259 143 1
5259 254 1
5259 515 1
5259 2404 1
5259 5511 1
5259 6459 1
5260 266 1
5260 3080 1
5260 4170 1
5260 4903 1
5261 254 1
5261 1730 1
5261 2560 1
5261 3105 1
5261 6288 1
5261 6800 1
5261 9945 1
5262 730 1
5262 1544 1
5262 1611 1
5262 3314 1
5263 51 1
5263 120 1
5263 1849 1
5263 3302 1
5263 5432 1
5263 7110 1
5263 9075 1
5264 84 1
5264 289 1
5264 1943 1
5264 4934 1
5264 5614 1
5264 5669 1
5265 575 1
5265 724 1
5265 2303 1
5265 2340 1
5265 5817 1
5265 6146 1
5265 6795 1
5265 6886 1
5265 8849 1
5266 5 1
5266 65 1
5266 4164 1
5266 4373 1
5267 85 1
5267 1083 1
5267 1196 1
5267 1410 1
5267 9914 1
5268 84 1
5268 421 1
5268 1546 1
5268 4417 1
5268 9571 1
5269 24 1
5269 85 1
5269 172 1
5269 2570 1
5269 8075 1
5270 397 1
5270 2398 1
5270 2503 1
5270 4630 1
5270 7891 1
5270 8209 1
5270 9065 1
5270 9610 1
5271 205 1
5271 560 1
5271 1242 1
5271 2163 1
5271 5648 1
5271 7772 1
5271 8991 1
5272 521 1
5272 768 1
5272 1629 1
5272 1724 1
5272 8042 1
5273 124 1
5273 493 1
5273 1376 1
5273 4849 1
5274 442 1
5274 521 1
5274 1553 1
5274 3275 1
5274 8884 1
5275 1346 1
5275 2852 1
5275 3089 1
5275 3136 1
5275 7003 1
5276 1286 1
5276 1332 1
5276 3134 1
5276 4854 1
5277 2540 1
5277 3848 1
5277 4151 1
5277 4294 1
5277 5515 1
5278 134 1
5278 552 1
5278 956 1
5278 4957 1
5278 7232 1
5278 9238 1
5279 39 1
5279 78 1
5279 1405 1
5279 5151 1
5279 7698 1
5279 8497 1
5279 9801 1
5280 1880 1
5280 2401 1
5280 2874 1
5280 4965 1
5281 156 1
5281 484 1
5281 1653 1
5281 4494 1
5281 7648 1
5282 327 1
5282 2274 1
5282 3353 1
5282 4701 1
5282 6474 1
5283 17 1
5283 762 1
5283 2809 1
5283 5175 1
5283 5642 1
5283 6537 1
5283 7119 1
5283 8080 1
5283 8535 1
5283 8591 1
5283 9814 1
5284 226 1
5284 696 1
5284 1544 1
5284 1976 1
5284 6948 1
5284 7093 1
5284 8863 1
5284 9878 1
5285 31 1
5285 2499 1
5285 2888 1
5285 3194 1
5285 7605 1
5285 9815 1
5286 1089 1
5286 1644 1
5286 2996 1
5286 5246 1
5286 5304 1
5287 88 1
5287 2944 1
5287 3004 1
5287 5258 1
5287 5564 1
5288 8 1
5288 97 1
5288 306 1
5288 1296 1
5288 6191 1
5289 57 1
5289 1408 1
5289 1702 1
5289 2994 1
5289 5654 1
5289 5892 1
5289 6635 1
5290 282 1
5290 368 1
5290 698 1
5290 2044 1
5290 7022 1
5290 9435 1
5291 9 1
5291 93 1
5291 642 1
5291 2005 1
5291 6090 1
5292 96 1
5292 2573 1
5292 4259 1
5292 4654 1
5292 6290 1
5292 6312 1
5292 7622 1
5292 7712 1
5292 8385 1
5293 63 1
5293 339 1
5293 2524 1
5293 5047 1
5293 8336 1
5294 347 1
5294 462 1
5294 1596 1
5294 2601 1
5294 5462 1
5294 5918 1
5294 6506 1
5295 190 1
5295 1058 1
5295 3601 1
5295 4063 1
5296 2290 1
5296 2760 1
5296 3714 1
5296 3925 1
5296 6414 1
5296 7830 1
5296 7991 1
5296 8467 1
5297 3 1
5297 199 1
5297 791 1
5297 1555 1
5297 6003 1
5297 9736 1
5298 312 1
5298 2713 1
5298 2798 1
5298 4797 1
5298 7589 1
5298 8187 1
5298 9506 1
5298 9540 1
5299 494 1
5299 1158 1
5299 1529 1
5299 2697 1
5299 7778 1
5299 9518 1
5300 180 1
5300 205 1
5300 1485 1
5300 2253 1
5301 23 1
5301 1228 1
5301 1583 1
5301 4742 1
5302 68 1
5302 725 1
5302 2395 1
5302 5047 1
5302 5465 1
5302 5861 1
5302 6291 1
5302 6636 1
5302 8564 1
5303 172 1
5303 482 1
5303 1174 1
5303 4701 1
5304 56 1
5304 2352 1
5304 5020 1
5304 5286 1
5305 9 1
5305 215 1
5305 3245 1
5305 4683 1
5305 6390 1
5306 174 1
5306 600 1
5306 1225 1
5306 2449 1
5307 106 1
5307 1228 1
5307 1763 1
5307 4115 1
5308 712 1
5308 1922 1
5308 3213 1
5308 3537 1
5309 881 1
5309 2428 1
5309 3576 1
5309 5161 1
5309 5326 1
5309 5403 1
5309 6484 1
5309 6583 1
5309 6625 1
5309 7191 1
5309 7349 1
5309 7514 1
5310 28 1
5310 1922 1
5310 3307 1
5310 4636 1
5310 5449 1
5310 8757 1
5311 389 1
5311 1090 1
5311 1451 1
5311 2420 1
5311 8664 1
5312 79 1
5312 227 1
5312 961 1
5312 2409 1
5313 362 1
5313 725 1
5313 2774 1
5313 3739 1
5313 6649 1
5313 9551 1
5314 174 1
5314 186 1
5314 1994 1
5314 2962 1
5315 72 1
5315 895 1
5315 1420 1
5315 1527 1
5315 7785 1
5316 147 1
5316 1892 1
5316 4007 1
5316 4740 1
5317 201 1
5317 3246 1
5317 3263 1
5317 4468 1
5317 5389 1
5318 323 1
5318 2830 1
5318 3638 1
5318 4763 1
5318 6233 1
5318 6631 1
5318 7920 1
5318 8325 1
5319 235 1
5319 394 1
5319 1001 1
5319 1796 1
5319 7612 1
5320 466 1
5320 527 1
5320 934 1
5320 5236 1
5320 5879 1
5320 6310 1
5320 6964 1
5321 271 1
5321 612 1
5321 1659 1
5321 3390 1
5321 5714 1
5321 6754 1
5322 31 1
5322 424 1
5322 1454 1
5322 2799 1
5323 1038 1
5323 1538 1
5323 3513 1
5323 4858 1
5323 7107 1
5324 1 1
5324 841 1
5324 1166 1
5324 1821 1
5324 6894 1
5325 51 1
5325 603 1
5325 3864 1
5325 4959 1
5326 1529 1
5326 1609 1
5326 3449 1
5326 5309 1
5326 5753 1
5326 7548 1
5327 4 1
5327 1338 1
5327 1486 1
5327 3533 1
5327 5444 1
5327 5805 1
5327 8820 1
5328 13 1
5328 69 1
5328 2046 1
5328 2732 1
5329 43 1
5329 416 1
5329 1451 1
5329 2409 1
5330 308 1
5330 3395 1
5330 3559 1
5330 3623 1
5330 7154 1
5331 272 1
5331 1676 1
5331 1916 1
5331 2542 1
5331 5671 1
5331 5881 1
5331 6484 1
5331 7585 1
5332 630 1
5332 1312 1
5332 1940 1
5332 5249 1
5332 5937 1
5332 6437 1
5332 6672 1
5332 8923 1
5333 30 1
5333 611 1
5333 1619 1
5333 1960 1
5334 63 1
5334 281 1
5334 289 1
5334 2834 1
5334 5760 1
5335 518 1
5335 647 1
5335 1300 1
5335 4107 1
5335 5849 1
5336 114 1
5336 1928 1
5336 2116 1
5336 2981 1
5336 9445 1
5337 105 1
5337 893 1
5337 1205 1
5337 1327 1
5338 149 1
5338 1454 1
5338 1608 1
5338 2082 1
5338 5752 1
5338 8058 1
5339 1086 1
5339 3723 1
5339 4165 1
5339 4425 1
5339 5695 1
5339 7627 1
5339 8388 1
5340 281 1
5340 351 1
5340 952 1
5340 2903 1
5340 5788 1
5340 5877 1
5340 7054 1
5340 7207 1
5341 433 1
5341 2640 1
5341 3741 1
5341 3995 1
5341 8132 1
5342 194 1
5342 1450 1
5342 1681 1
5342 3018 1
5342 8618 1
5343 131 1
5343 372 1
5343 587 1
5343 4046 1
5343 8151 1
5344 719 1
5344 2288 1
5344 2567 1
5344 2572 1
5344 6818 1
5344 7988 1
5344 8615 1
5344 8672 1
5345 54 1
5345 957 1
5345 1653 1
5345 3411 1
5345 6342 1
5346 107 1
5346 1515 1
5346 1654 1
5346 1991 1
5347 13 1
5347 27 1
5347 1705 1
5347 2984 1
5347 6973 1
5347 8872 1
5347 9864 1
5348 705 1
5348 1319 1
5348 3723 1
5348 4186 1
5348 7467 1
5348 8786 1
5349 287 1
5349 605 1
5349 1044 1
5349 3210 1
5349 8151 1
5350 34 1
5350 233 1
5350 1864 1
5350 3231 1
5350 5463 1
5350 5552 1
5350 7591 1
5351 21 1
5351 1758 1
5351 2869 1
5351 3857 1
5351 8108 1
5352 1620 1
5352 1797 1
5352 4146 1
5352 4397 1
5352 6232 1
5353 332 1
5353 343 1
5353 1274 1
5353 4934 1
5353 6979 1
5354 28 1
5354 115 1
5354 274 1
5354 2539 1
5354 5932 1
5354 6986 1
5355 70 1
5355 2336 1
5355 3014 1
5355 3294 1
5355 5471 1
5355 5592 1
5355 7037 1
5356 37 1
5356 63 1
5356 309 1
5356 4868 1
5357 57 1
5357 898 1
5357 1504 1
5357 4642 1
5357 7390 1
5357 7747 1
5358 749 1
5358 1076 1
5358 3481 1
5358 4295 1
5358 5774 1
5359 14 1
5359 96 1
5359 515 1
5359 3055 1
5360 127 1
5360 307 1
5360 1948 1
5360 4161 1
5360 5519 1
5360 5801 1
5361 65 1
5361 173 1
5361 1133 1
5361 2294 1
5361 9161 1
5362 96 1
5362 1008 1
5362 1180 1
5362 2131 1
5362 8084 1
5363 32 1
5363 796 1
5363 2003 1
5363 2630 1
5364 101 1
5364 415 1
5364 845 1
5364 990 1
5364 8731 1
5365 289 1
5365 338 1
5365 2850 1
5365 4119 1
5366 6 1
5366 1072 1
5366 1076 1
5366 1608 1
5366 7742 1
5366 9474 1
5367 259 1
5367 1519 1
5367 2470 1
5367 2675 1
5368 357 1
5368 921 1
5368 4494 1
5368 4994 1
5368 9184 1
5369 487 1
5369 1665 1
5369 2817 1
5369 4030 1
5369 8329 1
5370 199 1
5370 1829 1
5370 3390 1
5370 5231 1
5371 2515 1
5371 3074 1
5371 4046 1
5371 5157 1
5372 340 1
5372 737 1
5372 2658 1
5372 3458 1
5372 8684 1
5373 294 1
5373 446 1
5373 1103 1
5373 2061 1
5374 270 1
5374 464 1
5374 502 1
5374 4650 1
5374 6436 1
5374 6631 1
5375 178 1
5375 1786 1
5375 2145 1
5375 5174 1
5375 7776 1
5375 9514 1
5376 56 1
5376 1528 1
5376 2621 1
5376 2861 1
5377 2233 1
5377 2845 1
5377 3133 1
5377 3608 1
5377 7754 1
5378 6 1
5378 1366 1
5378 3032 1
5378 4230 1
5378 9046 1
5379 66 1
5379 130 1
5379 250 1
5379 536 1
5379 7579 1
5380 271 1
5380 1590 1
5380 1976 1
5380 3538 1
5380 9127 1
5380 9643 1
5381 173 1
5381 229 1
5381 557 1
5381 2859 1
5382 213 1
5382 2061 1
5382 2570 1
5382 4957 1
5382 5768 1
5383 6 1
5383 1789 1
5383 1997 1
5383 3149 1
5383 6628 1
5383 9254 1
5384 9 1
5384 68 1
5384 160 1
5384 1757 1
5384 9120 1
5385 147 1
5385 664 1
5385 869 1
5385 1274 1
5385 6157 1
5385 6808 1
5386 490 1
5386 1317 1
5386 1518 1
5386 1693 1
5386 5722 1
5386 6499 1
5386 8464 1
5386 8775 1
5386 9983 1
5387 166 1
5387 343 1
5387 3165 1
5387 3243 1
5387 5401 1
5388 81 1
5388 1128 1
5388 1440 1
5388 3323 1
5388 6040 1
5389 1411 1
5389 3166 1
5389 4542 1
5389 5317 1
5390 1380 1
5390 1928 1
5390 2628 1
5390 2985 1
5391 116 1
5391 720 1
5391 1738 1
5391 3914 1
5391 5411 1
5391 5558 1
5391 9303 1
5391 9680 1
5391 9867 1
5392 153 1
5392 707 1
5392 2472 1
5392 2481 1
5393 6 1
5393 65 1
5393 347 1
5393 2111 1
5393 7384 1
5393 7603 1
5394 78 1
5394 132 1
5394 3598 1
5394 4857 1
5394 5737 1
5395 221 1
5395 308 1
5395 1981 1
5395 4895 1
5395 5748 1
5395 6089 1
5395 6594 1
5395 8048 1
5395 9170 1
5395 9902 1
5396 376 1
5396 709 1
5396 2455 1
5396 2673 1
5397 28 1
5397 251 1
5397 284 1
5397 3310 1
5398 1420 1
5398 2918 1
5398 3567 1
5398 3613 1
5398 6062 1
5398 6944 1
5398 7242 1
5398 7789 1
5398 8367 1
5399 578 1
5399 1505 1
5399 3100 1
5399 4559 1
5399 5834 1
5399 8538 1
5400 21 1
5400 1497 1
5400 3992 1
5400 4690 1
5400 8259 1
5401 874 1
5401 2332 1
5401 4979 1
5401 5387 1
5402 31 1
5402 33 1
5402 289 1
5402 4658 1
5403 188 1
5403 310 1
5403 2065 1
5403 5309 1
5404 516 1
5404 2032 1
5404 2542 1
5404 4031 1
5404 6024 1
5405 28 1
5405 680 1
5405 1887 1
5405 2804 1
5405 8590 1
5406 213 1
5406 1507 1
5406 2865 1
5406 3677 1
5407 418 1
5407 649 1
5407 1908 1
5407 1993 1
5408 88 1
5408 475 1
5408 1640 1
5408 4517 1
5408 6693 1
5408 7360 1
5408 7933 1
5409 80 1
5409 313 1
5409 2256 1
5409 4331 1
5409 7469 1
5409 8501 1
5410 112 1
5410 115 1
5410 1388 1
5410 3499 1
5411 34 1
5411 295 1
5411 4500 1
5411 5391 1
5412 747 1
5412 1355 1
5412 1640 1
5412 3353 1
5413 1207 1
5413 2031 1
5413 2676 1
5413 2890 1
5413 5570 1
5413 5878 1
5413 9570 1
5414 6 1
5414 374 1
5414 1063 1
5414 5160 1
5415 87 1
5415 1416 1
5415 1730 1
5415 3471 1
5416 1834 1
5416 2430 1
5416 3966 1
5416 4849 1
5416 6892 1
5417 256 1
5417 3098 1
5417 5002 1
5417 5028 1
5417 5969 1
5417 7171 1
5418 98 1
5418 440 1
5418 1091 1
5418 3700 1
5418 6929 1
5418 9204 1
5419 122 1
5419 182 1
5419 244 1
5419 5253 1
5420 10 1
5420 606 1
5420 832 1
5420 4712 1
5421 218 1
5421 696 1
5421 816 1
5421 4301 1
5422 1741 1
5422 1751 1
5422 2832 1
5422 3412 1
5423 267 1
5423 1238 1
5423 2511 1
5423 2922 1
5423 5786 1
5423 8367 1
5423 9292 1
5423 9870 1
5424 115 1
5424 638 1
5424 860 1
5424 1020 1
5424 6340 1
5425 832 1
5425 1400 1
5425 2060 1
5425 3523 1
5425 5593 1
5425 7235 1
5425 8400 1
5425 8451 1
5426 102 1
5426 1500 1
5426 1528 1
5426 2543 1
5426 7471 1
5427 45 1
5427 279 1
5427 320 1
5427 4051 1
5428 1127 1
5428 2593 1
5428 2969 1
5428 4156 1
5429 518 1
5429 1077 1
5429 4294 1
5429 4511 1
5429 7151 1
5429 7772 1
5430 5 1
5430 49 1
5430 1512 1
5430 1532 1
5430 7006 1
5430 7148 1
5430 9531 1
5431 229 1
5431 788 1
5431 1413 1
5431 4612 1
5431 7479 1
5431 8391 1
5431 9324 1
5432 306 1
5432 1824 1
5432 3774 1
5432 5263 1
5432 6332 1
5433 609 1
5433 876 1
5433 2762 1
5433 3430 1
5433 8081 1
5433 9754 1
5434 1729 1
5434 1763 1
5434 1970 1
5434 4383 1
5434 8207 1
5434 8997 1
5434 9131 1
5435 143 1
5435 675 1
5435 724 1
5435 2990 1
5435 7369 1
5435 7585 1
5435 8901 1
5436 312 1
5436 583 1
5436 791 1
5436 1507 1
5436 7367 1
5437 33 1
5437 637 1
5437 1707 1
5437 2057 1
5437 5874 1
5437 8118 1
5437 9347 1
5438 31 1
5438 626 1
5438 4553 1
5438 4902 1
5439 156 1
5439 592 1
5439 1614 1
5439 3252 1
5439 7031 1
5440 16 1
5440 184 1
5440 415 1
5440 3322 1
5440 6017 1
5440 6967 1
5440 7039 1
5440 7321 1
5440 7484 1
5440 9337 1
5440 9657 1
5441 56 1
5441 2065 1
5441 3027 1
5441 3647 1
5441 5858 1
5441 6272 1
5441 8109 1
5442 53 1
5442 610 1
5442 3564 1
5442 4646 1
5442 7404 1
5443 434 1
5443 690 1
5443 796 1
5443 1544 1
5443 6065 1
5443 7065 1
5443 7387 1
5444 279 1
5444 610 1
5444 1548 1
5444 5327 1
5445 45 1
5445 421 1
5445 1633 1
5445 3150 1
5446 527 1
5446 644 1
5446 2498 1
5446 4977 1
5446 9696 1
5446 9810 1
5446 9998 1
5447 11 1
5447 1085 1
5447 2573 1
5447 3705 1
5447 7482 1
5448 2625 1
5448 2931 1
5448 3471 1
5448 5245 1
5448 6893 1
5449 376 1
5449 1763 1
5449 5218 1
5449 5310 1
5449 6939 1
5449 6974 1
5449 7465 1
5450 496 1
5450 557 1
5450 969 1
5450 2407 1
5450 5516 1
5450 9316 1
5451 64 1
5451 408 1
5451 2351 1
5451 2733 1
5451 7718 1
5452 194 1
5452 2451 1
5452 2942 1
5452 4167 1
5452 9436 1
5453 2262 1
5453 2571 1
5453 3144 1
5453 5240 1
5453 5583 1
5453 7517 1
5454 599 1
5454 1341 1
5454 1425 1
5454 1475 1
5454 6949 1
5454 7289 1
5455 76 1
5455 1141 1
5455 1195 1
5455 3059 1
5455 7032 1
5455 8827 1
5456 247 1
5456 2552 1
5456 2936 1
5456 3779 1
5456 5813 1
5456 6265 1
5456 6859 1
5456 8855 1
5457 401 1
5457 737 1
5457 817 1
5457 2495 1
5457 6087 1
5457 8529 1
5458 62 1
5458 1110 1
5458 2679 1
5458 2985 1
5458 6559 1
5458 8776 1
5458 9881 1
5459 1534 1
5459 1607 1
5459 3662 1
5459 4685 1
5459 7284 1
5460 184 1
5460 1318 1
5460 2635 1
5460 4557 1
5460 6461 1
5460 8669 1
5460 9804 1
5461 683 1
5461 1703 1
5461 2964 1
5461 3489 1
5461 6782 1
5461 7470 1
5462 179 1
5462 1429 1
5462 2145 1
5462 5294 1
5462 6500 1
5463 310 1
5463 854 1
5463 3638 1
5463 5350 1
5463 9710 1
5464 6 1
5464 135 1
5464 998 1
5464 2131 1
5465 65 1
5465 1626 1
5465 4217 1
5465 5302 1
5465 6634 1
5465 8642 1
5466 612 1
5466 755 1
5466 817 1
5466 2959 1
5466 5812 1
5466 8393 1
5466 8758 1
5467 9 1
5467 985 1
5467 5076 1
5467 5085 1
5467 7790 1
5467 8993 1
5467 9513 1
5468 124 1
5468 611 1
5468 954 1
5468 1933 1
5469 71 1
5469 138 1
5469 1523 1
5469 2881 1
5469 5903 1
5469 6124 1
5469 8955 1
5470 27 1
5470 564 1
5470 2505 1
5470 3069 1
5470 6295 1
5470 9505 1
5471 22 1
5471 301 1
5471 1336 1
5471 5355 1
5472 260 1
5472 1067 1
5472 2016 1
5472 3757 1
5473 56 1
5473 143 1
5473 2170 1
5473 2915 1
5474 340 1
5474 2872 1
5474 3954 1
5474 4374 1
5474 7342 1
5474 8311 1
5474 9013 1
5475 394 1
5475 2126 1
5475 2951 1
5475 4728 1
5475 5772 1
5476 30 1
5476 289 1
5476 1880 1
5476 5115 1
5477 389 1
5477 418 1
5477 1738 1
5477 2555 1
5477 8789 1
5478 1160 1
5478 1265 1
5478 3939 1
5478 4170 1
5479 173 1
5479 1425 1
5479 2007 1
5479 2296 1
5479 6023 1
5479 9503 1
5480 10 1
5480 20 1
5480 115 1
5480 4149 1
5480 7495 1
5480 8329 1
5480 8361 1
5480 8725 1
5481 61 1
5481 173 1
5481 836 1
5481 3317 1
5481 6517 1
5482 98 1
5482 1962 1
5482 2774 1
5482 4869 1
5483 188 1
5483 445 1
5483 1611 1
5483 3777 1
5483 5926 1
5484 114 1
5484 286 1
5484 2000 1
5484 2147 1
5484 6262 1
5485 12 1
5485 667 1
5485 845 1
5485 2831 1
5485 6991 1
5485 8446 1
5485 8914 1
5486 272 1
5486 2844 1
5486 3453 1
5486 4169 1
5486 7069 1
5486 7125 1
5486 7325 1
5487 20 1
5487 172 1
5487 660 1
5487 2173 1
5487 7612 1
5488 1259 1
5488 2166 1
5488 2352 1
5488 2967 1
5488 7204 1
5489 125 1
5489 948 1
5489 1411 1
5489 2940 1
5489 5658 1
5490 184 1
5490 1043 1
5490 2061 1
5490 3929 1
5491 141 1
5491 1389 1
5491 4881 1
5491 5050 1
5491 7533 1
5491 8975 1
5491 9640 1
5492 571 1
5492 1056 1
5492 2085 1
5492 2952 1
5493 49 1
5493 64 1
5493 2040 1
5493 3042 1
5493 5882 1
5493 6593 1
5493 7025 1
5493 7323 1
5493 7946 1
5494 63 1
5494 514 1
5494 1918 1
5494 2798 1
5495 127 1
5495 362 1
5495 1530 1
5495 3300 1
5495 7628 1
5496 115 1
5496 1924 1
5496 3202 1
5496 4621 1
5496 6174 1
5496 8063 1
5496 9093 1
5497 11 1
5497 33 1
5497 48 1
5497 4412 1
5497 8140 1
5498 13 1
5498 67 1
5498 304 1
5498 467 1
5498 6243 1
5498 6812 1
5498 9030 1
5498 9531 1
5499 589 1
5499 786 1
5499 1192 1
5499 1581 1
5499 7411 1
5499 8588 1
5499 9341 1
5500 759 1
5500 1175 1
5500 1733 1
5500 2391 1
5501 45 1
5501 86 1
5501 3663 1
5501 4991 1
5502 538 1
5502 786 1
5502 2039 1
5502 3382 1
5503 13 1
5503 55 1
5503 3920 1
5503 4848 1
5504 148 1
5504 401 1
5504 564 1
5504 1417 1
5504 5960 1
5505 65 1
5505 2944 1
5505 3210 1
5505 3349 1
5505 6970 1
5506 179 1
5506 208 1
5506 1253 1
5506 1511 1
5506 6826 1
5506 7450 1
5507 499 1
5507 600 1
5507 2643 1
5507 4752 1
5507 6507 1
5507 9871 1
5508 16 1
5508 1015 1
5508 1016 1
5508 1094 1
5509 204 1
5509 254 1
5509 3566 1
5509 4709 1
5509 9868 1
5510 6 1
5510 21 1
5510 1699 1
5510 4591 1
5510 5859 1
5511 762 1
5511 4102 1
5511 4625 1
5511 5259 1
5512 36 1
5512 552 1
5512 3091 1
5512 5020 1
5512 6985 1
5513 11 1
5513 14 1
5513 411 1
5513 1079 1
5513 5833 1
5513 6472 1
5513 7712 1
5514 54 1
5514 1103 1
5514 1114 1
5514 4281 1
5514 7077 1
5515 1970 1
5515 4422 1
5515 4796 1
5515 5277 1
5515 8083 1
5516 1446 1
5516 3123 1
5516 4262 1
5516 5450 1
5516 6695 1
5516 7234 1
5517 6 1
5517 186 1
5517 1545 1
5517 2589 1
5518 17 1
5518 1033 1
5518 1592 1
5518 3110 1
5519 326 1
5519 826 1
5519 1160 1
5519 5360 1
5519 5870 1
5519 7141 1
5519 9870 1
5520 102 1
5520 1076 1
5520 2440 1
5520 4368 1
5521 70 1
5521 323 1
5521 464 1
5521 4741 1
5522 310 1
5522 327 1
5522 1703 1
5522 2545 1
5522 6457 1
5522 7494 1
5522 7881 1
5523 819 1
5523 1183 1
5523 2822 1
5523 3650 1
5524 1506 1
5524 1599 1
5524 1721 1
5524 4344 1
5524 5975 1
5524 9677 1
5525 14 1
5525 1824 1
5525 3100 1
5525 4048 1
5525 6865 1
5525 8630 1
5526 58 1
5526 94 1
5526 154 1
5526 728 1
5526 7050 1
5526 7771 1
5527 562 1
5527 667 1
5527 1143 1
5527 3334 1
5528 14 1
5528 2640 1
5528 3456 1
5528 4661 1
5529 12 1
5529 63 1
5529 98 1
5529 2780 1
5529 8436 1
5530 193 1
5530 1376 1
5530 3519 1
5530 4063 1
5530 6169 1
5530 6888 1
5530 7504 1
5530 7523 1
5531 170 1
5531 398 1
5531 3582 1
5531 5087 1
5532 64 1
5532 158 1
5532 425 1
5532 1166 1
5533 280 1
5533 282 1
5533 553 1
5533 3996 1
5534 2387 1
5534 3455 1
5534 3938 1
5534 5002 1
5534 6714 1
5534 8245 1
5535 416 1
5535 689 1
5535 1161 1
5535 5008 1
5535 6488 1
5535 6581 1
5535 6952 1
5536 38 1
5536 3012 1
5536 3216 1
5536 3392 1
5536 6549 1
5537 296 1
5537 2737 1
5537 3153 1
5537 4045 1
5538 19 1
5538 737 1
5538 907 1
5538 921 1
5538 6014 1
5539 200 1
5539 2978 1
5539 3139 1
5539 4634 1
5540 647 1
5540 783 1
5540 4567 1
5540 5185 1
5541 529 1
5541 1120 1
5541 1135 1
5541 1603 1
5541 5646 1
5541 9288 1
5541 9678 1
5542 135 1
5542 838 1
5542 2382 1
5542 2611 1
5543 667 1
5543 2008 1
5543 2111 1
5543 4361 1
5543 5590 1
5543 5767 1
5543 8083 1
5544 206 1
5544 250 1
5544 2052 1
5544 2149 1
5545 62 1
5545 1620 1
5545 2918 1
5545 4755 1
5545 6002 1
5545 8353 1
5546 13 1
5546 17 1
5546 1579 1
5546 3543 1
5546 6133 1
5547 1541 1
5547 1755 1
5547 2392 1
5547 4409 1
5547 9322 1
5548 6 1
5548 437 1
5548 611 1
5548 2461 1
5548 5623 1
5548 7705 1
5548 9671 1
5548 9913 1
5549 3 1
5549 54 1
5549 371 1
5549 515 1
5549 6490 1
5549 7111 1
5549 7376 1
5550 335 1
5550 824 1
5550 2873 1
5550 2958 1
5551 317 1
5551 340 1
5551 1757 1
5551 2580 1
5551 9003 1
5552 1041 1
5552 2578 1
5552 2905 1
5552 5350 1
5553 141 1
5553 1634 1
5553 2337 1
5553 2839 1
5553 6779 1
5553 6938 1
5553 7411 1
5553 9128 1
5554 357 1
5554 3070 1
5554 3807 1
5554 4611 1
5554 8686 1
5555 118 1
5555 184 1
5555 197 1
5555 4279 1
5555 6369 1
5555 7034 1
5555 7651 1
5556 440 1
5556 1046 1
5556 3237 1
5556 5051 1
5556 5628 1
5557 152 1
5557 906 1
5557 1589 1
5557 4374 1
5557 9883 1
5558 45 1
5558 2577 1
5558 3329 1
5558 5391 1
5558 5705 1
5558 6827 1
5559 66 1
5559 91 1
5559 2008 1
5559 3254 1
5559 6597 1
5560 2628 1
5560 2680 1
5560 3445 1
5560 4568 1
5560 7557 1
5561 1113 1
5561 2317 1
5561 2797 1
5561 5045 1
5561 6548 1
5561 6856 1
5562 34 1
5562 172 1
5562 4335 1
5562 5110 1
5562 6758 1
5562 8601 1
5563 19 1
5563 310 1
5563 1912 1
5563 2400 1
5563 7484 1
5564 142 1
5564 683 1
5564 696 1
5564 5287 1
5564 7728 1
5564 9248 1
5565 1126 1
5565 1414 1
5565 1534 1
5565 1893 1
5565 5597 1
5565 5639 1
5565 6219 1
5565 6648 1
5565 7605 1
5565 7797 1
5565 8195 1
5565 8374 1
5565 9639 1
5566 660 1
5566 2178 1
5566 3674 1
5566 3969 1
5566 8619 1
5567 297 1
5567 3285 1
5567 3466 1
5567 3662 1
5567 6964 1
5567 7302 1
5567 7854 1
5567 8294 1
5568 59 1
5568 828 1
5568 888 1
5568 1315 1
5568 9107 1
5569 338 1
5569 913 1
5569 2143 1
5569 2519 1
5570 104 1
5570 259 1
5570 1142 1
5570 5413 1
5570 7156 1
5570 8539 1
5571 49 1
5571 183 1
5571 1612 1
5571 4746 1
5572 34 1
5572 183 1
5572 369 1
5572 4575 1
5572 6662 1
5572 9388 1
5573 666 1
5573 1381 1
5573 1566 1
5573 5064 1
5573 8383 1
5574 233 1
5574 612 1
5574 1375 1
5574 4711 1
5574 6288 1
5575 38 1
5575 479 1
5575 4161 1
5575 4441 1
5575 9927 1
5576 114 1
5576 385 1
5576 828 1
5576 1626 1
5576 6626 1
5577 831 1
5577 1271 1
5577 1666 1
5577 3124 1
5577 6238 1
5577 6697 1
5578 719 1
5578 868 1
5578 1708 1
5578 3939 1
5578 5903 1
5579 28 1
5579 714 1
5579 1177 1
5579 2556 1
5579 6497 1
5579 6523 1
5579 7535 1
5579 9453 1
5579 9511 1
5580 1515 1
5580 2395 1
5580 3175 1
5580 3194 1
5581 26 1
5581 1123 1
5581 2659 1
5581 5258 1
5581 5695 1
5581 6220 1
5581 9810 1
5581 9923 1
5582 289 1
5582 1290 1
5582 2468 1
5582 2679 1
5583 892 1
5583 2797 1
5583 4238 1
5583 5453 1
5584 305 1
5584 341 1
5584 3374 1
5584 3614 1
5584 7137 1
5584 7288 1
5585 133 1
5585 149 1
5585 229 1
5585 455 1
5586 42 1
5586 863 1
5586 2534 1
5586 3745 1
5587 91 1
5587 199 1
5587 1019 1
5587 2556 1
5587 6852 1
5587 8353 1
5588 6 1
5588 644 1
5588 3105 1
5588 3414 1
5588 7871 1
5589 38 1
5589 856 1
5589 1043 1
5589 1277 1
5590 154 1
5590 1671 1
5590 3298 1
5590 5543 1
5591 123 1
5591 290 1
5591 1426 1
5591 3790 1
5591 7313 1
5592 85 1
5592 2645 1
5592 2890 1
5592 5355 1
5592 6954 1
5592 8065 1
5593 11 1
5593 1861 1
5593 2852 1
5593 5425 1
5594 45 1
5594 572 1
5594 3317 1
5594 3322 1
5594 8091 1
5595 1 1
5595 38 1
5595 2007 1
5595 4663 1
5595 7108 1
5595 9686 1
5596 14 1
5596 174 1
5596 2771 1
5596 3197 1
5597 475 1
5597 505 1
5597 519 1
5597 5565 1
5597 7848 1
5598 1305 1
5598 3421 1
5598 3891 1
5598 4980 1
5598 7320 1
5598 7555 1
5598 8722 1
5598 8730 1
5598 8995 1
5599 16 1
5599 1634 1
5599 2752 1
5599 3272 1
5599 7676 1
5599 7677 1
5600 625 1
5600 987 1
5600 1003 1
5600 1608 1
5600 7192 1
5600 9354 1
5601 135 1
5601 1053 1
5601 1607 1
5601 4859 1
5601 5967 1
5601 6632 1
5602 2022 1
5602 2066 1
5602 2339 1
5602 2771 1
5602 5865 1
5603 63 1
5603 203 1
5603 539 1
5603 3169 1
5603 8729 1
5603 8810 1
5603 9872 1
5604 120 1
5604 539 1
5604 1277 1
5604 3553 1
5605 313 1
5605 1701 1
5605 4209 1
5605 4867 1
5606 364 1
5606 3563 1
5606 4056 1
5606 4609 1
5606 6162 1
5606 6476 1
5607 1569 1
5607 2227 1
5607 3130 1
5607 4207 1
5607 6062 1
5608 570 1
5608 1980 1
5608 2173 1
5608 3381 1
5608 5684 1
5608 6716 1
5608 9205 1
5609 949 1
5609 3790 1
5609 4423 1
5609 4772 1
5609 7250 1
5610 659 1
5610 2665 1
5610 4648 1
5610 4691 1
5610 8433 1
5611 17 1
5611 388 1
5611 536 1
5611 914 1
5612 138 1
5612 1476 1
5612 2775 1
5612 4734 1
5612 8208 1
5612 8770 1
5612 8808 1
5613 45 1
5613 97 1
5613 253 1
5613 2350 1
5613 8677 1
5614 2282 1
5614 4112 1
5614 4662 1
5614 5264 1
5615 330 1
5615 1035 1
5615 2968 1
5615 3995 1
5615 8624 1
5615 8735 1
5615 9605 1
5616 282 1
5616 564 1
5616 2199 1
5616 4103 1
5617 68 1
5617 714 1
5617 1294 1
5617 2577 1
5617 6601 1
5618 564 1
5618 1235 1
5618 1487 1
5618 2383 1
5619 115 1
5619 281 1
5619 1969 1
5619 2983 1
5620 485 1
5620 1421 1
5620 2141 1
5620 4998 1
5620 8037 1
5620 9716 1
5621 383 1
5621 1134 1
5621 3068 1
5621 4019 1
5622 76 1
5622 988 1
5622 2450 1
5622 4652 1
5622 7472 1
5623 523 1
5623 1263 1
5623 1785 1
5623 5548 1
5623 8157 1
5624 118 1
5624 3949 1
5624 4138 1
5624 4595 1
5625 1489 1
5625 1688 1
5625 2774 1
5625 2969 1
5625 6102 1
5625 8054 1
5625 9555 1
5626 363 1
5626 720 1
5626 1104 1
5626 2712 1
5626 6921 1
5626 8190 1
5627 592 1
5627 819 1
5627 3002 1
5627 3716 1
5627 9313 1
5628 165 1
5628 252 1
5628 718 1
5628 5556 1
5628 6993 1
5629 441 1
5629 1108 1
5629 2294 1
5629 4898 1
5630 797 1
5630 1800 1
5630 3541 1
5630 3904 1
5630 8182 1
5630 8264 1
5631 907 1
5631 1253 1
5631 1591 1
5631 2922 1
5631 6481 1
5631 7868 1
5631 8645 1
5632 223 1
5632 1305 1
5632 3322 1
5632 4043 1
5632 7602 1
5632 8117 1
5632 9260 1
5632 9432 1
5633 272 1
5633 3337 1
5633 4446 1
5633 5258 1
5634 6 1
5634 1076 1
5634 2499 1
5634 4967 1
5634 5988 1
5634 9626 1
5635 171 1
5635 1013 1
5635 2382 1
5635 3378 1
5635 7946 1
5636 34 1
5636 67 1
5636 1359 1
5636 4757 1
5637 560 1
5637 1201 1
5637 2595 1
5637 3424 1
5637 5677 1
5637 5824 1
5637 6062 1
5637 6738 1
5637 7753 1
5638 31 1
5638 106 1
5638 1620 1
5638 2344 1
5638 7464 1
5638 9758 1
5639 51 1
5639 120 1
5639 2458 1
5639 5565 1
5639 6394 1
5639 6872 1
5640 41 1
5640 904 1
5640 2264 1
5640 2446 1
5640 6811 1
5641 39 1
5641 342 1
5641 3397 1
5641 4030 1
5641 7179 1
5641 7738 1
5642 10 1
5642 3808 1
5642 4077 1
5642 5283 1
5642 8043 1
5643 688 1
5643 1886 1
5643 2416 1
5643 3813 1
5644 171 1
5644 667 1
5644 1683 1
5644 4073 1
5644 7699 1
5644 8697 1
5645 43 1
5645 2348 1
5645 2428 1
5645 4657 1
5645 7344 1
5646 904 1
5646 2333 1
5646 2732 1
5646 5541 1
5646 5958 1
5647 8 1
5647 631 1
5647 2281 1
5647 2302 1
5648 2453 1
5648 3328 1
5648 4294 1
5648 5271 1
5648 5823 1
5648 5839 1
5649 1338 1
5649 2359 1
5649 2728 1
5649 5061 1
5650 39 1
5650 693 1
5650 1189 1
5650 3673 1
5651 207 1
5651 962 1
5651 1276 1
5651 1692 1
5652 57 1
5652 1850 1
5652 2621 1
5652 3188 1
5652 6519 1
5652 8465 1
5653 227 1
5653 3131 1
5653 3499 1
5653 4950 1
5653 7315 1
5653 7377 1
5653 8726 1
5654 198 1
5654 599 1
5654 4736 1
5654 5289 1
5654 7172 1
5654 9156 1
5655 131 1
5655 572 1
5655 1990 1
5655 2287 1
5656 328 1
5656 1682 1
5656 2308 1
5656 4106 1
5656 5831 1
5656 8158 1
5657 137 1
5657 403 1
5657 871 1
5657 1582 1
5658 118 1
5658 1425 1
5658 3788 1
5658 5489 1
5658 6492 1
5659 125 1
5659 174 1
5659 985 1
5659 3114 1
5660 93 1
5660 262 1
5660 2136 1
5660 4295 1
5660 7919 1
5661 115 1
5661 600 1
5661 4305 1
5661 4489 1
5661 7844 1
5662 309 1
5662 3009 1
5662 4786 1
5662 5121 1
5662 6976 1
5662 7300 1
5663 1410 1
5663 1526 1
5663 1785 1
5663 5044 1
5663 6911 1
5663 9952 1
5664 5 1
5664 120 1
5664 3772 1
5664 4245 1
5665 19 1
5665 1660 1
5665 3559 1
5665 4198 1
5665 9440 1
5666 928 1
5666 1245 1
5666 2588 1
5666 3975 1
5667 213 1
5667 599 1
5667 891 1
5667 4208 1
5668 902 1
5668 1422 1
5668 2789 1
5668 3170 1
5668 7843 1
5669 1 1
5669 1113 1
5669 3730 1
5669 5264 1
5669 6337 1
5670 119 1
5670 523 1
5670 2180 1
5670 5106 1
5671 2359 1
5671 3728 1
5671 3835 1
5671 5331 1
5672 88 1
5672 220 1
5672 3447 1
5672 4858 1
5672 8152 1
5672 8250 1
5673 1553 1
5673 2248 1
5673 3871 1
5673 4324 1
5674 33 1
5674 1607 1
5674 2029 1
5674 2732 1
5674 7794 1
5674 8669 1
5675 1066 1
5675 1149 1
5675 3015 1
5675 3783 1
5675 5680 1
5675 6501 1
5675 8498 1
5676 83 1
5676 262 1
5676 429 1
5676 1553 1
5676 6489 1
5676 8663 1
5677 98 1
5677 273 1
5677 5013 1
5677 5637 1
5677 8079 1
5677 9969 1
5678 6 1
5678 1425 1
5678 3221 1
5678 4154 1
5678 7889 1
5678 9195 1
5678 9418 1
5678 9876 1
5679 58 1
5679 487 1
5679 1068 1
5679 1954 1
5679 7068 1
5679 9838 1
5680 854 1
5680 1171 1
5680 3150 1
5680 5675 1
5681 177 1
5681 1407 1
5681 3181 1
5681 3907 1
5682 188 1
5682 1462 1
5682 1626 1
5682 2175 1
5683 719 1
5683 1569 1
5683 2676 1
5683 3137 1
5684 120 1
5684 1332 1
5684 4739 1
5684 5608 1
5684 7552 1
5685 529 1
5685 664 1
5685 672 1
5685 1431 1
5686 848 1
5686 866 1
5686 874 1
5686 1151 1
5687 152 1
5687 1957 1
5687 2729 1
5687 4980 1
5688 271 1
5688 528 1
5688 595 1
5688 1019 1
5688 7252 1
5689 537 1
5689 595 1
5689 1541 1
5689 2044 1
5689 5755 1
5690 1224 1
5690 2795 1
5690 3415 1
5690 3530 1
5691 1200 1
5691 3354 1
5691 3837 1
5691 4374 1
5691 8763 1
5692 2016 1
5692 2098 1
5692 3977 1
5692 5112 1
5693 505 1
5693 794 1
5693 4365 1
5693 4495 1
5693 6262 1
5693 6716 1
5693 7906 1
5693 9840 1
5694 571 1
5694 598 1
5694 2583 1
5694 3192 1
5694 7573 1
5695 6 1
5695 5113 1
5695 5339 1
5695 5581 1
5696 294 1
5696 423 1
5696 1250 1
5696 4621 1
5696 7168 1
5697 96 1
5697 761 1
5697 3592 1
5697 4577 1
5698 268 1
5698 370 1
5698 838 1
5698 3274 1
5699 581 1
5699 968 1
5699 2136 1
5699 2375 1
5699 6447 1
5699 8102 1
5699 8727 1
5700 2380 1
5700 2700 1
5700 3763 1
5700 5142 1
5700 7492 1
5701 64 1
5701 1647 1
5701 3159 1
5701 3791 1
5701 5743 1
5702 485 1
5702 1862 1
5702 2370 1
5702 2570 1
5702 7076 1
5702 7141 1
5703 105 1
5703 1173 1
5703 1475 1
5703 2078 1
5703 6980 1
5704 1444 1
5704 1875 1
5704 1984 1
5704 4813 1
5704 5971 1
5704 6130 1
5705 142 1
5705 295 1
5705 1746 1
5705 5558 1
5706 1041 1
5706 1270 1
5706 2594 1
5706 4740 1
5707 14 1
5707 96 1
5707 3169 1
5707 4624 1
5707 7796 1
5707 9123 1
5708 266 1
5708 303 1
5708 528 1
5708 4063 1
5708 9175 1
5709 987 1
5709 1468 1
5709 1852 1
5709 4862 1
5709 8708 1
5710 112 1
5710 233 1
5710 421 1
5710 5112 1
5711 338 1
5711 651 1
5711 1673 1
5711 1760 1
5711 6579 1
5711 6877 1
5712 52 1
5712 84 1
5712 444 1
5712 3956 1
5712 7692 1
5712 9467 1
5713 1 1
5713 5 1
5713 6 1
5713 39 1
5713 8097 1
5714 65 1
5714 269 1
5714 4651 1
5714 5321 1
5715 415 1
5715 840 1
5715 2104 1
5715 2112 1
5715 7671 1
5716 1251 1
5716 1607 1
5716 1941 1
5716 3785 1
5717 48 1
5717 1318 1
5717 1529 1
5717 2069 1
5717 6093 1
5717 9945 1
5718 331 1
5718 523 1
5718 1069 1
5718 1755 1
5718 7907 1
5719 64 1
5719 175 1
5719 2161 1
5719 2732 1
5719 7020 1
5719 7496 1
5719 7895 1
5719 8075 1
5719 9110 1
5719 9474 1
5720 1370 1
5720 1609 1
5720 2263 1
5720 4722 1
5720 5845 1
5720 5985 1
5721 156 1
5721 254 1
5721 768 1
5721 874 1
5722 884 1
5722 1181 1
5722 2427 1
5722 5386 1
5722 6934 1
5723 580 1
5723 737 1
5723 970 1
5723 2607 1
5723 6852 1
5723 7429 1
5723 7691 1
5723 8643 1
5724 244 1
5724 2009 1
5724 2474 1
5724 3835 1
5725 11 1
5725 27 1
5725 109 1
5725 166 1
5725 7165 1
5726 295 1
5726 1337 1
5726 3634 1
5726 4140 1
5727 11 1
5727 326 1
5727 3271 1
5727 3573 1
5728 301 1
5728 879 1
5728 1764 1
5728 3067 1
5728 7433 1
5729 1544 1
5729 2617 1
5729 3275 1
5729 5219 1
5730 5 1
5730 633 1
5730 696 1
5730 4455 1
5731 1164 1
5731 1905 1
5731 4333 1
5731 4816 1
5731 7963 1
5732 260 1
5732 305 1
5732 3741 1
5732 4070 1
5733 114 1
5733 219 1
5733 2523 1
5733 4090 1
5733 7736 1
5733 8368 1
5733 9641 1
5734 767 1
5734 1057 1
5734 1749 1
5734 2562 1
5734 8241 1
5734 8334 1
5735 5 1
5735 13 1
5735 115 1
5735 1376 1
5736 277 1
5736 317 1
5736 538 1
5736 2406 1
5737 31 1
5737 4090 1
5737 4766 1
5737 5394 1
5737 6889 1
5737 7226 1
5737 8298 1
5737 8386 1
5738 166 1
5738 249 1
5738 1133 1
5738 2846 1
5739 267 1
5739 1376 1
5739 2989 1
5739 5079 1
5740 40 1
5740 116 1
5740 698 1
5740 3458 1
5740 7471 1
5740 8305 1
5740 9718 1
5741 16 1
5741 1096 1
5741 3757 1
5741 4911 1
5741 8427 1
5742 19 1
5742 213 1
5742 229 1
5742 2117 1
5742 7167 1
5742 8606 1
5742 8871 1
5743 1356 1
5743 1871 1
5743 3165 1
5743 5701 1
5743 6742 1
5744 1213 1
5744 2391 1
5744 4445 1
5744 5129 1
5745 1260 1
5745 2573 1
5745 3370 1
5745 5060 1
5746 58 1
5746 467 1
5746 667 1
5746 4858 1
5746 5912 1
5746 7189 1
5746 8027 1
5746 8437 1
5747 551 1
5747 646 1
5747 2265 1
5747 4328 1
5747 9004 1
5748 741 1
5748 2031 1
5748 4301 1
5748 5395 1
5749 1651 1
5749 4576 1
5749 4591 1
5749 4747 1
5749 7862 1
5750 9 1
5750 586 1
5750 2512 1
5750 2616 1
5750 6398 1
5750 6427 1
5751 159 1
5751 1702 1
5751 2624 1
5751 3309 1
5752 58 1
5752 145 1
5752 3870 1
5752 5338 1
5752 6450 1
5752 6977 1
5752 7097 1
5753 387 1
5753 1053 1
5753 2682 1
5753 5326 1
5753 6648 1
5753 6679 1
5754 286 1
5754 532 1
5754 1474 1
5754 2130 1
5754 6239 1
5754 6370 1
5755 415 1
5755 1312 1
5755 1715 1
5755 5689 1
5755 8839 1
5756 99 1
5756 4183 1
5756 5140 1
5756 5185 1
5756 7758 1
5756 9058 1
5757 25 1
5757 637 1
5757 1553 1
5757 1601 1
5757 7292 1
5757 7382 1
5758 14 1
5758 610 1
5758 2544 1
5758 3826 1
5758 5804 1
5758 9433 1
5759 326 1
5759 427 1
5759 1086 1
5759 1368 1
5760 652 1
5760 2440 1
5760 4360 1
5760 5334 1
5761 65 1
5761 115 1
5761 885 1
5761 1928 1
5761 8123 1
5761 9884 1
5762 523 1
5762 2336 1
5762 2604 1
5762 2828 1
5763 1302 1
5763 1399 1
5763 1775 1
5763 5185 1
5764 270 1
5764 1901 1
5764 2113 1
5764 3422 1
5764 6748 1
5764 8793 1
5764 9925 1
5765 11 1
5765 1261 1
5765 3392 1
5765 3820 1
5766 539 1
5766 1019 1
5766 1682 1
5766 4593 1
5766 8066 1
5766 9102 1
5766 9866 1
5767 1578 1
5767 2852 1
5767 4615 1
5767 5543 1
5767 5810 1
5767 7116 1
5768 1818 1
5768 2777 1
5768 4629 1
5768 5382 1
5768 9155 1
5769 29 1
5769 184 1
5769 2532 1
5769 4251 1
5769 7528 1
5770 29 1
5770 535 1
5770 2417 1
5770 3163 1
5770 7144 1
5771 54 1
5771 723 1
5771 1017 1
5771 1918 1
5771 6348 1
5772 1848 1
5772 1915 1
5772 3186 1
5772 5475 1
5772 8681 1
5773 30 1
5773 1056 1
5773 4111 1
5773 4487 1
5773 5926 1
5773 7463 1
5773 7922 1
5774 26 1
5774 76 1
5774 130 1
5774 5358 1
5775 427 1
5775 1113 1
5775 1608 1
5775 2526 1
5775 6685 1
5776 143 1
5776 822 1
5776 2477 1
5776 3560 1
5776 8703 1
5777 1608 1
5777 3727 1
5777 3818 1
5777 4919 1
5778 110 1
5778 277 1
5778 938 1
5778 1225 1
5778 8579 1
5779 63 1
5779 182 1
5779 1563 1
5779 1805 1
5779 5979 1
5780 57 1
5780 134 1
5780 478 1
5780 1558 1
5781 1 1
5781 43 1
5781 3919 1
5781 5039 1
5781 7776 1
5781 8290 1
5781 9100 1
5782 347 1
5782 1893 1
5782 2791 1
5782 2800 1
5782 8663 1
5783 26 1
5783 329 1
5783 447 1
5783 5034 1
5783 8196 1
5784 542 1
5784 1596 1
5784 2179 1
5784 2976 1
5785 2443 1
5785 3268 1
5785 4676 1
5785 5145 1
5785 8657 1
5786 110 1
5786 4109 1
5786 4117 1
5786 5423 1
5786 8655 1
5786 8799 1
5786 9743 1
5787 1414 1
5787 1972 1
5787 2476 1
5787 4178 1
5787 8945 1
5788 31 1
5788 1138 1
5788 1909 1
5788 5340 1
5788 7211 1
5789 43 1
5789 425 1
5789 588 1
5789 1483 1
5790 16 1
5790 1092 1
5790 3093 1
5790 3174 1
5790 7759 1
5791 1631 1
5791 2635 1
5791 3681 1
5791 4821 1
5791 7630 1
5791 8244 1
5792 23 1
5792 120 1
5792 1168 1
5792 3212 1
5793 152 1
5793 1253 1
5793 1815 1
5793 3142 1
5793 5985 1
5793 8025 1
5793 8194 1
5794 11 1
5794 750 1
5794 1261 1
5794 2058 1
5794 7972 1
5795 250 1
5795 859 1
5795 1270 1
5795 2586 1
5795 6620 1
5796 255 1
5796 620 1
5796 714 1
5796 983 1
5796 6088 1
5796 8852 1
5796 9245 1
5796 9302 1
5797 845 1
5797 1128 1
5797 2125 1
5797 4402 1
5797 9717 1
5798 5 1
5798 1058 1
5798 1858 1
5798 4703 1
5799 26 1
5799 572 1
5799 1479 1
5799 1843 1
5799 6754 1
5800 20 1
5800 282 1
5800 1246 1
5800 4392 1
5801 732 1
5801 1121 1
5801 5013 1
5801 5360 1
5802 91 1
5802 441 1
5802 1239 1
5802 2878 1
5803 255 1
5803 504 1
5803 3277 1
5803 4527 1
5803 6002 1
5803 6598 1
5803 6650 1
5803 6791 1
5803 6836 1
5803 8907 1
5803 9427 1
5804 2053 1
5804 2935 1
5804 3936 1
5804 5758 1
5805 537 1
5805 898 1
5805 2221 1
5805 5327 1
5805 6395 1
5805 8048 1
5805 8195 1
5806 281 1
5806 707 1
5806 1590 1
5806 4088 1
5806 6575 1
5806 7340 1
5807 718 1
5807 756 1
5807 1797 1
5807 3244 1
5807 8503 1
5807 8679 1
5808 3 1
5808 36 1
5808 498 1
5808 1729 1
5808 6784 1
5809 38 1
5809 498 1
5809 872 1
5809 1360 1
5809 6027 1
5810 4 1
5810 234 1
5810 2205 1
5810 5767 1
5810 6137 1
5810 6878 1
5810 7534 1
5810 8150 1
5810 9298 1
5811 344 1
5811 1447 1
5811 1553 1
5811 5009 1
5811 9222 1
5811 9623 1
5812 389 1
5812 1553 1
5812 4366 1
5812 5466 1
5812 9652 1
5813 323 1
5813 1238 1
5813 4808 1
5813 5456 1
5813 5992 1
5814 690 1
5814 969 1
5814 1391 1
5814 2904 1
5815 115 1
5815 1990 1
5815 2896 1
5815 4669 1
5815 6505 1
5815 7818 1
5816 161 1
5816 826 1
5816 1981 1
5816 2653 1
5816 8047 1
5816 8840 1
5816 9549 1
5817 910 1
5817 1777 1
5817 2156 1
5817 5265 1
5818 1532 1
5818 2502 1
5818 3166 1
5818 3287 1
5818 5940 1
5818 9035 1
5819 273 1
5819 971 1
5819 3322 1
5819 4210 1
5819 7371 1
5819 7945 1
5820 465 1
5820 1294 1
5820 1715 1
5820 2411 1
5821 38 1
5821 1185 1
5821 3577 1
5821 4081 1
5822 1 1
5822 1343 1
5822 1429 1
5822 5255 1
5822 6141 1
5822 7425 1
5823 3 1
5823 1176 1
5823 1791 1
5823 5648 1
5823 7637 1
5824 906 1
5824 4014 1
5824 4148 1
5824 5637 1
5824 8103 1
5824 8599 1
5825 429 1
5825 939 1
5825 2292 1
5825 2485 1
5826 179 1
5826 1297 1
5826 1757 1
5826 2561 1
5827 36 1
5827 1745 1
5827 5204 1
5827 5228 1
5828 72 1
5828 221 1
5828 1422 1
5828 3375 1
5828 6255 1
5828 6426 1
5829 759 1
5829 800 1
5829 4477 1
5829 4515 1
5829 8271 1
5830 163 1
5830 498 1
5830 3230 1
5830 4010 1
5830 8584 1
5831 2485 1
5831 2882 1
5831 3163 1
5831 5656 1
5831 6050 1
5832 699 1
5832 983 1
5832 2086 1
5832 3433 1
5832 6190 1
5832 7598 1
5832 8051 1
5832 8886 1
5833 1139 1
5833 2960 1
5833 4309 1
5833 5513 1
5833 5914 1
5833 9331 1
5834 39 1
5834 57 1
5834 1071 1
5834 5399 1
5835 305 1
5835 876 1
5835 1079 1
5835 3248 1
5835 6342 1
5835 7107 1
5835 7944 1
5835 8067 1
5835 9649 1
5835 9859 1
5836 272 1
5836 2755 1
5836 4314 1
5836 5027 1
5837 203 1
5837 1631 1
5837 2256 1
5837 4478 1
5837 8930 1
5838 38 1
5838 90 1
5838 295 1
5838 820 1
5838 7217 1
5838 8972 1
5839 180 1
5839 1236 1
5839 4315 1
5839 5648 1
5839 6444 1
5840 10 1
5840 1079 1
5840 1082 1
5840 2571 1
5840 6970 1
5841 17 1
5841 39 1
5841 766 1
5841 1047 1
5841 8889 1
5842 25 1
5842 335 1
5842 687 1
5842 994 1
5842 7709 1
5843 639 1
5843 1409 1
5843 1567 1
5843 4715 1
5843 7764 1
5844 215 1
5844 1219 1
5844 2658 1
5844 4908 1
5845 227 1
5845 2112 1
5845 4802 1
5845 5720 1
5846 54 1
5846 1021 1
5846 4715 1
5846 4733 1
5847 12 1
5847 83 1
5847 2959 1
5847 3150 1
5848 1540 1
5848 2420 1
5848 3527 1
5848 3783 1
5849 7 1
5849 95 1
5849 1945 1
5849 5335 1
5850 765 1
5850 1474 1
5850 3364 1
5850 3504 1
5850 6302 1
5851 32 1
5851 166 1
5851 1662 1
5851 1780 1
5851 8901 1
5851 9353 1
5852 26 1
5852 1454 1
5852 1784 1
5852 4763 1
5852 6873 1
5853 647 1
5853 713 1
5853 1001 1
5853 4881 1
5854 708 1
5854 983 1
5854 1106 1
5854 1957 1
5855 474 1
5855 2357 1
5855 2507 1
5855 2944 1
5855 6734 1
5855 8695 1
5856 655 1
5856 2887 1
5856 2988 1
5856 4686 1
5856 6746 1
5857 521 1
5857 1162 1
5857 2175 1
5857 2966 1
5858 61 1
5858 518 1
5858 1619 1
5858 5441 1
5858 5888 1
5858 9264 1
5859 1554 1
5859 3878 1
5859 3929 1
5859 5510 1
5859 6323 1
5859 6336 1
5859 6493 1
5860 69 1
5860 347 1
5860 654 1
5860 2668 1
5861 81 1
5861 737 1
5861 4104 1
5861 5302 1
5861 8911 1
5861 9951 1
5862 452 1
5862 2542 1
5862 3406 1
5862 5006 1
5862 7450 1
5863 12 1
5863 1166 1
5863 1860 1
5863 3397 1
5863 8515 1
5864 34 1
5864 215 1
5864 1416 1
5864 2900 1
5865 2977 1
5865 3572 1
5865 4630 1
5865 5602 1
5865 7340 1
5865 8619 1
5866 6 1
5866 422 1
5866 655 1
5866 3966 1
5867 36 1
5867 133 1
5867 134 1
5867 424 1
5868 753 1
5868 1484 1
5868 1506 1
5868 3308 1
5868 6454 1
5868 8090 1
5869 98 1
5869 221 1
5869 1139 1
5869 3417 1
5869 6306 1
5869 9193 1
5870 63 1
5870 429 1
5870 857 1
5870 5519 1
5871 131 1
5871 264 1
5871 2325 1
5871 3166 1
5871 8541 1
5871 8750 1
5872 6 1
5872 1053 1
5872 2622 1
5872 3223 1
5872 9352 1
5873 884 1
5873 1039 1
5873 1041 1
5873 4887 1
5873 6309 1
5874 89 1
5874 1284 1
5874 5247 1
5874 5437 1
5874 6275 1
5874 7795 1
5874 8174 1
5874 8784 1
5874 9909 1
5875 193 1
5875 227 1
5875 3100 1
5875 4521 1
5876 175 1
5876 3649 1
5876 3676 1
5876 4524 1
5876 6006 1
5876 6767 1
5876 8877 1
5876 9268 1
5877 832 1
5877 2543 1
5877 3916 1
5877 5340 1
5878 17 1
5878 102 1
5878 5166 1
5878 5413 1
5879 671 1
5879 2809 1
5879 5013 1
5879 5320 1
5880 403 1
5880 524 1
5880 952 1
5880 2121 1
5881 79 1
5881 200 1
5881 580 1
5881 5331 1
5881 7362 1
5881 8434 1
5882 508 1
5882 3008 1
5882 4813 1
5882 5493 1
5882 8038 1
5883 171 1
5883 485 1
5883 934 1
5883 2949 1
5883 7706 1
5884 348 1
5884 417 1
5884 699 1
5884 2933 1
5884 7634 1
5885 507 1
5885 652 1
5885 1412 1
5885 3402 1
5885 8274 1
5885 8864 1
5886 647 1
5886 1274 1
5886 4857 1
5886 5179 1
5886 5903 1
5886 8614 1
5887 241 1
5887 3303 1
5887 4663 1
5887 5078 1
5888 1165 1
5888 2173 1
5888 2268 1
5888 5858 1
5889 85 1
5889 914 1
5889 3392 1
5889 4185 1
5890 473 1
5890 748 1
5890 1365 1
5890 3742 1
5890 6030 1
5890 8280 1
5890 9445 1
5891 61 1
5891 2715 1
5891 4054 1
5891 4613 1
5891 7111 1
5892 78 1
5892 615 1
5892 2709 1
5892 5289 1
5892 6366 1
5892 7680 1
5892 7712 1
5893 1103 1
5893 1696 1
5893 2649 1
5893 3069 1
5893 7187 1
5893 7780 1
5894 573 1
5894 1106 1
5894 1884 1
5894 2071 1
5895 2519 1
5895 2550 1
5895 3012 1
5895 4290 1
5896 365 1
5896 1634 1
5896 3712 1
5896 4744 1
5896 6554 1
5896 8952 1
5897 351 1
5897 799 1
5897 2340 1
5897 3337 1
5897 5930 1
5897 6272 1
5897 8029 1
5897 8826 1
5898 14 1
5898 2974 1
5898 3864 1
5898 4236 1
5898 6066 1
5898 8399 1
5898 8435 1
5899 281 1
5899 339 1
5899 562 1
5899 1556 1
5900 279 1
5900 493 1
5900 1896 1
5900 3898 1
5900 6468 1
5901 96 1
5901 1207 1
5901 3949 1
5901 4991 1
5901 8318 1
5902 49 1
5902 3832 1
5902 4254 1
5902 4450 1
5902 9986 1
5903 57 1
5903 5469 1
5903 5578 1
5903 5886 1
5903 9166 1
5904 165 1
5904 1928 1
5904 3830 1
5904 4677 1
5904 7147 1
5904 8535 1
5904 9872 1
5905 37 1
5905 188 1
5905 881 1
5905 2348 1
5905 6085 1
5905 9784 1
5906 24 1
5906 361 1
5906 660 1
5906 2800 1
5907 1172 1
5907 1347 1
5907 4749 1
5907 4779 1
5907 6535 1
5908 5 1
5908 124 1
5908 1334 1
5908 1836 1
5909 1589 1
5909 2348 1
5909 2649 1
5909 3730 1
5909 6673 1
5909 8381 1
5910 38 1
5910 429 1
5910 4237 1
5910 4872 1
5910 6717 1
5911 46 1
5911 71 1
5911 2018 1
5911 4624 1
5911 9419 1
5912 3112 1
5912 3504 1
5912 4294 1
5912 5746 1
5912 8024 1
5913 575 1
5913 2108 1
5913 3711 1
5913 4379 1
5913 7360 1
5913 8326 1
5913 9002 1
5914 173 1
5914 209 1
5914 2442 1
5914 5833 1
5914 6712 1
5915 1561 1
5915 2282 1
5915 3057 1
5915 3891 1
5915 8943 1
5916 149 1
5916 212 1
5916 271 1
5916 1502 1
5917 1124 1
5917 3163 1
5917 3252 1
5917 4873 1
5918 673 1
5918 2493 1
5918 4736 1
5918 5294 1
5918 5929 1
5919 96 1
5919 862 1
5919 1245 1
5919 4207 1
5919 7072 1
5919 9902 1
5920 105 1
5920 479 1
5920 1168 1
5920 1754 1
5921 245 1
5921 1201 1
5921 2999 1
5921 4806 1
5922 6 1
5922 1057 1
5922 2733 1
5922 4618 1
5922 8591 1
5923 6 1
5923 2809 1
5923 4573 1
5923 4796 1
5923 6256 1
5923 8652 1
5923 9976 1
5924 2023 1
5924 2449 1
5924 2953 1
5924 3986 1
5924 6955 1
5924 9520 1
5925 664 1
5925 1670 1
5925 1860 1
5925 3911 1
5925 7077 1
5925 7407 1
5925 9652 1
5926 2501 1
5926 4229 1
5926 5483 1
5926 5773 1
5926 6968 1
5927 21 1
5927 506 1
5927 1544 1
5927 3807 1
5927 8904 1
5928 143 1
5928 329 1
5928 636 1
5928 4031 1
5928 6815 1
5929 121 1
5929 2262 1
5929 3546 1
5929 5918 1
5930 1552 1
5930 1678 1
5930 2965 1
5930 5897 1
5930 6178 1
5931 8 1
5931 278 1
5931 535 1
5931 5005 1
5931 6131 1
5931 7322 1
5932 11 1
5932 506 1
5932 892 1
5932 5354 1
5932 8275 1
5932 8559 1
5933 49 1
5933 188 1
5933 1064 1
5933 5223 1
5934 732 1
5934 1081 1
5934 1721 1
5934 1901 1
5934 9420 1
5935 2718 1
5935 3606 1
5935 3680 1
5935 4915 1
5935 8631 1
5936 643 1
5936 926 1
5936 1444 1
5936 4797 1
5936 7660 1
5936 9739 1
5937 632 1
5937 2007 1
5937 3286 1
5937 5332 1
5937 8992 1
5938 120 1
5938 696 1
5938 1227 1
5938 2244 1
5938 6363 1
5938 9082 1
5939 224 1
5939 2017 1
5939 2733 1
5939 2753 1
5939 6171 1
5940 45 1
5940 1513 1
5940 5100 1
5940 5818 1
5941 305 1
5941 761 1
5941 781 1
5941 1890 1
5941 7655 1
5942 28 1
5942 415 1
5942 1602 1
5942 1916 1
5942 6697 1
5942 8282 1
5943 27 1
5943 143 1
5943 446 1
5943 5112 1
5944 219 1
5944 726 1
5944 1508 1
5944 2359 1
5944 8976 1
5944 9925 1
5945 303 1
5945 3086 1
5945 3149 1
5945 5149 1
5946 115 1
5946 151 1
5946 971 1
5946 2560 1
5947 66 1
5947 994 1
5947 2899 1
5947 3766 1
5948 426 1
5948 484 1
5948 1043 1
5948 2526 1
5948 8773 1
5949 78 1
5949 101 1
5949 3560 1
5949 3796 1
5949 8859 1
5950 581 1
5950 1409 1
5950 1521 1
5950 2401 1
5950 9380 1
5951 3 1
5951 179 1
5951 433 1
5951 1399 1
5952 97 1
5952 105 1
5952 500 1
5952 1529 1
5953 42 1
5953 1420 1
5953 2212 1
5953 3155 1
5954 41 1
5954 244 1
5954 2423 1
5954 4014 1
5954 9103 1
5955 404 1
5955 562 1
5955 1329 1
5955 2063 1
5955 8839 1
5956 491 1
5956 1023 1
5956 1368 1
5956 4931 1
5956 8712 1
5957 55 1
5957 286 1
5957 1877 1
5957 3303 1
5957 6370 1
5957 9364 1
5958 2274 1
5958 2532 1
5958 3720 1
5958 5646 1
5959 543 1
5959 2005 1
5959 2022 1
5959 4808 1
5959 5994 1
5960 148 1
5960 2267 1
5960 3768 1
5960 5504 1
5961 31 1
5961 81 1
5961 1047 1
5961 2732 1
5961 8616 1
5961 8680 1
5962 580 1
5962 1893 1
5962 4484 1
5962 4643 1
5962 7701 1
5962 8877 1
5963 45 1
5963 173 1
5963 180 1
5963 2184 1
5963 6519 1
5964 16 1
5964 3356 1
5964 3379 1
5964 4573 1
5964 6223 1
5965 1127 1
5965 1978 1
5965 2065 1
5965 5238 1
5965 7145 1
5966 93 1
5966 1849 1
5966 4021 1
5966 4143 1
5966 6208 1
5967 5 1
5967 129 1
5967 1314 1
5967 5601 1
5968 6 1
5968 142 1
5968 527 1
5968 2117 1
5969 829 1
5969 961 1
5969 2872 1
5969 5417 1
5969 6888 1
5970 1 1
5970 33 1
5970 756 1
5970 4391 1
5970 9425 1
5971 496 1
5971 4070 1
5971 4794 1
5971 5704 1
5972 316 1
5972 886 1
5972 1210 1
5972 3993 1
5972 6233 1
5972 9449 1
5973 425 1
5973 1406 1
5973 2408 1
5973 3993 1
5973 9605 1
5974 633 1
5974 1542 1
5974 1650 1
5974 2870 1
5975 1815 1
5975 2599 1
5975 4870 1
5975 5524 1
5975 8456 1
5976 280 1
5976 365 1
5976 1664 1
5976 3963 1
5977 95 1
5977 1019 1
5977 2062 1
5977 3340 1
5977 8482 1
5978 303 1
5978 1110 1
5978 1684 1
5978 2194 1
5979 54 1
5979 725 1
5979 3364 1
5979 5779 1
5979 6389 1
5980 99 1
5980 1039 1
5980 4766 1
5980 4849 1
5981 7 1
5981 148 1
5981 1741 1
5981 1798 1
5982 304 1
5982 448 1
5982 1727 1
5982 2041 1
5983 14 1
5983 602 1
5983 816 1
5983 1974 1
5983 6785 1
5984 85 1
5984 1939 1
5984 2485 1
5984 3662 1
5984 7520 1
5984 8704 1
5984 9446 1
5984 9759 1
5984 9783 1
5985 421 1
5985 3136 1
5985 5720 1
5985 5793 1
5985 9197 1
5986 123 1
5986 159 1
5986 3207 1
5986 3322 1
5986 6492 1
5986 7087 1
5986 7165 1
5986 8383 1
5986 8492 1
5987 173 1
5987 2973 1
5987 3053 1
5987 3091 1
5987 7102 1
5987 9682 1
5988 1805 1
5988 3637 1
5988 5095 1
5988 5634 1
5988 7648 1
5988 9609 1
5989 313 1
5989 465 1
5989 2781 1
5989 4646 1
5990 7 1
5990 43 1
5990 373 1
5990 1123 1
5990 6383 1
5990 6773 1
5990 8626 1
5991 279 1
5991 417 1
5991 2150 1
5991 4498 1
5992 67 1
5992 1068 1
5992 3881 1
5992 5813 1
5993 25 1
5993 590 1
5993 4497 1
5993 5206 1
5994 388 1
5994 426 1
5994 565 1
5994 5959 1
5994 7348 1
5994 8519 1
5995 67 1
5995 216 1
5995 637 1
5995 1782 1
5996 1082 1
5996 1279 1
5996 2000 1
5996 3307 1
5996 8599 1
5996 9482 1
5997 870 1
5997 1026 1
5997 2205 1
5997 3982 1
5997 9740 1
5998 149 1
5998 162 1
5998 1215 1
5998 5128 1
5998 6435 1
5998 6821 1
5998 9896 1
5998 9932 1
5999 173 1
5999 501 1
5999 1272 1
5999 3126 1
6000 467 1
6000 1246 1
6000 4712 1
6000 5126 1
6000 7178 1
6001 13 1
6001 761 1
6001 1074 1
6001 2777 1
6001 6761 1
6002 1358 1
6002 2735 1
6002 5545 1
6002 5803 1
6003 197 1
6003 2277 1
6003 3390 1
6003 5297 1
6004 477 1
6004 1077 1
6004 2394 1
6004 5088 1
6004 6045 1
6004 7358 1
6004 7857 1
6004 9738 1
6005 6 1
6005 330 1
6005 1833 1
6005 4211 1
6006 46 1
6006 2802 1
6006 3229 1
6006 5876 1
6006 6167 1
6006 8040 1
6007 8 1
6007 19 1
6007 724 1
6007 4586 1
6007 9078 1
6007 9903 1
6008 274 1
6008 294 1
6008 958 1
6008 5245 1
6008 6026 1
6008 6117 1
6008 6550 1
6008 7253 1
6008 9046 1
6009 1 1
6009 3 1
6009 9 1
6009 994 1
6009 9257 1
6009 9333 1
6010 117 1
6010 724 1
6010 2704 1
6010 4427 1
6011 9 1
6011 156 1
6011 1908 1
6011 5084 1
6012 76 1
6012 900 1
6012 2119 1
6012 3123 1
6012 8874 1
6013 1034 1
6013 1634 1
6013 2748 1
6013 3835 1
6014 521 1
6014 1590 1
6014 1777 1
6014 5538 1
6014 7449 1
6015 134 1
6015 1202 1
6015 1619 1
6015 3835 1
6016 766 1
6016 888 1
6016 5158 1
6016 5232 1
6016 7151 1
6016 7976 1
6017 103 1
6017 1401 1
6017 4493 1
6017 5440 1
6017 9841 1
6018 9 1
6018 34 1
6018 2853 1
6018 5129 1
6018 8088 1
6018 9266 1
6019 79 1
6019 257 1
6019 3795 1
6019 3826 1
6020 199 1
6020 1086 1
6020 3084 1
6020 3814 1
6020 7544 1
6021 63 1
6021 405 1
6021 1585 1
6021 1719 1
6021 6700 1
6021 9533 1
6022 35 1
6022 1975 1
6022 2446 1
6022 3587 1
6022 6314 1
6023 1154 1
6023 2717 1
6023 4192 1
6023 5479 1
6023 7991 1
6024 104 1
6024 2425 1
6024 3925 1
6024 5404 1
6025 22 1
6025 140 1
6025 958 1
6025 3087 1
6025 8673 1
6026 1036 1
6026 1056 1
6026 1652 1
6026 6008 1
6026 7252 1
6026 9955 1
6027 1141 1
6027 2277 1
6027 4844 1
6027 5809 1
6027 6169 1
6027 7959 1
6028 345 1
6028 1004 1
6028 4483 1
6028 5226 1
6029 1522 1
6029 2016 1
6029 2250 1
6029 2408 1
6029 9754 1
6030 120 1
6030 986 1
6030 3119 1
6030 5890 1
6031 15 1
6031 1172 1
6031 2881 1
6031 4946 1
6032 437 1
6032 718 1
6032 3248 1
6032 4503 1
6033 630 1
6033 3417 1
6033 3546 1
6033 4882 1
6033 6596 1
6033 8901 1
6033 9882 1
6034 1767 1
6034 3196 1
6034 4293 1
6034 4504 1
6035 230 1
6035 3342 1
6035 3420 1
6035 3838 1
6036 49 1
6036 70 1
6036 1048 1
6036 2917 1
6036 8708 1
6037 1088 1
6037 2166 1
6037 2561 1
6037 2587 1
6038 36 1
6038 38 1
6038 268 1
6038 2845 1
6038 6167 1
6038 8185 1
6038 9412 1
6039 2774 1
6039 3848 1
6039 3878 1
6039 4906 1
6040 891 1
6040 1246 1
6040 2721 1
6040 5388 1
6040 8394 1
6041 137 1
6041 815 1
6041 1154 1
6041 2158 1
6041 8563 1
6042 6 1
6042 259 1
6042 1549 1
6042 4089 1
6042 6081 1
6042 8495 1
6043 1126 1
6043 1338 1
6043 3074 1
6043 3462 1
6043 8032 1
6043 9352 1
6044 4 1
6044 17 1
6044 48 1
6044 2503 1
6045 860 1
6045 3712 1
6045 4496 1
6045 6004 1
6046 120 1
6046 364 1
6046 1307 1
6046 1398 1
6047 13 1
6047 1598 1
6047 2596 1
6047 3207 1
6048 147 1
6048 177 1
6048 4185 1
6048 4379 1
6049 644 1
6049 1100 1
6049 1664 1
6049 2551 1
6049 6627 1
6050 319 1
6050 396 1
6050 1022 1
6050 5831 1
6050 6289 1
6051 528 1
6051 690 1
6051 2580 1
6051 3388 1
6051 7913 1
6052 1198 1
6052 1598 1
6052 1791 1
6052 3838 1
6053 36 1
6053 301 1
6053 1738 1
6053 3220 1
6054 274 1
6054 828 1
6054 1308 1
6054 4982 1
6054 6197 1
6054 8280 1
6055 398 1
6055 3572 1
6055 3990 1
6055 4158 1
6055 7876 1
6055 8307 1
6056 13 1
6056 1757 1
6056 1874 1
6056 3954 1
6056 7406 1
6056 7845 1
6057 153 1
6057 2824 1
6057 3193 1
6057 4590 1
6057 6969 1
6058 502 1
6058 1128 1
6058 1319 1
6058 3502 1
6059 137 1
6059 1147 1
6059 2717 1
6059 5219 1
6059 7027 1
6060 379 1
6060 1908 1
6060 2287 1
6060 3876 1
6060 6361 1
6061 628 1
6061 1038 1
6061 1784 1
6061 2503 1
6062 3372 1
6062 5398 1
6062 5607 1
6062 5637 1
6063 17 1
6063 142 1
6063 298 1
6063 1825 1
6064 48 1
6064 1074 1
6064 2775 1
6064 3818 1
6064 7048 1
6065 1009 1
6065 1939 1
6065 2957 1
6065 5443 1
6065 6431 1
6065 9133 1
6066 802 1
6066 1059 1
6066 1583 1
6066 5898 1
6067 14 1
6067 258 1
6067 2493 1
6067 4309 1
6067 6405 1
6067 8231 1
6067 8592 1
6068 65 1
6068 1171 1
6068 2123 1
6068 2952 1
6069 47 1
6069 325 1
6069 874 1
6069 1246 1
6070 204 1
6070 221 1
6070 848 1
6070 920 1
6071 1259 1
6071 1510 1
6071 2531 1
6071 5198 1
6071 6665 1
6072 16 1
6072 775 1
6072 3115 1
6072 3548 1
6072 7946 1
6073 1396 1
6073 1677 1
6073 4170 1
6073 4619 1
6074 14 1
6074 3354 1
6074 4448 1
6074 4723 1
6074 9878 1
6075 56 1
6075 224 1
6075 403 1
6075 3598 1
6076 22 1
6076 31 1
6076 413 1
6076 2516 1
6076 6816 1
6076 8447 1
6077 270 1
6077 1086 1
6077 2925 1
6077 5016 1
6077 6791 1
6078 12 1
6078 13 1
6078 560 1
6078 3667 1
6078 8332 1
6079 3 1
6079 76 1
6079 2302 1
6079 3685 1
6080 3 1
6080 12 1
6080 1691 1
6080 4400 1
6080 6672 1
6081 983 1
6081 2950 1
6081 4870 1
6081 6042 1
6082 281 1
6082 2209 1
6082 4983 1
6082 5198 1
6082 9212 1
6083 441 1
6083 690 1
6083 1190 1
6083 1264 1
6083 7728 1
6084 1944 1
6084 2013 1
6084 2805 1
6084 3530 1
6084 8344 1
6084 8718 1
6084 9067 1
6085 134 1
6085 3337 1
6085 5117 1
6085 5905 1
6086 1114 1
6086 1628 1
6086 4542 1
6086 4698 1
6086 6471 1
6086 7144 1
6086 7257 1
6086 8338 1
6086 9786 1
6087 115 1
6087 2160 1
6087 4264 1
6087 5457 1
6087 7158 1
6087 7186 1
6087 7512 1
6088 780 1
6088 3766 1
6088 4261 1
6088 5796 1
6088 9493 1
6089 1777 1
6089 2020 1
6089 3869 1
6089 5395 1
6089 8785 1
6090 588 1
6090 2388 1
6090 2616 1
6090 5291 1
6090 9102 1
6091 24 1
6091 454 1
6091 684 1
6091 1024 1
6092 70 1
6092 375 1
6092 2905 1
6092 3575 1
6093 921 1
6093 3228 1
6093 3623 1
6093 5717 1
6094 33 1
6094 267 1
6094 490 1
6094 638 1
6094 7975 1
6094 8511 1
6095 1430 1
6095 3420 1
6095 4748 1
6095 5245 1
6095 6256 1
6096 1021 1
6096 1833 1
6096 2781 1
6096 4297 1
6097 110 1
6097 563 1
6097 2868 1
6097 4410 1
6098 667 1
6098 753 1
6098 1922 1
6098 1928 1
6098 6663 1
6098 7860 1
6099 30 1
6099 97 1
6099 1492 1
6099 2365 1
6099 6980 1
6099 9762 1
6100 9 1
6100 1750 1
6100 1757 1
6100 2577 1
6100 7631 1
6101 39 1
6101 623 1
6101 2420 1
6101 4766 1
6102 1753 1
6102 2220 1
6102 2581 1
6102 5625 1
6102 6416 1
6102 8110 1
6103 43 1
6103 65 1
6103 2811 1
6103 3338 1
6104 529 1
6104 599 1
6104 774 1
6104 1550 1
6105 2729 1
6105 2878 1
6105 3077 1
6105 3181 1
6106 3 1
6106 120 1
6106 1467 1
6106 1634 1
6107 60 1
6107 1530 1
6107 1977 1
6107 2410 1
6107 7682 1
6108 7 1
6108 22 1
6108 93 1
6108 2041 1
6109 454 1
6109 1261 1
6109 1425 1
6109 1851 1
6109 6161 1
6109 6972 1
6109 7393 1
6109 8215 1
6109 8429 1
6109 9304 1
6110 235 1
6110 2392 1
6110 2636 1
6110 2787 1
6111 707 1
6111 1041 1
6111 1119 1
6111 1816 1
6111 6337 1
6112 822 1
6112 1884 1
6112 1894 1
6112 4928 1
6113 96 1
6113 303 1
6113 504 1
6113 4999 1
6113 8345 1
6114 1 1
6114 1180 1
6114 2105 1
6114 2226 1
6115 1826 1
6115 3529 1
6115 3769 1
6115 4729 1
6115 7976 1
6116 45 1
6116 874 1
6116 920 1
6116 2353 1
6117 513 1
6117 2070 1
6117 2429 1
6117 6008 1
6118 605 1
6118 993 1
6118 1872 1
6118 3364 1
6118 8849 1
6119 182 1
6119 268 1
6119 304 1
6119 1335 1
6119 6124 1
6119 7412 1
6119 9975 1
6120 172 1
6120 1197 1
6120 2993 1
6120 4121 1
6120 6712 1
6120 7645 1
6121 139 1
6121 1239 1
6121 2012 1
6121 5163 1
6121 9962 1
6122 139 1
6122 2608 1
6122 3159 1
6122 3820 1
6122 8096 1
6123 10 1
6123 709 1
6123 1347 1
6123 3673 1
6124 89 1
6124 3433 1
6124 5469 1
6124 6119 1
6124 6380 1
6124 9300 1
6124 9857 1
6125 610 1
6125 3046 1
6125 3627 1
6125 3673 1
6126 268 1
6126 430 1
6126 828 1
6126 2949 1
6127 631 1
6127 2184 1
6127 2283 1
6127 2833 1
6127 7147 1
6127 7247 1
6127 9517 1
6128 680 1
6128 2268 1
6128 2380 1
6128 4721 1
6128 9071 1
6129 65 1
6129 1979 1
6129 2093 1
6129 3795 1
6130 1087 1
6130 3094 1
6130 3313 1
6130 5704 1
6130 6914 1
6130 7153 1
6130 9007 1
6131 186 1
6131 289 1
6131 837 1
6131 5931 1
6131 9943 1
6132 149 1
6132 305 1
6132 3340 1
6132 3354 1
6132 6905 1
6132 7294 1
6133 213 1
6133 1160 1
6133 4454 1
6133 5546 1
6134 60 1
6134 701 1
6134 1193 1
6134 4044 1
6135 33 1
6135 470 1
6135 4427 1
6135 4569 1
6136 502 1
6136 1583 1
6136 3678 1
6136 3715 1
6136 7462 1
6137 6 1
6137 394 1
6137 2268 1
6137 5810 1
6138 894 1
6138 948 1
6138 1450 1
6138 1919 1
6138 7568 1
6139 196 1
6139 456 1
6139 923 1
6139 4540 1
6139 8957 1
6139 9596 1
6139 9685 1
6140 282 1
6140 1077 1
6140 1689 1
6140 4960 1
6140 6406 1
6141 49 1
6141 476 1
6141 1230 1
6141 5822 1
6142 42 1
6142 4748 1
6142 5081 1
6142 5135 1
6143 865 1
6143 1619 1
6143 1957 1
6143 3135 1
6143 7060 1
6144 4 1
6144 20 1
6144 1028 1
6144 3058 1
6145 61 1
6145 1480 1
6145 4275 1
6145 4903 1
6145 7100 1
6145 7317 1
6146 6 1
6146 182 1
6146 3405 1
6146 5265 1
6146 9482 1
6147 5 1
6147 96 1
6147 124 1
6147 3582 1
6148 1 1
6148 293 1
6148 2352 1
6148 5221 1
6148 7418 1
6148 7942 1
6148 9414 1
6149 346 1
6149 1106 1
6149 2249 1
6149 4939 1
6150 42 1
6150 994 1
6150 3441 1
6150 4770 1
6151 912 1
6151 970 1
6151 1538 1
6151 4141 1
6151 6476 1
6151 7218 1
6151 7397 1
6151 9308 1
6152 386 1
6152 680 1
6152 2273 1
6152 4113 1
6152 6324 1
6152 7640 1
6152 8724 1
6152 9765 1
6153 78 1
6153 211 1
6153 2351 1
6153 4946 1
6153 7746 1
6154 105 1
6154 420 1
6154 605 1
6154 1056 1
6155 10 1
6155 206 1
6155 549 1
6155 1076 1
6156 2654 1
6156 3936 1
6156 4839 1
6156 4898 1
6156 7021 1
6157 1070 1
6157 4147 1
6157 4269 1
6157 5385 1
6158 3003 1
6158 4512 1
6158 4873 1
6158 5096 1
6158 6996 1
6158 8547 1
6158 8949 1
6158 9984 1
6159 1188 1
6159 2229 1
6159 2517 1
6159 4712 1
6160 13 1
6160 917 1
6160 1524 1
6160 3810 1
6160 7610 1
6160 7678 1
6161 10 1
6161 2651 1
6161 4315 1
6161 6109 1
6162 1544 1
6162 3512 1
6162 4506 1
6162 5606 1
6162 8092 1
6162 9426 1
6163 1615 1
6163 1757 1
6163 2266 1
6163 5094 1
6163 8046 1
6163 8799 1
6164 74 1
6164 550 1
6164 921 1
6164 1076 1
6165 90 1
6165 292 1
6165 664 1
6165 2223 1
6165 6711 1
6166 186 1
6166 1382 1
6166 1632 1
6166 3172 1
6166 6378 1
6166 6501 1
6166 7477 1
6166 8368 1
6166 9715 1
6166 9855 1
6167 49 1
6167 4981 1
6167 6006 1
6167 6038 1
6167 8915 1
6168 693 1
6168 2192 1
6168 4427 1
6168 4453 1
6169 504 1
6169 2418 1
6169 5530 1
6169 6027 1
6169 7330 1
6170 86 1
6170 1997 1
6170 2313 1
6170 4678 1
6170 7359 1
6171 66 1
6171 882 1
6171 1892 1
6171 5939 1
6171 6553 1
6171 9638 1
6172 140 1
6172 268 1
6172 1888 1
6172 5009 1
6173 20 1
6173 1460 1
6173 2966 1
6173 4502 1
6173 6918 1
6173 9648 1
6174 121 1
6174 683 1
6174 3058 1
6174 5496 1
6174 8682 1
6175 1268 1
6175 2070 1
6175 2685 1
6175 4495 1
6175 6453 1
6175 7923 1
6176 3 1
6176 752 1
6176 1207 1
6176 2524 1
6176 7418 1
6176 8159 1
6176 8363 1
6176 8801 1
6177 38 1
6177 197 1
6177 1280 1
6177 2960 1
6178 5 1
6178 1039 1
6178 2034 1
6178 5930 1
6178 8935 1
6179 43 1
6179 1673 1
6179 2739 1
6179 4187 1
6179 6856 1
6179 9779 1
6180 115 1
6180 2055 1
6180 2755 1
6180 4274 1
6180 6769 1
6181 41 1
6181 203 1
6181 1797 1
6181 4485 1
6181 6855 1
6182 341 1
6182 772 1
6182 1028 1
6182 1107 1
6182 9630 1
6183 7 1
6183 81 1
6183 276 1
6183 2147 1
6183 6261 1
6183 8200 1
6183 9905 1
6184 12 1
6184 2342 1
6184 2994 1
6184 4306 1
6184 8642 1
6184 9275 1
6185 45 1
6185 89 1
6185 824 1
6185 3574 1
6185 7477 1
6186 669 1
6186 1342 1
6186 1875 1
6186 5145 1
6187 359 1
6187 887 1
6187 2522 1
6187 3408 1
6187 6706 1
6187 9403 1
6188 1 1
6188 556 1
6188 688 1
6188 1445 1
6188 7084 1
6188 8446 1
6188 8567 1
6188 8659 1
6188 8727 1
6188 8834 1
6189 237 1
6189 281 1
6189 670 1
6189 3255 1
6190 595 1
6190 683 1
6190 4985 1
6190 5832 1
6191 47 1
6191 2737 1
6191 3595 1
6191 5288 1
6191 8749 1
6191 8794 1
6192 515 1
6192 725 1
6192 2781 1
6192 4033 1
6192 7420 1
6192 8113 1
6192 8967 1
6193 1244 1
6193 1320 1
6193 1814 1
6193 4348 1
6193 7361 1
6194 98 1
6194 744 1
6194 4568 1
6194 4713 1
6194 8268 1
6195 83 1
6195 834 1
6195 1957 1
6195 4730 1
6196 179 1
6196 356 1
6196 865 1
6196 2591 1
6196 6958 1
6197 512 1
6197 1453 1
6197 2424 1
6197 6054 1
6198 385 1
6198 1047 1
6198 1375 1
6198 4770 1
6199 2490 1
6199 3017 1
6199 3629 1
6199 5064 1
6199 8272 1
6200 683 1
6200 690 1
6200 4604 1
6200 4647 1
6201 95 1
6201 228 1
6201 1602 1
6201 5153 1
6202 381 1
6202 1146 1
6202 1183 1
6202 2200 1
6202 7581 1
6203 774 1
6203 1381 1
6203 1689 1
6203 4311 1
6204 135 1
6204 482 1
6204 876 1
6204 3906 1
6204 8232 1
6204 9371 1
6204 9388 1
6205 278 1
6205 953 1
6205 2402 1
6205 4491 1
6205 8034 1
6206 3 1
6206 98 1
6206 663 1
6206 3358 1
6206 7000 1
6206 7941 1
6206 9433 1
6207 231 1
6207 1214 1
6207 3427 1
6207 3535 1
6208 26 1
6208 134 1
6208 3070 1
6208 5966 1
6209 10 1
6209 25 1
6209 3617 1
6209 4947 1
6209 7786 1
6209 9585 1
6210 194 1
6210 397 1
6210 1239 1
6210 4680 1
6210 6628 1
6210 8103 1
6211 51 1
6211 282 1
6211 456 1
6211 5142 1
6211 6477 1
6212 1116 1
6212 2218 1
6212 4041 1
6212 4441 1
6212 6935 1
6212 7033 1
6212 8039 1
6213 7 1
6213 454 1
6213 499 1
6213 3296 1
6214 288 1
6214 354 1
6214 3162 1
6214 3740 1
6215 540 1
6215 2794 1
6215 4780 1
6215 5121 1
6216 42 1
6216 2177 1
6216 3630 1
6216 4869 1
6216 8760 1
6217 50 1
6217 387 1
6217 1950 1
6217 3982 1
6218 13 1
6218 306 1
6218 824 1
6218 4083 1
6218 7806 1
6219 3395 1
6219 3611 1
6219 4370 1
6219 5565 1
6219 8381 1
6220 42 1
6220 573 1
6220 3016 1
6220 5581 1
6220 7639 1
6220 9133 1
6221 91 1
6221 310 1
6221 1141 1
6221 2426 1
6221 7574 1
6221 9493 1
6222 28 1
6222 436 1
6222 711 1
6222 3559 1
6222 9256 1
6223 13 1
6223 320 1
6223 1453 1
6223 5964 1
6223 6945 1
6224 117 1
6224 398 1
6224 2516 1
6224 2620 1
6224 6354 1
6224 6653 1
6224 6901 1
6224 7638 1
6224 9075 1
6225 127 1
6225 339 1
6225 3542 1
6225 3861 1
6225 9626 1
6226 74 1
6226 888 1
6226 2774 1
6226 3014 1
6226 8886 1
6227 37 1
6227 611 1
6227 2030 1
6227 2175 1
6228 3 1
6228 908 1
6228 1792 1
6228 1864 1
6228 9817 1
6229 33 1
6229 880 1
6229 2540 1
6229 5008 1
6230 197 1
6230 1176 1
6230 1329 1
6230 2020 1
6230 6625 1
6230 7276 1
6230 9741 1
6231 22 1
6231 32 1
6231 99 1
6231 305 1
6231 9828 1
6232 276 1
6232 933 1
6232 3866 1
6232 5352 1
6232 6421 1
6232 6738 1
6233 2046 1
6233 3661 1
6233 5318 1
6233 5972 1
6233 6377 1
6233 7221 1
6233 7549 1
6233 9861 1
6234 504 1
6234 1288 1
6234 2614 1
6234 5166 1
6234 8990 1
6235 25 1
6235 143 1
6235 226 1
6235 5066 1
6236 87 1
6236 121 1
6236 2949 1
6236 5094 1
6236 8477 1
6236 8488 1
6237 390 1
6237 399 1
6237 1897 1
6237 3293 1
6237 6427 1
6238 1086 1
6238 2770 1
6238 5231 1
6238 5577 1
6239 1820 1
6239 2810 1
6239 4415 1
6239 5754 1
6240 172 1
6240 2195 1
6240 2692 1
6240 4185 1
6241 66 1
6241 301 1
6241 1633 1
6241 1986 1
6242 457 1
6242 1790 1
6242 2155 1
6242 2278 1
6242 9485 1
6243 12 1
6243 653 1
6243 1442 1
6243 5498 1
6243 8100 1
6243 8346 1
6244 10 1
6244 1526 1
6244 2018 1
6244 2886 1
6244 9314 1
6245 150 1
6245 626 1
6245 1455 1
6245 1805 1
6246 753 1
6246 1792 1
6246 2653 1
6246 3767 1
6247 73 1
6247 1050 1
6247 1664 1
6247 3095 1
6248 95 1
6248 3394 1
6248 3509 1
6248 3554 1
6248 9085 1
6248 9122 1
6249 1541 1
6249 1573 1
6249 2294 1
6249 4301 1
6249 9884 1
6250 130 1
6250 435 1
6250 2881 1
6250 3622 1
6250 7829 1
6251 244 1
6251 245 1
6251 2784 1
6251 3577 1
6252 36 1
6252 64 1
6252 780 1
6252 4088 1
6252 7096 1
6253 93 1
6253 2006 1
6253 3294 1
6253 4399 1
6254 37 1
6254 1069 1
6254 4353 1
6254 4568 1
6254 9171 1
6255 307 1
6255 346 1
6255 352 1
6255 5828 1
6256 1863 1
6256 4140 1
6256 5923 1
6256 6095 1
6256 8498 1
6257 115 1
6257 715 1
6257 1286 1
6257 3986 1
6258 313 1
6258 331 1
6258 2195 1
6258 2701 1
6259 12 1
6259 326 1
6259 2812 1
6259 4946 1
6260 173 1
6260 1427 1
6260 2569 1
6260 3992 1
6261 3443 1
6261 4602 1
6261 4656 1
6261 6183 1
6261 9663 1
6262 2117 1
6262 5155 1
6262 5484 1
6262 5693 1
6262 8880 1
6262 8895 1
6263 136 1
6263 301 1
6263 2353 1
6263 3986 1
6264 97 1
6264 886 1
6264 1002 1
6264 1457 1
6264 6269 1
6265 951 1
6265 2677 1
6265 3807 1
6265 5456 1
6265 8953 1
6266 65 1
6266 522 1
6266 2564 1
6266 4246 1
6267 828 1
6267 1245 1
6267 3446 1
6267 4523 1
6268 491 1
6268 1658 1
6268 3360 1
6268 3817 1
6269 21 1
6269 176 1
6269 483 1
6269 6264 1
6270 57 1
6270 2755 1
6270 3671 1
6270 5255 1
6271 83 1
6271 197 1
6271 505 1
6271 4707 1
6272 206 1
6272 2127 1
6272 5441 1
6272 5897 1
6273 529 1
6273 1699 1
6273 2804 1
6273 3004 1
6273 7430 1
6274 287 1
6274 292 1
6274 312 1
6274 1484 1
6275 6 1
6275 10 1
6275 1211 1
6275 5874 1
6275 8320 1
6276 421 1
6276 1379 1
6276 3345 1
6276 3922 1
6276 7851 1
6277 635 1
6277 3409 1
6277 4074 1
6277 4281 1
6278 117 1
6278 314 1
6278 3286 1
6278 3488 1
6278 8374 1
6279 38 1
6279 120 1
6279 142 1
6279 2593 1
6279 8101 1
6279 8931 1
6280 3377 1
6280 3489 1
6280 3796 1
6280 4220 1
6281 686 1
6281 2004 1
6281 2837 1
6281 3415 1
6282 32 1
6282 62 1
6282 1614 1
6282 2995 1
6282 8004 1
6283 19 1
6283 229 1
6283 4601 1
6283 5249 1
6283 6869 1
6283 8463 1
6283 8503 1
6283 8730 1
6284 1 1
6284 233 1
6284 552 1
6284 2608 1
6284 8768 1
6285 792 1
6285 1497 1
6285 2106 1
6285 2292 1
6285 7215 1
6285 7306 1
6285 7498 1
6285 9658 1
6286 2598 1
6286 3137 1
6286 3207 1
6286 5212 1
6286 7444 1
6286 9500 1
6287 74 1
6287 785 1
6287 1596 1
6287 1891 1
6287 8569 1
6288 1480 1
6288 1587 1
6288 5261 1
6288 5574 1
6288 9065 1
6289 28 1
6289 37 1
6289 4437 1
6289 6050 1
6289 7095 1
6289 7563 1
6289 7666 1
6289 9852 1
6290 38 1
6290 213 1
6290 277 1
6290 5292 1
6290 8733 1
6291 174 1
6291 742 1
6291 4858 1
6291 5302 1
6291 6871 1
6292 16 1
6292 171 1
6292 823 1
6292 1206 1
6292 7809 1
6292 9466 1
6293 86 1
6293 819 1
6293 1969 1
6293 2469 1
6293 8692 1
6294 150 1
6294 557 1
6294 2599 1
6294 4168 1
6295 267 1
6295 1723 1
6295 2126 1
6295 5470 1
6295 6305 1
6296 1461 1
6296 1699 1
6296 2658 1
6296 4712 1
6296 6763 1
6296 7062 1
6297 17 1
6297 298 1
6297 744 1
6297 783 1
6297 7676 1
6297 8432 1
6297 8554 1
6298 11 1
6298 1074 1
6298 1368 1
6298 2528 1
6298 8480 1
6299 1203 1
6299 3037 1
6299 3421 1
6299 4381 1
6300 246 1
6300 1340 1
6300 3145 1
6300 3831 1
6301 24 1
6301 277 1
6301 2743 1
6301 3913 1
6302 136 1
6302 834 1
6302 3081 1
6302 5850 1
6302 6872 1
6302 8285 1
6302 9939 1
6303 1 1
6303 194 1
6303 864 1
6303 2309 1
6304 2 1
6304 388 1
6304 1160 1
6304 3226 1
6304 8192 1
6305 846 1
6305 1054 1
6305 4041 1
6305 6295 1
6305 7379 1
6305 7951 1
6305 9710 1
6306 26 1
6306 647 1
6306 1609 1
6306 5869 1
6306 6375 1
6307 477 1
6307 1975 1
6307 3194 1
6307 3579 1
6307 9971 1
6308 347 1
6308 1432 1
6308 2585 1
6308 3622 1
6309 74 1
6309 1454 1
6309 2113 1
6309 5873 1
6309 6619 1
6309 6744 1
6309 6762 1
6309 7479 1
6309 8739 1
6309 9635 1
6310 1372 1
6310 3916 1
6310 5235 1
6310 5320 1
6311 559 1
6311 1613 1
6311 1987 1
6311 3319 1
6311 9281 1
6312 148 1
6312 2546 1
6312 3662 1
6312 5292 1
6313 116 1
6313 1342 1
6313 2126 1
6313 2910 1
6313 6551 1
6313 8005 1
6314 6 1
6314 37 1
6314 3861 1
6314 6022 1
6314 8423 1
6314 8909 1
6315 95 1
6315 2276 1
6315 3380 1
6315 4629 1
6316 138 1
6316 1215 1
6316 1366 1
6316 2324 1
6317 8 1
6317 287 1
6317 933 1
6317 1270 1
6317 7090 1
6317 9375 1
6317 9653 1
6318 806 1
6318 832 1
6318 2119 1
6318 3300 1
6319 115 1
6319 840 1
6319 1423 1
6319 2095 1
6319 7434 1
6319 7494 1
6319 8144 1
6319 8436 1
6319 9644 1
6320 118 1
6320 474 1
6320 1198 1
6320 1440 1
6320 7596 1
6321 1 1
6321 7 1
6321 2609 1
6321 2907 1
6322 442 1
6322 543 1
6322 554 1
6322 3474 1
6322 6537 1
6322 7059 1
6322 7372 1
6323 446 1
6323 610 1
6323 4140 1
6323 5859 1
6324 10 1
6324 904 1
6324 2962 1
6324 6152 1
6324 8500 1
6324 8716 1
6325 247 1
6325 2520 1
6325 4462 1
6325 4849 1
6326 14 1
6326 273 1
6326 290 1
6326 560 1
6326 7310 1
6327 66 1
6327 118 1
6327 3306 1
6327 3554 1
6328 23 1
6328 120 1
6328 1362 1
6328 3145 1
6328 9225 1
6329 1940 1
6329 3200 1
6329 3391 1
6329 4217 1
6329 8865 1
6330 89 1
6330 116 1
6330 138 1
6330 290 1
6330 7050 1
6330 7375 1
6331 154 1
6331 1699 1
6331 3462 1
6331 3892 1
6332 27 1
6332 98 1
6332 160 1
6332 5432 1
6333 6 1
6333 92 1
6333 351 1
6333 4114 1
6334 83 1
6334 99 1
6334 1880 1
6334 2778 1
6334 8996 1
6335 1012 1
6335 1375 1
6335 1439 1
6335 4966 1
6335 9236 1
6336 580 1
6336 626 1
6336 1526 1
6336 5859 1
6337 46 1
6337 3853 1
6337 5669 1
6337 6111 1
6338 250 1
6338 1692 1
6338 1937 1
6338 4660 1
6338 7103 1
6338 8112 1
6339 402 1
6339 3563 1
6339 3999 1
6339 4615 1
6339 9019 1
6339 9029 1
6339 9383 1
6340 115 1
6340 2717 1
6340 4572 1
6340 5424 1
6340 7329 1
6340 8325 1
6340 9159 1
6340 9631 1
6341 8 1
6341 500 1
6341 787 1
6341 1118 1
6342 221 1
6342 801 1
6342 5345 1
6342 5835 1
6343 14 1
6343 155 1
6343 227 1
6343 2142 1
6344 43 1
6344 842 1
6344 904 1
6344 3478 1
6344 7167 1
6344 9265 1
6345 2246 1
6345 2783 1
6345 3325 1
6345 4844 1
6346 39 1
6346 194 1
6346 2922 1
6346 4657 1
6346 8449 1
6347 69 1
6347 868 1
6347 1964 1
6347 3925 1
6347 9138 1
6347 9775 1
6348 1492 1
6348 2196 1
6348 3071 1
6348 5771 1
6348 6645 1
6349 67 1
6349 393 1
6349 498 1
6349 2960 1
6349 9931 1
6350 3382 1
6350 4024 1
6350 4125 1
6350 4163 1
6350 8487 1
6350 8603 1
6350 8841 1
6351 403 1
6351 666 1
6351 1615 1
6351 4685 1
6352 52 1
6352 615 1
6352 4912 1
6352 5212 1
6352 7710 1
6353 636 1
6353 2299 1
6353 3417 1
6353 4034 1
6353 9746 1
6354 760 1
6354 4269 1
6354 4450 1
6354 6224 1
6355 578 1
6355 3420 1
6355 3999 1
6355 4366 1
6355 8430 1
6356 209 1
6356 264 1
6356 580 1
6356 3109 1
6356 9659 1
6357 828 1
6357 1168 1
6357 2233 1
6357 4925 1
6358 322 1
6358 362 1
6358 1590 1
6358 1705 1
6358 6706 1
6358 8779 1
6359 65 1
6359 1633 1
6359 4262 1
6359 4851 1
6359 6591 1
6359 7274 1
6359 8313 1
6360 71 1
6360 119 1
6360 1045 1
6360 3714 1
6360 9168 1
6360 9999 1
6361 156 1
6361 1278 1
6361 2898 1
6361 6060 1
6362 19 1
6362 476 1
6362 2426 1
6362 3904 1
6363 1354 1
6363 2805 1
6363 4501 1
6363 5938 1
6364 417 1
6364 3266 1
6364 3556 1
6364 4030 1
6364 9191 1
6365 224 1
6365 425 1
6365 3659 1
6365 3832 1
6365 8957 1
6365 9902 1
6366 16 1
6366 1008 1
6366 1458 1
6366 5892 1
6366 6917 1
6366 7069 1
6366 8198 1
6367 10 1
6367 3212 1
6367 4455 1
6367 5224 1
6367 7474 1
6367 8718 1
6367 9903 1
6368 859 1
6368 1044 1
6368 3339 1
6368 4158 1
6368 7261 1
6369 94 1
6369 390 1
6369 2054 1
6369 5555 1
6369 8794 1
6370 2593 1
6370 3902 1
6370 5754 1
6370 5957 1
6371 237 1
6371 338 1
6371 3312 1
6371 4394 1
6372 1797 1
6372 3101 1
6372 4070 1
6372 4260 1
6373 374 1
6373 661 1
6373 1689 1
6373 3131 1
6373 7255 1
6374 189 1
6374 700 1
6374 867 1
6374 4135 1
6374 9248 1
6375 1 1
6375 390 1
6375 3378 1
6375 6306 1
6375 7106 1
6376 1363 1
6376 1484 1
6376 3689 1
6376 4845 1
6377 117 1
6377 513 1
6377 2595 1
6377 6233 1
6377 6480 1
6377 7029 1
6378 543 1
6378 1472 1
6378 4865 1
6378 6166 1
6378 7343 1
6379 146 1
6379 190 1
6379 420 1
6379 4131 1
6379 8050 1
6380 550 1
6380 807 1
6380 1255 1
6380 6124 1
6380 6988 1
6381 718 1
6381 992 1
6381 1000 1
6381 3976 1
6382 3 1
6382 2852 1
6382 2921 1
6382 3718 1
6382 6641 1
6382 7982 1
6383 2793 1
6383 3047 1
6383 4529 1
6383 5990 1
6383 8021 1
6384 306 1
6384 329 1
6384 468 1
6384 698 1
6384 6484 1
6384 6743 1
6385 67 1
6385 1000 1
6385 2278 1
6385 3388 1
6386 142 1
6386 1020 1
6386 2069 1
6386 2161 1
6386 6708 1
6386 8465 1
6387 776 1
6387 945 1
6387 1471 1
6387 3915 1
6388 97 1
6388 136 1
6388 791 1
6388 2950 1
6389 702 1
6389 1896 1
6389 2446 1
6389 5979 1
6389 6403 1
6389 8549 1
6390 318 1
6390 2236 1
6390 4052 1
6390 5305 1
6390 8197 1
6391 46 1
6391 328 1
6391 392 1
6391 1625 1
6391 6449 1
6392 265 1
6392 386 1
6392 3344 1
6392 5008 1
6392 6935 1
6392 8109 1
6393 2112 1
6393 2823 1
6393 4730 1
6393 5162 1
6393 8455 1
6394 62 1
6394 401 1
6394 3077 1
6394 5639 1
6394 7927 1
6395 138 1
6395 2051 1
6395 2847 1
6395 5805 1
6396 117 1
6396 886 1
6396 1461 1
6396 4926 1
6397 62 1
6397 1169 1
6397 1626 1
6397 4355 1
6397 8943 1
6398 2440 1
6398 3668 1
6398 3749 1
6398 5750 1
6398 7823 1
6398 8602 1
6399 197 1
6399 329 1
6399 1306 1
6399 3397 1
6400 2 1
6400 205 1
6400 2455 1
6400 4339 1
6401 403 1
6401 956 1
6401 2166 1
6401 3086 1
6402 118 1
6402 1222 1
6402 4096 1
6402 4699 1
6403 1507 1
6403 2845 1
6403 3174 1
6403 6389 1
6403 8399 1
6403 9690 1
6404 584 1
6404 1822 1
6404 3225 1
6404 4269 1
6404 7554 1
6405 1869 1
6405 3074 1
6405 3096 1
6405 6067 1
6405 6510 1
6405 7196 1
6406 562 1
6406 998 1
6406 1106 1
6406 6140 1
6407 6 1
6407 310 1
6407 317 1
6407 2365 1
6407 9291 1
6408 76 1
6408 1008 1
6408 1688 1
6408 3506 1
6408 7194 1
6409 116 1
6409 910 1
6409 1871 1
6409 2683 1
6409 7683 1
6410 20 1
6410 53 1
6410 813 1
6410 3572 1
6410 8268 1
6410 9131 1
6411 1980 1
6411 3956 1
6411 4907 1
6411 4998 1
6411 9949 1
6412 25 1
6412 2895 1
6412 4465 1
6412 5066 1
6412 7287 1
6412 7657 1
6412 9368 1
6413 13 1
6413 739 1
6413 2552 1
6413 2652 1
6413 9035 1
6414 26 1
6414 2332 1
6414 3966 1
6414 5296 1
6414 7469 1
6415 31 1
6415 1543 1
6415 3490 1
6415 4615 1
6415 9053 1
6416 335 1
6416 711 1
6416 4310 1
6416 6102 1
6416 9650 1
6417 6 1
6417 1492 1
6417 1494 1
6417 3121 1
6417 7574 1
6418 804 1
6418 1142 1
6418 2239 1
6418 3724 1
6419 288 1
6419 1016 1
6419 1268 1
6419 3987 1
6419 6617 1
6420 816 1
6420 1285 1
6420 2268 1
6420 3397 1
6421 30 1
6421 1694 1
6421 4810 1
6421 6232 1
6421 7077 1
6421 7404 1
6421 7680 1
6421 9783 1
6422 64 1
6422 149 1
6422 186 1
6422 1070 1
6423 539 1
6423 631 1
6423 934 1
6423 4934 1
6424 10 1
6424 72 1
6424 708 1
6424 2436 1
6424 7822 1
6424 9001 1
6424 9099 1
6425 14 1
6425 17 1
6425 483 1
6425 1829 1
6426 81 1
6426 1901 1
6426 4967 1
6426 5828 1
6427 1 1
6427 301 1
6427 5750 1
6427 6237 1
6428 1 1
6428 1835 1
6428 2894 1
6428 3985 1
6428 7599 1
6428 7656 1
6428 7764 1
6428 8822 1
6428 9494 1
6429 1553 1
6429 1911 1
6429 2496 1
6429 3467 1
6429 9863 1
6429 9983 1
6430 19 1
6430 799 1
6430 1363 1
6430 4634 1
6431 1393 1
6431 4031 1
6431 5045 1
6431 6065 1
6431 6586 1
6431 9593 1
6432 207 1
6432 1063 1
6432 3391 1
6432 4715 1
6432 7556 1
6432 8359 1
6432 8437 1
6433 908 1
6433 1719 1
6433 2503 1
6433 2563 1
6434 471 1
6434 1172 1
6434 1702 1
6434 4537 1
6434 6541 1
6434 9844 1
6435 6 1
6435 138 1
6435 2015 1
6435 5998 1
6436 767 1
6436 1733 1
6436 1835 1
6436 5374 1
6437 357 1
6437 815 1
6437 2989 1
6437 5332 1
6438 14 1
6438 3163 1
6438 4105 1
6438 4478 1
6439 47 1
6439 63 1
6439 480 1
6439 2839 1
6440 388 1
6440 536 1
6440 1091 1
6440 2959 1
6441 24 1
6441 505 1
6441 815 1
6441 2185 1
6442 48 1
6442 2663 1
6442 2991 1
6442 4300 1
6443 1090 1
6443 1821 1
6443 3748 1
6443 4449 1
6443 6638 1
6443 9008 1
6444 98 1
6444 2856 1
6444 4691 1
6444 5839 1
6445 229 1
6445 1905 1
6445 3717 1
6445 5010 1
6445 7039 1
6446 212 1
6446 3163 1
6446 3422 1
6446 3945 1
6446 8621 1
6447 60 1
6447 1216 1
6447 1552 1
6447 5699 1
6447 7963 1
6447 8514 1
6448 253 1
6448 873 1
6448 2545 1
6448 2630 1
6448 7666 1
6449 142 1
6449 504 1
6449 3747 1
6449 6391 1
6449 7279 1
6450 1 1
6450 1593 1
6450 3549 1
6450 5752 1
6451 82 1
6451 1158 1
6451 2014 1
6451 5128 1
6451 7114 1
6451 7289 1
6452 38 1
6452 387 1
6452 2929 1
6452 3358 1
6452 7455 1
6453 779 1
6453 2075 1
6453 3196 1
6453 6175 1
6453 8569 1
6454 361 1
6454 4195 1
6454 4653 1
6454 5868 1
6454 7133 1
6454 8983 1
6455 1262 1
6455 2938 1
6455 4409 1
6455 4654 1
6456 134 1
6456 2480 1
6456 2714 1
6456 5128 1
6456 7960 1
6456 9390 1
6456 9507 1
6457 328 1
6457 1320 1
6457 4210 1
6457 5522 1
6458 80 1
6458 626 1
6458 4269 1
6458 4333 1
6459 132 1
6459 1603 1
6459 3739 1
6459 5259 1
6460 149 1
6460 166 1
6460 983 1
6460 1789 1
6460 9285 1
6461 1176 1
6461 1430 1
6461 2021 1
6461 5460 1
6462 806 1
6462 1106 1
6462 1154 1
6462 3592 1
6463 620 1
6463 1059 1
6463 3117 1
6463 3278 1
6463 6521 1
6464 1087 1
6464 2305 1
6464 2805 1
6464 3530 1
6464 8328 1
6465 213 1
6465 1246 1
6465 1450 1
6465 2715 1
6466 5 1
6466 97 1
6466 537 1
6466 2502 1
6467 98 1
6467 415 1
6467 1379 1
6467 1977 1
6467 7841 1
6467 9150 1
6468 1683 1
6468 2219 1
6468 3739 1
6468 5900 1
6469 136 1
6469 452 1
6469 2246 1
6469 5072 1
6469 8808 1
6470 27 1
6470 696 1
6470 1738 1
6470 3815 1
6470 6838 1
6470 9788 1
6471 1497 1
6471 1674 1
6471 4101 1
6471 6086 1
6472 34 1
6472 1945 1
6472 3047 1
6472 5513 1
6473 13 1
6473 611 1
6473 2847 1
6473 4615 1
6473 6870 1
6473 7862 1
6474 505 1
6474 3253 1
6474 4107 1
6474 5282 1
6474 8478 1
6475 759 1
6475 2141 1
6475 3662 1
6475 3725 1
6476 6 1
6476 234 1
6476 5606 1
6476 6151 1
6477 456 1
6477 561 1
6477 5063 1
6477 6211 1
6477 8244 1
6477 9259 1
6478 19 1
6478 206 1
6478 1263 1
6478 1397 1
6479 651 1
6479 1837 1
6479 4348 1
6479 5205 1
6479 6753 1
6479 7969 1
6480 1091 1
6480 1674 1
6480 2112 1
6480 6377 1
6480 8758 1
6481 120 1
6481 1004 1
6481 1383 1
6481 5631 1
6481 8634 1
6482 14 1
6482 39 1
6482 440 1
6482 3446 1
6483 2069 1
6483 2664 1
6483 3171 1
6483 3402 1
6484 3985 1
6484 5309 1
6484 5331 1
6484 6384 1
6485 6 1
6485 114 1
6485 385 1
6485 4391 1
6485 6660 1
6485 9134 1
6485 9789 1
6486 277 1
6486 730 1
6486 1693 1
6486 3698 1
6486 7002 1
6487 22 1
6487 95 1
6487 440 1
6487 2883 1
6487 7542 1
6487 9590 1
6488 91 1
6488 1712 1
6488 2255 1
6488 5535 1
6489 394 1
6489 2839 1
6489 3698 1
6489 5676 1
6489 8985 1
6490 26 1
6490 40 1
6490 59 1
6490 5549 1
6491 37 1
6491 1063 1
6491 2104 1
6491 3928 1
6492 393 1
6492 956 1
6492 5658 1
6492 5986 1
6493 144 1
6493 1796 1
6493 3067 1
6493 5859 1
6493 8627 1
6494 97 1
6494 2377 1
6494 3281 1
6494 3739 1
6495 6 1
6495 121 1
6495 2602 1
6495 4817 1
6495 9574 1
6496 1201 1
6496 1302 1
6496 1596 1
6496 4916 1
6496 7109 1
6497 1165 1
6497 1950 1
6497 2000 1
6497 5579 1
6497 7315 1
6498 144 1
6498 1264 1
6498 1284 1
6498 4885 1
6498 8737 1
6498 9121 1
6499 22 1
6499 815 1
6499 1188 1
6499 5386 1
6500 1693 1
6500 2495 1
6500 4893 1
6500 5462 1
6501 217 1
6501 1443 1
6501 5675 1
6501 6166 1
6502 171 1
6502 235 1
6502 753 1
6502 2980 1
6502 7577 1
6503 13 1
6503 240 1
6503 874 1
6503 1304 1
6504 1449 1
6504 2796 1
6504 3219 1
6504 3758 1
6504 7281 1
6504 7393 1
6504 8130 1
6504 8202 1
6505 1 1
6505 1763 1
6505 2604 1
6505 5815 1
6506 599 1
6506 3433 1
6506 5058 1
6506 5294 1
6506 6554 1
6506 6603 1
6506 6759 1
6506 8264 1
6506 9242 1
6507 197 1
6507 713 1
6507 2047 1
6507 5507 1
6508 541 1
6508 2339 1
6508 3818 1
6508 4671 1
6509 1839 1
6509 2195 1
6509 2263 1
6509 3187 1
6510 742 1
6510 1134 1
6510 2228 1
6510 6405 1
6510 9511 1
6511 45 1
6511 117 1
6511 185 1
6511 3025 1
6511 7053 1
6511 9699 1
6512 432 1
6512 435 1
6512 1875 1
6512 2209 1
6512 6800 1
6512 7441 1
6512 8095 1
6513 230 1
6513 277 1
6513 541 1
6513 4272 1
6513 8447 1
6514 105 1
6514 974 1
6514 2419 1
6514 5230 1
6514 8595 1
6515 589 1
6515 1701 1
6515 1791 1
6515 5215 1
6516 372 1
6516 615 1
6516 1189 1
6516 3613 1
6516 8616 1
6517 711 1
6517 1070 1
6517 3061 1
6517 5481 1
6517 7013 1
6518 1091 1
6518 1756 1
6518 1796 1
6518 2518 1
6518 8283 1
6519 1668 1
6519 4939 1
6519 5652 1
6519 5963 1
6519 8291 1
6520 31 1
6520 134 1
6520 308 1
6520 4000 1
6520 6871 1
6521 1208 1
6521 4139 1
6521 4593 1
6521 6463 1
6522 400 1
6522 656 1
6522 1191 1
6522 2043 1
6522 9569 1
6523 1420 1
6523 3330 1
6523 3498 1
6523 5579 1
6523 9848 1
6523 9959 1
6524 1425 1
6524 2384 1
6524 2472 1
6524 4787 1
6525 115 1
6525 118 1
6525 1162 1
6525 1172 1
6525 8025 1
6526 1333 1
6526 1968 1
6526 2517 1
6526 4221 1
6526 8778 1
6527 126 1
6527 1181 1
6527 1795 1
6527 2221 1
6528 209 1
6528 1484 1
6528 2954 1
6528 3449 1
6529 377 1
6529 580 1
6529 765 1
6529 3807 1
6530 445 1
6530 1456 1
6530 2672 1
6530 4060 1
6531 6 1
6531 967 1
6531 2159 1
6531 3829 1
6532 530 1
6532 2454 1
6532 3283 1
6532 4692 1
6532 7552 1
6532 9571 1
6533 374 1
6533 652 1
6533 765 1
6533 3468 1
6534 8 1
6534 115 1
6534 3529 1
6534 3773 1
6534 7225 1
6534 9417 1
6535 304 1
6535 3342 1
6535 3675 1
6535 5907 1
6536 85 1
6536 216 1
6536 955 1
6536 5014 1
6536 7422 1
6536 8323 1
6537 397 1
6537 671 1
6537 5283 1
6537 6322 1
6537 9305 1
6538 133 1
6538 398 1
6538 3018 1
6538 4318 1
6538 7827 1
6538 8564 1
6538 8630 1
6539 23 1
6539 95 1
6539 1762 1
6539 3756 1
6539 7205 1
6539 8659 1
6540 400 1
6540 2235 1
6540 2549 1
6540 4351 1
6540 9990 1
6541 411 1
6541 3883 1
6541 4994 1
6541 6434 1
6541 7904 1
6541 9545 1
6542 104 1
6542 116 1
6542 1025 1
6542 4497 1
6542 7416 1
6543 8 1
6543 361 1
6543 1022 1
6543 3891 1
6544 67 1
6544 208 1
6544 1871 1
6544 3796 1
6545 176 1
6545 580 1
6545 950 1
6545 1379 1
6546 24 1
6546 134 1
6546 4857 1
6546 5179 1
6546 8007 1
6547 49 1
6547 1650 1
6547 2250 1
6547 3426 1
6547 8169 1
6548 560 1
6548 1146 1
6548 2266 1
6548 5561 1
6548 7578 1
6548 7897 1
6549 896 1
6549 1329 1
6549 3059 1
6549 5536 1
6549 7396 1
6549 8248 1
6550 328 1
6550 4258 1
6550 4537 1
6550 6008 1
6551 296 1
6551 4109 1
6551 5078 1
6551 6313 1
6552 557 1
6552 603 1
6552 947 1
6552 1009 1
6552 7134 1
6552 7331 1
6553 282 1
6553 561 1
6553 1798 1
6553 6171 1
6554 360 1
6554 1604 1
6554 5896 1
6554 6506 1
6554 7138 1
6555 549 1
6555 2229 1
6555 3174 1
6555 3591 1
6555 6639 1
6555 7227 1
6555 9244 1
6556 93 1
6556 704 1
6556 1069 1
6556 4779 1
6557 45 1
6557 365 1
6557 513 1
6557 4838 1
6558 623 1
6558 1125 1
6558 3268 1
6558 4750 1
6559 2766 1
6559 3021 1
6559 4262 1
6559 5458 1
6559 9558 1
6560 13 1
6560 729 1
6560 1530 1
6560 3436 1
6560 6737 1
6561 5 1
6561 209 1
6561 2365 1
6561 2980 1
6562 1407 1
6562 1522 1
6562 3197 1
6562 4085 1
6563 6 1
6563 22 1
6563 1670 1
6563 2098 1
6564 30 1
6564 144 1
6564 1334 1
6564 2734 1
6564 7105 1
6564 8610 1
6564 9533 1
6564 9988 1
6565 5 1
6565 19 1
6565 86 1
6565 136 1
6566 281 1
6566 352 1
6566 986 1
6566 4896 1
6567 27 1
6567 194 1
6567 2220 1
6567 2730 1
6567 9497 1
6568 76 1
6568 81 1
6568 970 1
6568 4253 1
6569 7 1
6569 433 1
6569 551 1
6569 2914 1
6570 12 1
6570 141 1
6570 2683 1
6570 4684 1
6571 6 1
6571 142 1
6571 3137 1
6571 3283 1
6571 7987 1
6571 9122 1
6572 34 1
6572 1089 1
6572 1403 1
6572 1729 1
6572 7860 1
6572 9822 1
6573 138 1
6573 433 1
6573 1563 1
6573 4540 1
6574 55 1
6574 812 1
6574 4274 1
6574 4957 1
6574 7875 1
6574 9731 1
6575 279 1
6575 281 1
6575 2526 1
6575 5806 1
6575 7129 1
6575 8247 1
6576 36 1
6576 71 1
6576 794 1
6576 3364 1
6577 259 1
6577 580 1
6577 601 1
6577 1453 1
6578 112 1
6578 204 1
6578 566 1
6578 1068 1
6578 8076 1
6579 1394 1
6579 1941 1
6579 4139 1
6579 5711 1
6580 206 1
6580 1408 1
6580 3307 1
6580 5041 1
6581 733 1
6581 3453 1
6581 4805 1
6581 5535 1
6581 7023 1
6581 8903 1
6581 8948 1
6582 820 1
6582 2252 1
6582 4622 1
6582 5159 1
6583 37 1
6583 1602 1
6583 2988 1
6583 5309 1
6584 3 1
6584 3025 1
6584 3426 1
6584 3759 1
6585 281 1
6585 1037 1
6585 2382 1
6585 4642 1
6586 26 1
6586 1416 1
6586 2075 1
6586 6431 1
6586 6853 1
6586 7764 1
6587 26 1
6587 576 1
6587 1224 1
6587 1867 1
6587 6930 1
6587 7406 1
6588 1 1
6588 184 1
6588 2461 1
6588 2798 1
6589 109 1
6589 599 1
6589 4835 1
6589 5139 1
6589 7687 1
6590 1825 1
6590 2002 1
6590 3089 1
6590 3760 1
6591 347 1
6591 579 1
6591 1075 1
6591 6359 1
6591 7724 1
6591 9805 1
6592 1737 1
6592 2153 1
6592 2570 1
6592 3027 1
6592 7986 1
6593 60 1
6593 823 1
6593 4394 1
6593 5493 1
6594 73 1
6594 2532 1
6594 3873 1
6594 5395 1
6594 8149 1
6595 58 1
6595 316 1
6595 904 1
6595 1076 1
6596 341 1
6596 1264 1
6596 1289 1
6596 6033 1
6597 1425 1
6597 1778 1
6597 3861 1
6597 5559 1
6598 1499 1
6598 2762 1
6598 4185 1
6598 5803 1
6598 7157 1
6598 8792 1
6598 9714 1
6598 9729 1
6599 568 1
6599 1355 1
6599 1968 1
6599 2829 1
6599 7442 1
6600 529 1
6600 2559 1
6600 3316 1
6600 4737 1
6601 3767 1
6601 4056 1
6601 5060 1
6601 5617 1
6601 8052 1
6601 9161 1
6602 13 1
6602 367 1
6602 888 1
6602 3706 1
6603 7 1
6603 1449 1
6603 2624 1
6603 6506 1
6604 1023 1
6604 1491 1
6604 1836 1
6604 3553 1
6605 946 1
6605 2458 1
6605 2954 1
6605 4348 1
6605 9588 1
6606 64 1
6606 459 1
6606 482 1
6606 718 1
6606 6916 1
6606 7595 1
6607 1375 1
6607 4521 1
6607 4760 1
6607 5212 1
6607 6677 1
6607 7211 1
6608 135 1
6608 136 1
6608 3203 1
6608 4959 1
6608 8243 1
6608 8313 1
6609 955 1
6609 1396 1
6609 2951 1
6609 3290 1
6609 6715 1
6609 6909 1
6609 7339 1
6609 7495 1
6609 9402 1
6609 9456 1
6609 9503 1
6610 1741 1
6610 1845 1
6610 1948 1
6610 2673 1
6610 6967 1
6610 8531 1
6611 30 1
6611 1400 1
6611 1580 1
6611 3168 1
6611 6888 1
6611 8012 1
6611 9336 1
6612 1 1
6612 229 1
6612 3473 1
6612 4187 1
6612 8689 1
6613 303 1
6613 832 1
6613 1168 1
6613 1535 1
6613 9731 1
6614 30 1
6614 2844 1
6614 3048 1
6614 3364 1
6615 270 1
6615 1251 1
6615 1821 1
6615 3522 1
6616 59 1
6616 771 1
6616 3613 1
6616 4640 1
6616 8042 1
6617 104 1
6617 944 1
6617 1836 1
6617 6419 1
6617 7555 1
6618 329 1
6618 1558 1
6618 3300 1
6618 4281 1
6618 9237 1
6619 26 1
6619 1511 1
6619 5087 1
6619 6309 1
6619 7154 1
6619 9731 1
6620 603 1
6620 1621 1
6620 2666 1
6620 5795 1
6620 7708 1
6621 17 1
6621 81 1
6621 398 1
6621 4016 1
6621 7236 1
6621 9020 1
6622 6 1
6622 143 1
6622 149 1
6622 2955 1
6622 9751 1
6623 25 1
6623 396 1
6623 3375 1
6623 5238 1
6623 9285 1
6624 202 1
6624 1452 1
6624 2480 1
6624 3300 1
6624 8719 1
6624 9100 1
6625 580 1
6625 674 1
6625 5309 1
6625 6230 1
6626 1535 1
6626 1728 1
6626 4754 1
6626 5576 1
6627 2247 1
6627 3109 1
6627 3647 1
6627 6049 1
6627 7074 1
6628 13 1
6628 188 1
6628 5383 1
6628 6210 1
6629 117 1
6629 284 1
6629 1462 1
6629 5183 1
6629 8066 1
6629 8133 1
6630 1482 1
6630 2310 1
6630 3239 1
6630 4001 1
6630 7632 1
6631 71 1
6631 5054 1
6631 5318 1
6631 5374 1
6632 1110 1
6632 1255 1
6632 4337 1
6632 5601 1
6632 9149 1
6633 135 1
6633 289 1
6633 835 1
6633 3082 1
6633 6712 1
6634 97 1
6634 392 1
6634 2429 1
6634 5465 1
6635 329 1
6635 1717 1
6635 2080 1
6635 5289 1
6636 300 1
6636 1778 1
6636 2404 1
6636 5302 1
6636 7146 1
6637 90 1
6637 1509 1
6637 2155 1
6637 2418 1
6637 7144 1
6637 7870 1
6638 1032 1
6638 3085 1
6638 5134 1
6638 6443 1
6639 264 1
6639 2935 1
6639 3243 1
6639 6555 1
6639 8909 1
6639 9691 1
6640 125 1
6640 236 1
6640 2016 1
6640 4073 1
6640 9006 1
6641 40 1
6641 561 1
6641 4354 1
6641 6382 1
6642 47 1
6642 1246 1
6642 1943 1
6642 2686 1
6642 7251 1
6642 7673 1
6642 9765 1
6643 117 1
6643 168 1
6643 663 1
6643 1693 1
6644 435 1
6644 597 1
6644 766 1
6644 3314 1
6644 8383 1
6645 9 1
6645 2188 1
6645 4744 1
6645 6348 1
6646 553 1
6646 2189 1
6646 3039 1
6646 3740 1
6647 1167 1
6647 2070 1
6647 2165 1
6647 2595 1
6647 7520 1
6647 9970 1
6648 2293 1
6648 2769 1
6648 5565 1
6648 5753 1
6649 48 1
6649 260 1
6649 784 1
6649 5313 1
6649 7994 1
6650 6 1
6650 267 1
6650 3092 1
6650 5803 1
6650 7722 1
6651 1593 1
6651 2758 1
6651 3489 1
6651 4103 1
6652 445 1
6652 471 1
6652 663 1
6652 4942 1
6652 8028 1
6653 9 1
6653 23 1
6653 5250 1
6653 6224 1
6653 9581 1
6654 24 1
6654 834 1
6654 846 1
6654 1038 1
6654 9769 1
6655 71 1
6655 230 1
6655 3206 1
6655 4812 1
6655 7414 1
6656 65 1
6656 317 1
6656 1888 1
6656 3759 1
6656 7960 1
6657 332 1
6657 401 1
6657 517 1
6657 3471 1
6657 6766 1
6657 7140 1
6657 7820 1
6658 13 1
6658 26 1
6658 1340 1
6658 3674 1
6659 197 1
6659 797 1
6659 1406 1
6659 4293 1
6660 2663 1
6660 3893 1
6660 4967 1
6660 6485 1
6661 586 1
6661 1602 1
6661 2823 1
6661 3351 1
6661 7227 1
6662 45 1
6662 3142 1
6662 3517 1
6662 5572 1
6662 7378 1
6663 6 1
6663 13 1
6663 1768 1
6663 6098 1
6663 9219 1
6664 502 1
6664 1037 1
6664 1411 1
6664 1722 1
6664 7514 1
6665 2146 1
6665 3843 1
6665 3931 1
6665 6071 1
6665 7324 1
6666 433 1
6666 3392 1
6666 3394 1
6666 4146 1
6666 6705 1
6667 860 1
6667 1505 1
6667 1693 1
6667 2284 1
6668 801 1
6668 967 1
6668 2459 1
6668 5008 1
6668 7942 1
6669 358 1
6669 1453 1
6669 1534 1
6669 3055 1
6670 901 1
6670 929 1
6670 2367 1
6670 3409 1
6671 649 1
6671 4141 1
6671 4646 1
6671 4898 1
6672 251 1
6672 2282 1
6672 5332 1
6672 6080 1
6672 7010 1
6672 7949 1
6672 8326 1
6672 9846 1
6673 6 1
6673 387 1
6673 1224 1
6673 5909 1
6673 9222 1
6674 30 1
6674 474 1
6674 1476 1
6674 4585 1
6674 7288 1
6675 193 1
6675 268 1
6675 425 1
6675 2810 1
6676 841 1
6676 894 1
6676 1785 1
6676 2112 1
6677 138 1
6677 1902 1
6677 4519 1
6677 6607 1
6677 7787 1
6678 80 1
6678 333 1
6678 1065 1
6678 1860 1
6679 2604 1
6679 2888 1
6679 5211 1
6679 5753 1
6680 85 1
6680 1908 1
6680 1977 1
6680 5251 1
6680 9620 1
6681 197 1
6681 456 1
6681 2969 1
6681 4686 1
6682 6 1
6682 683 1
6682 939 1
6682 4249 1
6682 7916 1
6683 57 1
6683 567 1
6683 1224 1
6683 3214 1
6684 206 1
6684 1048 1
6684 2906 1
6684 4107 1
6684 9528 1
6685 1143 1
6685 3697 1
6685 5196 1
6685 5775 1
6686 696 1
6686 716 1
6686 755 1
6686 3681 1
6687 79 1
6687 306 1
6687 4466 1
6687 4969 1
6688 942 1
6688 1099 1
6688 1334 1
6688 1569 1
6688 7128 1
6689 39 1
6689 294 1
6689 347 1
6689 3806 1
6690 366 1
6690 569 1
6690 656 1
6690 2446 1
6691 814 1
6691 1096 1
6691 1908 1
6691 5041 1
6692 1408 1
6692 1498 1
6692 1792 1
6692 2165 1
6692 6934 1
6692 7353 1
6693 95 1
6693 2647 1
6693 2867 1
6693 5408 1
6694 481 1
6694 1251 1
6694 3403 1
6694 4659 1
6694 8482 1
6694 9323 1
6695 1320 1
6695 2884 1
6695 4914 1
6695 5516 1
6696 369 1
6696 513 1
6696 719 1
6696 771 1
6696 7700 1
6696 8218 1
6697 4215 1
6697 4373 1
6697 5577 1
6697 5942 1
6697 8640 1
6698 52 1
6698 118 1
6698 664 1
6698 1968 1
6699 63 1
6699 776 1
6699 1576 1
6699 5106 1
6700 219 1
6700 452 1
6700 3094 1
6700 6021 1
6700 9510 1
6701 173 1
6701 1533 1
6701 1672 1
6701 5096 1
6701 8211 1
6701 8587 1
6702 475 1
6702 567 1
6702 3858 1
6702 4343 1
6702 8837 1
6703 120 1
6703 243 1
6703 1573 1
6703 2564 1
6703 7220 1
6703 7465 1
6703 9362 1
6704 39 1
6704 1642 1
6704 3238 1
6704 3353 1
6704 7536 1
6704 9642 1
6704 9918 1
6705 955 1
6705 2730 1
6705 4926 1
6705 6666 1
6706 1776 1
6706 3536 1
6706 6187 1
6706 6358 1
6706 9602 1
6707 7 1
6707 737 1
6707 3027 1
6707 4210 1
6707 6823 1
6707 7427 1
6708 343 1
6708 846 1
6708 2495 1
6708 6386 1
6708 8179 1
6708 8445 1
6708 8463 1
6708 8627 1
6708 8728 1
6709 17 1
6709 543 1
6709 1613 1
6709 4657 1
6709 9888 1
6710 513 1
6710 600 1
6710 785 1
6710 1590 1
6711 1056 1
6711 1724 1
6711 3392 1
6711 6165 1
6712 623 1
6712 5914 1
6712 6120 1
6712 6633 1
6712 7345 1
6712 9807 1
6713 886 1
6713 945 1
6713 1397 1
6713 3320 1
6713 8473 1
6713 9430 1
6714 533 1
6714 2705 1
6714 4679 1
6714 5534 1
6715 229 1
6715 553 1
6715 4685 1
6715 6609 1
6715 7160 1
6715 8431 1
6716 64 1
6716 4792 1
6716 5608 1
6716 5693 1
6717 2257 1
6717 3549 1
6717 4811 1
6717 5910 1
6718 116 1
6718 3187 1
6718 3215 1
6718 3996 1
6719 167 1
6719 1090 1
6719 1763 1
6719 5223 1
6719 9816 1
6720 1095 1
6720 1301 1
6720 3057 1
6720 3310 1
6721 641 1
6721 1247 1
6721 4412 1
6721 5202 1
6721 8035 1
6722 127 1
6722 461 1
6722 4903 1
6722 5225 1
6723 267 1
6723 317 1
6723 2219 1
6723 2566 1
6724 271 1
6724 611 1
6724 1199 1
6724 1815 1
6724 8216 1
6725 28 1
6725 230 1
6725 1394 1
6725 1881 1
6726 390 1
6726 1128 1
6726 3137 1
6726 3867 1
6727 172 1
6727 2961 1
6727 3316 1
6727 4748 1
6727 9420 1
6728 181 1
6728 285 1
6728 547 1
6728 3903 1
6729 14 1
6729 27 1
6729 103 1
6729 971 1
6730 256 1
6730 277 1
6730 1251 1
6730 4928 1
6730 9335 1
6731 580 1
6731 1213 1
6731 1649 1
6731 4833 1
6732 374 1
6732 1053 1
6732 1498 1
6732 3596 1
6732 7037 1
6732 9831 1
6733 430 1
6733 564 1
6733 2645 1
6733 4650 1
6733 7110 1
6733 7192 1
6734 606 1
6734 1451 1
6734 4189 1
6734 5855 1
6735 57 1
6735 1060 1
6735 1090 1
6735 1294 1
6736 96 1
6736 518 1
6736 1375 1
6736 4761 1
6736 7103 1
6736 7755 1
6736 8097 1
6737 1744 1
6737 2105 1
6737 4469 1
6737 6560 1
6737 8665 1
6737 9334 1
6738 32 1
6738 4696 1
6738 5637 1
6738 6232 1
6739 207 1
6739 2256 1
6739 2310 1
6739 2337 1
6739 9728 1
6740 58 1
6740 708 1
6740 1634 1
6740 3335 1
6741 1312 1
6741 1708 1
6741 3552 1
6741 4758 1
6741 7488 1
6741 8836 1
6741 8894 1
6742 609 1
6742 1369 1
6742 3994 1
6742 5743 1
6742 7536 1
6742 7642 1
6743 836 1
6743 994 1
6743 3824 1
6743 6384 1
6743 6890 1
6744 288 1
6744 1674 1
6744 3774 1
6744 6309 1
6744 7694 1
6744 8340 1
6745 556 1
6745 1937 1
6745 1984 1
6745 4441 1
6745 7087 1
6745 9610 1
6746 789 1
6746 1241 1
6746 1831 1
6746 5856 1
6746 7870 1
6747 2931 1
6747 3216 1
6747 4494 1
6747 4552 1
6747 9554 1
6748 515 1
6748 2070 1
6748 4102 1
6748 5764 1
6749 415 1
6749 998 1
6749 1563 1
6749 3014 1
6749 9806 1
6750 403 1
6750 620 1
6750 632 1
6750 3900 1
6750 7757 1
6750 8074 1
6751 222 1
6751 1019 1
6751 2206 1
6751 3006 1
6752 366 1
6752 605 1
6752 2126 1
6752 4294 1
6752 9267 1
6752 9411 1
6752 9808 1
6753 3322 1
6753 3851 1
6753 3950 1
6753 6479 1
6753 6784 1
6754 606 1
6754 2257 1
6754 5321 1
6754 5799 1
6754 9137 1
6755 120 1
6755 990 1
6755 3547 1
6755 4038 1
6756 3 1
6756 115 1
6756 1022 1
6756 2664 1
6757 794 1
6757 853 1
6757 1209 1
6757 1763 1
6757 7001 1
6757 7200 1
6758 310 1
6758 854 1
6758 3773 1
6758 5562 1
6758 8259 1
6758 9228 1
6759 104 1
6759 3526 1
6759 3625 1
6759 6506 1
6759 7440 1
6760 202 1
6760 270 1
6760 2859 1
6760 4917 1
6761 713 1
6761 2493 1
6761 2754 1
6761 6001 1
6761 7077 1
6761 8861 1
6761 8915 1
6762 5 1
6762 1082 1
6762 4417 1
6762 6309 1
6763 39 1
6763 602 1
6763 3484 1
6763 6296 1
6763 7281 1
6763 7748 1
6763 9320 1
6763 9580 1
6763 9924 1
6764 484 1
6764 1259 1
6764 1498 1
6764 4462 1
6765 12 1
6765 2013 1
6765 2892 1
6765 3859 1
6766 826 1
6766 1856 1
6766 4519 1
6766 6657 1
6766 6877 1
6766 8222 1
6766 9719 1
6767 794 1
6767 1147 1
6767 3081 1
6767 5876 1
6768 87 1
6768 2040 1
6768 2664 1
6768 3640 1
6769 357 1
6769 2480 1
6769 2788 1
6769 6180 1
6769 9805 1
6770 3 1
6770 89 1
6770 4157 1
6770 4476 1
6771 921 1
6771 2982 1
6771 4330 1
6771 4530 1
6772 64 1
6772 325 1
6772 816 1
6772 870 1
6772 9906 1
6773 547 1
6773 963 1
6773 1760 1
6773 5990 1
6773 8692 1
6774 3 1
6774 29 1
6774 457 1
6774 2719 1
6775 915 1
6775 929 1
6775 1512 1
6775 4716 1
6775 9040 1
6776 998 1
6776 2161 1
6776 2491 1
6776 4165 1
6777 341 1
6777 3741 1
6777 3817 1
6777 4254 1
6778 188 1
6778 206 1
6778 1539 1
6778 4634 1
6778 6875 1
6778 8855 1
6779 27 1
6779 615 1
6779 1928 1
6779 5553 1
6780 199 1
6780 634 1
6780 3388 1
6780 4306 1
6780 8578 1
6781 278 1
6781 433 1
6781 757 1
6781 2086 1
6781 7120 1
6781 7889 1
6781 8184 1
6781 8538 1
6781 9072 1
6781 9334 1
6782 2808 1
6782 3561 1
6782 5154 1
6782 5461 1
6783 11 1
6783 39 1
6783 2589 1
6783 4919 1
6783 8487 1
6784 13 1
6784 495 1
6784 5808 1
6784 6753 1
6784 8332 1
6784 8489 1
6784 9695 1
6785 351 1
6785 851 1
6785 3183 1
6785 5983 1
6786 43 1
6786 565 1
6786 1052 1
6786 2671 1
6786 6829 1
6786 7592 1
6787 7 1
6787 22 1
6787 1190 1
6787 1468 1
6788 2303 1
6788 2379 1
6788 2554 1
6788 4202 1
6788 7100 1
6789 11 1
6789 324 1
6789 413 1
6789 2685 1
6790 475 1
6790 1893 1
6790 3369 1
6790 4859 1
6791 73 1
6791 3839 1
6791 5803 1
6791 6077 1
6791 9566 1
6792 50 1
6792 77 1
6792 173 1
6792 3259 1
6792 9440 1
6793 9 1
6793 34 1
6793 374 1
6793 1791 1
6794 539 1
6794 1248 1
6794 1252 1
6794 1442 1
6794 8009 1
6794 9394 1
6794 9441 1
6795 580 1
6795 1796 1
6795 3938 1
6795 5265 1
6795 8168 1
6796 96 1
6796 933 1
6796 2119 1
6796 2222 1
6796 6915 1
6796 7908 1
6797 1155 1
6797 1352 1
6797 2203 1
6797 3053 1
6797 9525 1
6798 7 1
6798 9 1
6798 24 1
6798 2518 1
6799 95 1
6799 1078 1
6799 2885 1
6799 4254 1
6800 125 1
6800 3068 1
6800 5261 1
6800 6512 1
6801 14 1
6801 2010 1
6801 2471 1
6801 2908 1
6801 7137 1
6802 179 1
6802 212 1
6802 2593 1
6802 3624 1
6802 8351 1
6802 9714 1
6803 184 1
6803 2696 1
6803 3047 1
6803 4628 1
6804 726 1
6804 736 1
6804 3607 1
6804 4336 1
6805 41 1
6805 484 1
6805 538 1
6805 3381 1
6805 9696 1
6806 244 1
6806 413 1
6806 699 1
6806 5197 1
6807 109 1
6807 216 1
6807 2069 1
6807 3341 1
6807 9875 1
6808 16 1
6808 2636 1
6808 2823 1
6808 5385 1
6809 65 1
6809 228 1
6809 1510 1
6809 2895 1
6810 52 1
6810 103 1
6810 3954 1
6810 5059 1
6811 32 1
6811 1054 1
6811 3477 1
6811 5640 1
6811 7866 1
6812 327 1
6812 501 1
6812 3073 1
6812 5498 1
6812 7272 1
6813 8 1
6813 29 1
6813 1007 1
6813 1565 1
6813 8331 1
6814 33 1
6814 1089 1
6814 1210 1
6814 5116 1
6815 10 1
6815 1396 1
6815 3234 1
6815 5928 1
6816 53 1
6816 545 1
6816 2475 1
6816 6076 1
6816 9795 1
6816 9809 1
6817 14 1
6817 111 1
6817 1763 1
6817 2599 1
6818 1062 1
6818 1329 1
6818 1340 1
6818 5344 1
6819 1412 1
6819 2503 1
6819 2573 1
6819 2865 1
6819 8242 1
6819 9883 1
6820 1106 1
6820 1137 1
6820 1449 1
6820 3918 1
6820 7850 1
6821 238 1
6821 359 1
6821 2952 1
6821 5998 1
6821 9173 1
6821 9709 1
6822 22 1
6822 567 1
6822 1528 1
6822 4738 1
6822 8091 1
6823 6 1
6823 277 1
6823 2005 1
6823 6707 1
6824 766 1
6824 867 1
6824 3334 1
6824 3850 1
6825 532 1
6825 605 1
6825 2161 1
6825 2763 1
6826 755 1
6826 2456 1
6826 3045 1
6826 5506 1
6826 8375 1
6827 6 1
6827 867 1
6827 4919 1
6827 5558 1
6828 2034 1
6828 2559 1
6828 3739 1
6828 5012 1
6828 8325 1
6829 12 1
6829 29 1
6829 5177 1
6829 6786 1
6829 7619 1
6830 659 1
6830 786 1
6830 3276 1
6830 4125 1
6831 483 1
6831 2002 1
6831 2431 1
6831 3647 1
6832 223 1
6832 1773 1
6832 1976 1
6832 2957 1
6833 221 1
6833 586 1
6833 1245 1
6833 4756 1
6834 383 1
6834 499 1
6834 714 1
6834 5228 1
6834 9537 1
6835 21 1
6835 425 1
6835 1127 1
6835 3348 1
6835 8512 1
6836 1079 1
6836 1317 1
6836 3896 1
6836 5803 1
6837 651 1
6837 1211 1
6837 4236 1
6837 4565 1
6837 6992 1
6837 7106 1
6837 8438 1
6837 9384 1
6838 447 1
6838 1402 1
6838 2478 1
6838 6470 1
6839 65 1
6839 386 1
6839 570 1
6839 2524 1
6840 195 1
6840 1154 1
6840 1798 1
6840 4692 1
6841 176 1
6841 296 1
6841 1221 1
6841 1884 1
6842 156 1
6842 368 1
6842 537 1
6842 4859 1
6842 8903 1
6842 9153 1
6843 132 1
6843 165 1
6843 844 1
6843 1268 1
6843 8449 1
6844 348 1
6844 1818 1
6844 3552 1
6844 4429 1
6844 7808 1
6844 9781 1
6845 211 1
6845 461 1
6845 2848 1
6845 3466 1
6846 588 1
6846 667 1
6846 2156 1
6846 4639 1
6847 165 1
6847 375 1
6847 3627 1
6847 3712 1
6848 185 1
6848 680 1
6848 3562 1
6848 4822 1
6848 8491 1
6849 98 1
6849 153 1
6849 1865 1
6849 3558 1
6849 7390 1
6849 7815 1
6849 8617 1
6849 9200 1
6849 9361 1
6850 139 1
6850 362 1
6850 2514 1
6850 3068 1
6850 7121 1
6851 194 1
6851 739 1
6851 3750 1
6851 4535 1
6852 31 1
6852 385 1
6852 5587 1
6852 5723 1
6853 5 1
6853 1443 1
6853 2993 1
6853 6586 1
6854 344 1
6854 558 1
6854 1436 1
6854 4076 1
6854 6882 1
6854 9225 1
6854 9751 1
6855 166 1
6855 3334 1
6855 5063 1
6855 6181 1
6855 7545 1
6856 136 1
6856 2443 1
6856 5561 1
6856 6179 1
6857 239 1
6857 828 1
6857 1962 1
6857 3782 1
6858 1154 1
6858 2287 1
6858 3263 1
6858 5165 1
6858 8181 1
6858 8372 1
6859 30 1
6859 326 1
6859 4027 1
6859 5456 1
6860 6 1
6860 10 1
6860 1162 1
6860 4911 1
6860 7164 1
6860 7749 1
6860 8268 1
6861 772 1
6861 1760 1
6861 4276 1
6861 4512 1
6862 2253 1
6862 2265 1
6862 3768 1
6862 4889 1
6862 7720 1
6863 58 1
6863 789 1
6863 2446 1
6863 3344 1
6864 52 1
6864 617 1
6864 958 1
6864 4077 1
6864 9847 1
6865 347 1
6865 2007 1
6865 2446 1
6865 5525 1
6866 3 1
6866 710 1
6866 3718 1
6866 5066 1
6867 34 1
6867 413 1
6867 610 1
6867 4701 1
6868 361 1
6868 1996 1
6868 2020 1
6868 3348 1
6868 8978 1
6869 2135 1
6869 2713 1
6869 2986 1
6869 6283 1
6869 9290 1
6870 12 1
6870 3262 1
6870 3326 1
6870 6473 1
6870 8289 1
6871 1 1
6871 4217 1
6871 6291 1
6871 6520 1
6871 7703 1
6871 8204 1
6871 8616 1
6872 9 1
6872 1301 1
6872 5639 1
6872 6302 1
6873 765 1
6873 850 1
6873 4466 1
6873 5852 1
6873 9013 1
6874 695 1
6874 2734 1
6874 3927 1
6874 4610 1
6875 51 1
6875 1508 1
6875 1820 1
6875 6778 1
6876 174 1
6876 373 1
6876 1545 1
6876 5096 1
6877 719 1
6877 5041 1
6877 5711 1
6877 6766 1
6877 8307 1
6877 8630 1
6878 264 1
6878 477 1
6878 2044 1
6878 5810 1
6878 7900 1
6878 8761 1
6879 285 1
6879 521 1
6879 711 1
6879 1929 1
6880 15 1
6880 2008 1
6880 3184 1
6880 4880 1
6880 8878 1
6881 91 1
6881 235 1
6881 1607 1
6881 4491 1
6882 79 1
6882 1486 1
6882 2009 1
6882 6854 1
6883 932 1
6883 989 1
6883 2334 1
6883 3729 1
6884 37 1
6884 253 1
6884 428 1
6884 3039 1
6884 8239 1
6885 167 1
6885 1520 1
6885 3538 1
6885 4059 1
6885 9888 1
6886 1381 1
6886 1691 1
6886 4173 1
6886 5265 1
6887 28 1
6887 74 1
6887 98 1
6887 2295 1
6888 90 1
6888 5530 1
6888 5969 1
6888 6611 1
6888 8574 1
6889 89 1
6889 2805 1
6889 3250 1
6889 5737 1
6890 362 1
6890 690 1
6890 3339 1
6890 6743 1
6891 1132 1
6891 1287 1
6891 3262 1
6891 4033 1
6891 9991 1
6892 36 1
6892 823 1
6892 2620 1
6892 5416 1
6892 7075 1
6893 781 1
6893 957 1
6893 4706 1
6893 5448 1
6893 6943 1
6893 8571 1
6893 8766 1
6894 107 1
6894 520 1
6894 1548 1
6894 5324 1
6895 11 1
6895 307 1
6895 328 1
6895 437 1
6896 216 1
6896 3229 1
6896 3320 1
6896 4975 1
6897 31 1
6897 120 1
6897 2201 1
6897 4131 1
6897 9034 1
6898 379 1
6898 411 1
6898 2045 1
6898 4091 1
6898 8675 1
6899 72 1
6899 1597 1
6899 1712 1
6899 2626 1
6900 168 1
6900 1300 1
6900 1479 1
6900 3588 1
6901 1474 1
6901 3525 1
6901 3654 1
6901 6224 1
6901 9212 1
6902 86 1
6902 152 1
6902 3387 1
6902 3907 1
6902 9736 1
6903 72 1
6903 1079 1
6903 2767 1
6903 4396 1
6904 205 1
6904 912 1
6904 1058 1
6904 1673 1
6904 7641 1
6904 9190 1
6905 1527 1
6905 3341 1
6905 4205 1
6905 6132 1
6905 7051 1
6906 182 1
6906 210 1
6906 1210 1
6906 1252 1
6907 490 1
6907 1845 1
6907 2627 1
6907 4882 1
6908 55 1
6908 275 1
6908 1901 1
6908 1975 1
6908 9194 1
6909 3 1
6909 2016 1
6909 2645 1
6909 6609 1
6910 57 1
6910 765 1
6910 1897 1
6910 2810 1
6910 7459 1
6910 7560 1
6910 9759 1
6911 216 1
6911 767 1
6911 1872 1
6911 5663 1
6912 12 1
6912 637 1
6912 2359 1
6912 2361 1
6912 9405 1
6913 198 1
6913 1090 1
6913 1843 1
6913 3158 1
6913 7293 1
6914 19 1
6914 1398 1
6914 3588 1
6914 6130 1
6914 7697 1
6914 9693 1
6915 601 1
6915 1215 1
6915 3451 1
6915 6796 1
6916 80 1
6916 1429 1
6916 3009 1
6916 6606 1
6916 9015 1
6917 1244 1
6917 3712 1
6917 5160 1
6917 6366 1
6917 9549 1
6918 95 1
6918 877 1
6918 1282 1
6918 6173 1
6919 28 1
6919 136 1
6919 340 1
6919 4497 1
6919 9217 1
6920 314 1
6920 1041 1
6920 3607 1
6920 4192 1
6921 46 1
6921 72 1
6921 4722 1
6921 5626 1
6922 292 1
6922 969 1
6922 4311 1
6922 4956 1
6922 7096 1
6922 9070 1
6922 9787 1
6922 9912 1
6923 113 1
6923 201 1
6923 1612 1
6923 2157 1
6923 7443 1
6924 225 1
6924 1024 1
6924 1107 1
6924 2854 1
6925 97 1
6925 219 1
6925 264 1
6925 1719 1
6925 7331 1
6926 424 1
6926 2413 1
6926 4465 1
6926 5207 1
6927 737 1
6927 1222 1
6927 2852 1
6927 4491 1
6928 539 1
6928 997 1
6928 1050 1
6928 1139 1
6929 57 1
6929 134 1
6929 2909 1
6929 5418 1
6930 1 1
6930 1365 1
6930 3987 1
6930 6587 1
6930 7268 1
6931 186 1
6931 274 1
6931 1036 1
6931 1538 1
6931 8538 1
6932 10 1
6932 724 1
6932 792 1
6932 937 1
6933 81 1
6933 852 1
6933 923 1
6933 4975 1
6934 152 1
6934 2253 1
6934 5722 1
6934 6692 1
6935 1601 1
6935 1984 1
6935 6212 1
6935 6392 1
6935 9676 1
6936 832 1
6936 1714 1
6936 3194 1
6936 3757 1
6937 420 1
6937 1897 1
6937 3676 1
6937 4676 1
6938 36 1
6938 937 1
6938 4420 1
6938 5553 1
6938 8754 1
6939 11 1
6939 325 1
6939 3268 1
6939 5449 1
6940 81 1
6940 1147 1
6940 1512 1
6940 4493 1
6940 7876 1
6941 31 1
6941 1343 1
6941 2308 1
6941 2664 1
6942 323 1
6942 561 1
6942 1342 1
6942 2585 1
6943 119 1
6943 340 1
6943 1274 1
6943 6893 1
6943 7339 1
6943 8357 1
6944 633 1
6944 2254 1
6944 2337 1
6944 5398 1
6944 7701 1
6944 9310 1
6945 261 1
6945 842 1
6945 4709 1
6945 6223 1
6946 562 1
6946 739 1
6946 817 1
6946 5243 1
6947 34 1
6947 601 1
6947 744 1
6947 1650 1
6948 10 1
6948 2131 1
6948 2984 1
6948 5284 1
6948 9843 1
6948 9989 1
6949 34 1
6949 2822 1
6949 4238 1
6949 5454 1
6949 9185 1
6950 6 1
6950 122 1
6950 203 1
6950 2957 1
6951 83 1
6951 2674 1
6951 3566 1
6951 4763 1
6951 8023 1
6951 8593 1
6952 12 1
6952 2968 1
6952 3560 1
6952 5535 1
6952 8860 1
6953 1233 1
6953 1578 1
6953 1611 1
6953 2088 1
6953 8756 1
6954 1269 1
6954 2792 1
6954 4628 1
6954 5592 1
6955 72 1
6955 330 1
6955 427 1
6955 5924 1
6956 115 1
6956 1285 1
6956 2640 1
6956 2798 1
6956 9853 1
6957 14 1
6957 224 1
6957 986 1
6957 4296 1
6958 789 1
6958 4294 1
6958 4887 1
6958 6196 1
6958 9729 1
6959 101 1
6959 117 1
6959 414 1
6959 524 1
6959 9410 1
6959 9458 1
6960 1039 1
6960 1404 1
6960 3465 1
6960 4039 1
6961 32 1
6961 2800 1
6961 3165 1
6961 3788 1
6962 459 1
6962 1573 1
6962 2349 1
6962 2870 1
6962 7765 1
6962 8985 1
6963 28 1
6963 256 1
6963 2111 1
6963 2341 1
6964 653 1
6964 1992 1
6964 5320 1
6964 5567 1
6964 9384 1
6965 156 1
6965 166 1
6965 1729 1
6965 3651 1
6965 8068 1
6966 580 1
6966 1665 1
6966 2344 1
6966 4960 1
6966 8954 1
6967 1456 1
6967 3277 1
6967 5440 1
6967 6610 1
6967 7838 1
6968 58 1
6968 1069 1
6968 2138 1
6968 5926 1
6968 9033 1
6969 96 1
6969 429 1
6969 2341 1
6969 6057 1
6970 814 1
6970 2862 1
6970 5505 1
6970 5840 1
6970 7642 1
6971 31 1
6971 115 1
6971 149 1
6971 2452 1
6972 138 1
6972 212 1
6972 991 1
6972 6109 1
6972 9055 1
6973 1 1
6973 12 1
6973 1662 1
6973 5347 1
6974 5 1
6974 1699 1
6974 5167 1
6974 5449 1
6975 181 1
6975 212 1
6975 479 1
6975 3848 1
6975 7161 1
6975 8845 1
6976 1380 1
6976 2044 1
6976 2206 1
6976 5662 1
6977 52 1
6977 1097 1
6977 5057 1
6977 5752 1
6977 7302 1
6978 198 1
6978 340 1
6978 847 1
6978 3822 1
6978 8853 1
6978 9886 1
6979 10 1
6979 253 1
6979 2632 1
6979 5353 1
6980 5 1
6980 3832 1
6980 5703 1
6980 6099 1
6980 7153 1
6980 7234 1
6981 206 1
6981 850 1
6981 1140 1
6981 1372 1
6982 318 1
6982 392 1
6982 1287 1
6982 3013 1
6982 7070 1
6982 8357 1
6982 8868 1
6983 97 1
6983 1451 1
6983 2057 1
6983 2472 1
6984 632 1
6984 1285 1
6984 1951 1
6984 2564 1
6984 7171 1
6985 1800 1
6985 2369 1
6985 2650 1
6985 5512 1
6985 7736 1
6986 713 1
6986 3028 1
6986 4890 1
6986 5354 1
6986 7060 1
6987 84 1
6987 1317 1
6987 1789 1
6987 2103 1
6988 425 1
6988 2178 1
6988 2929 1
6988 6380 1
6988 8608 1
6989 388 1
6989 774 1
6989 946 1
6989 3213 1
6989 9209 1
6989 9745 1
6990 679 1
6990 719 1
6990 1155 1
6990 4246 1
6991 65 1
6991 1350 1
6991 1488 1
6991 5485 1
6992 6 1
6992 781 1
6992 949 1
6992 6837 1
6992 7006 1
6992 7903 1
6992 9871 1
6993 2715 1
6993 3296 1
6993 4938 1
6993 5628 1
6993 8242 1
6994 20 1
6994 333 1
6994 2472 1
6994 4477 1
6995 122 1
6995 696 1
6995 767 1
6995 4294 1
6996 14 1
6996 1556 1
6996 4138 1
6996 6158 1
6997 17 1
6997 89 1
6997 1566 1
6997 2387 1
6997 9088 1
6997 9712 1
6998 448 1
6998 755 1
6998 2324 1
6998 4796 1
6999 198 1
6999 1355 1
6999 2004 1
6999 4343 1
7000 1162 1
7000 2447 1
7000 5094 1
7000 6206 1
7001 1031 1
7001 2690 1
7001 3322 1
7001 6757 1
7001 8937 1
7002 10 1
7002 310 1
7002 2492 1
7002 6486 1
7003 19 1
7003 1105 1
7003 1366 1
7003 5275 1
7003 7332 1
7004 302 1
7004 589 1
7004 1168 1
7004 3890 1
7004 8896 1
7005 932 1
7005 952 1
7005 1788 1
7005 3154 1
7006 14 1
7006 544 1
7006 5430 1
7006 6992 1
7006 9152 1
7007 514 1
7007 2146 1
7007 2780 1
7007 5183 1
7007 7925 1
7008 28 1
7008 45 1
7008 390 1
7008 4954 1
7009 1 1
7009 36 1
7009 504 1
7009 2821 1
7009 7752 1
7009 9512 1
7010 260 1
7010 1707 1
7010 2257 1
7010 6672 1
7011 8 1
7011 730 1
7011 1072 1
7011 2002 1
7011 8819 1
7012 23 1
7012 555 1
7012 964 1
7012 4704 1
7013 563 1
7013 1106 1
7013 2676 1
7013 6517 1
7013 7988 1
7013 8484 1
7013 9576 1
7014 133 1
7014 1063 1
7014 1068 1
7014 1199 1
7015 579 1
7015 1291 1
7015 1502 1
7015 5071 1
7015 7158 1
7015 8093 1
7015 9552 1
7016 48 1
7016 952 1
7016 1975 1
7016 4152 1
7016 7043 1
7017 250 1
7017 2310 1
7017 2400 1
7017 4264 1
7017 8037 1
7018 660 1
7018 804 1
7018 1408 1
7018 4361 1
7019 330 1
7019 1129 1
7019 3306 1
7019 4346 1
7020 869 1
7020 1997 1
7020 2655 1
7020 5719 1
7021 20 1
7021 118 1
7021 1073 1
7021 6156 1
7022 1073 1
7022 2363 1
7022 2879 1
7022 5290 1
7023 678 1
7023 691 1
7023 4859 1
7023 6581 1
7023 8574 1
7023 9370 1
7024 1580 1
7024 1960 1
7024 2622 1
7024 4865 1
7025 865 1
7025 2648 1
7025 3431 1
7025 5493 1
7026 48 1
7026 1297 1
7026 2530 1
7026 3889 1
7026 8460 1
7026 9396 1
7026 9794 1
7026 9853 1
7027 138 1
7027 173 1
7027 2852 1
7027 6059 1
7028 23 1
7028 463 1
7028 1298 1
7028 3687 1
7029 174 1
7029 2678 1
7029 4876 1
7029 6377 1
7030 112 1
7030 1750 1
7030 1764 1
7030 2301 1
7030 9761 1
7031 48 1
7031 58 1
7031 2306 1
7031 5439 1
7031 7083 1
7031 7995 1
7032 114 1
7032 1134 1
7032 4061 1
7032 5455 1
7032 9171 1
7033 2460 1
7033 3283 1
7033 3327 1
7033 6212 1
7034 274 1
7034 2092 1
7034 4803 1
7034 5555 1
7035 29 1
7035 258 1
7035 422 1
7035 2906 1
7036 118 1
7036 520 1
7036 1129 1
7036 3194 1
7037 2817 1
7037 4109 1
7037 5355 1
7037 6732 1
7038 211 1
7038 281 1
7038 1991 1
7038 2619 1
7039 3067 1
7039 3306 1
7039 5440 1
7039 6445 1
7040 828 1
7040 1674 1
7040 2173 1
7040 3612 1
7041 15 1
7041 87 1
7041 362 1
7041 2955 1
7042 34 1
7042 228 1
7042 504 1
7042 1270 1
7043 849 1
7043 1777 1
7043 2422 1
7043 7016 1
7044 426 1
7044 1231 1
7044 1759 1
7044 3919 1
7045 17 1
7045 628 1
7045 2715 1
7045 5215 1
7045 7152 1
7046 22 1
7046 1497 1
7046 2156 1
7046 3176 1
7047 5 1
7047 1880 1
7047 1927 1
7047 5135 1
7047 8459 1
7048 1498 1
7048 2328 1
7048 2760 1
7048 6064 1
7049 6 1
7049 903 1
7049 1321 1
7049 4456 1
7050 153 1
7050 1532 1
7050 5526 1
7050 6330 1
7050 8099 1
7050 8188 1
7051 1 1
7051 61 1
7051 2139 1
7051 6905 1
7052 5 1
7052 61 1
7052 326 1
7052 3890 1
7053 263 1
7053 979 1
7053 5149 1
7053 6511 1
7054 54 1
7054 1898 1
7054 5213 1
7054 5340 1
7054 7184 1
7054 8049 1
7055 630 1
7055 829 1
7055 2675 1
7055 4147 1
7056 882 1
7056 926 1
7056 1133 1
7056 4480 1
7056 7500 1
7057 38 1
7057 382 1
7057 1707 1
7057 3289 1
7058 410 1
7058 422 1
7058 1236 1
7058 3397 1
7059 694 1
7059 3392 1
7059 4185 1
7059 6322 1
7060 424 1
7060 1851 1
7060 6143 1
7060 6986 1
7061 9 1
7061 198 1
7061 1517 1
7061 4348 1
7061 8279 1
7062 83 1
7062 1516 1
7062 2968 1
7062 6296 1
7063 13 1
7063 49 1
7063 60 1
7063 2540 1
7063 8356 1
7064 1284 1
7064 2239 1
7064 2398 1
7064 5009 1
7065 1253 1
7065 2352 1
7065 3791 1
7065 5443 1
7065 9686 1
7066 567 1
7066 848 1
7066 924 1
7066 4381 1
7067 85 1
7067 235 1
7067 650 1
7067 1541 1
7067 7926 1
7067 9963 1
7068 372 1
7068 2500 1
7068 4750 1
7068 5679 1
7069 298 1
7069 854 1
7069 5486 1
7069 6366 1
7069 9782 1
7070 4 1
7070 374 1
7070 3176 1
7070 6982 1
7071 138 1
7071 640 1
7071 2121 1
7071 2940 1
7071 7714 1
7071 9670 1
7071 9972 1
7072 6 1
7072 294 1
7072 1518 1
7072 5919 1
7072 7273 1
7073 180 1
7073 1493 1
7073 2216 1
7073 3462 1
7074 79 1
7074 3919 1
7074 4916 1
7074 6627 1
7075 1245 1
7075 2156 1
7075 3137 1
7075 6892 1
7075 7498 1
7076 239 1
7076 4694 1
7076 4863 1
7076 5702 1
7077 5514 1
7077 5925 1
7077 6421 1
7077 6761 1
7077 8609 1
7078 1562 1
7078 2600 1
7078 2798 1
7078 4489 1
7079 323 1
7079 490 1
7079 1174 1
7079 4131 1
7079 8649 1
7079 9028 1
7080 2010 1
7080 2949 1
7080 4877 1
7080 5098 1
7080 7653 1
7080 9122 1
7081 30 1
7081 2427 1
7081 4056 1
7081 5124 1
7081 7672 1
7081 8881 1
7081 9141 1
7082 286 1
7082 549 1
7082 2061 1
7082 3102 1
7083 194 1
7083 884 1
7083 4306 1
7083 7031 1
7084 1261 1
7084 1291 1
7084 3526 1
7084 6188 1
7085 14 1
7085 647 1
7085 896 1
7085 1693 1
7086 128 1
7086 309 1
7086 732 1
7086 1912 1
7086 8164 1
7087 353 1
7087 5212 1
7087 5986 1
7087 6745 1
7088 185 1
7088 1093 1
7088 1253 1
7088 4698 1
7089 530 1
7089 2715 1
7089 3083 1
7089 3354 1
7090 493 1
7090 814 1
7090 4024 1
7090 6317 1
7091 30 1
7091 456 1
7091 986 1
7091 4181 1
7091 7222 1
7092 318 1
7092 1464 1
7092 2262 1
7092 4734 1
7092 7101 1
7093 176 1
7093 807 1
7093 5015 1
7093 5284 1
7093 8757 1
7094 30 1
7094 84 1
7094 1723 1
7094 4750 1
7094 7191 1
7094 7249 1
7094 8121 1
7094 8998 1
7094 9105 1
7095 94 1
7095 152 1
7095 5051 1
7095 6289 1
7095 7800 1
7096 627 1
7096 1696 1
7096 6252 1
7096 6922 1
7097 1607 1
7097 2071 1
7097 3723 1
7097 5752 1
7098 40 1
7098 2043 1
7098 3185 1
7098 5205 1
7098 7942 1
7099 95 1
7099 278 1
7099 1539 1
7099 2646 1
7100 2847 1
7100 3792 1
7100 6145 1
7100 6788 1
7101 586 1
7101 2663 1
7101 3866 1
7101 7092 1
7102 185 1
7102 1090 1
7102 2476 1
7102 5987 1
7102 8694 1
7103 150 1
7103 2971 1
7103 6338 1
7103 6736 1
7103 8065 1
7104 14 1
7104 1210 1
7104 2380 1
7104 3610 1
7104 7362 1
7104 8620 1
7104 8906 1
7105 188 1
7105 1500 1
7105 3105 1
7105 6564 1
7105 7865 1
7105 8623 1
7105 9694 1
7106 823 1
7106 2609 1
7106 6375 1
7106 6837 1
7106 7167 1
7106 8941 1
7107 11 1
7107 37 1
7107 5323 1
7107 5835 1
7107 9293 1
7108 184 1
7108 397 1
7108 3058 1
7108 5595 1
7108 7800 1
7108 8991 1
7109 7 1
7109 3235 1
7109 5128 1
7109 6496 1
7109 8559 1
7110 1069 1
7110 4575 1
7110 5263 1
7110 6733 1
7111 3095 1
7111 3379 1
7111 5549 1
7111 5891 1
7112 345 1
7112 1076 1
7112 1375 1
7112 3807 1
7112 7808 1
7112 9036 1
7113 254 1
7113 1141 1
7113 1987 1
7113 3039 1
7114 549 1
7114 1310 1
7114 2881 1
7114 6451 1
7114 7458 1
7115 1634 1
7115 3674 1
7115 4297 1
7115 4898 1
7116 1843 1
7116 2116 1
7116 2323 1
7116 5767 1
7117 178 1
7117 983 1
7117 1681 1
7117 3032 1
7118 123 1
7118 134 1
7118 2666 1
7118 5053 1
7118 7503 1
7118 8507 1
7119 6 1
7119 1271 1
7119 1750 1
7119 5283 1
7120 47 1
7120 385 1
7120 1268 1
7120 6781 1
7121 2670 1
7121 3194 1
7121 3333 1
7121 6850 1
7121 7214 1
7121 8556 1
7121 8677 1
7122 43 1
7122 65 1
7122 1862 1
7122 4148 1
7123 40 1
7123 200 1
7123 568 1
7123 2539 1
7123 7488 1
7123 9659 1
7124 43 1
7124 1727 1
7124 3166 1
7124 4251 1
7124 9310 1
7125 2567 1
7125 4113 1
7125 4238 1
7125 5486 1
7125 7948 1
7126 1625 1
7126 1711 1
7126 1897 1
7126 4554 1
7126 9582 1
7127 64 1
7127 167 1
7127 599 1
7127 2331 1
7128 47 1
7128 197 1
7128 609 1
7128 6688 1
7129 482 1
7129 918 1
7129 2829 1
7129 6575 1
7130 232 1
7130 364 1
7130 397 1
7130 961 1
7130 7253 1
7130 7581 1
7130 9200 1
7130 9299 1
7130 9645 1
7130 9976 1
7131 961 1
7131 1339 1
7131 4351 1
7131 4796 1
7132 733 1
7132 1295 1
7132 3420 1
7132 4361 1
7132 8881 1
7133 77 1
7133 2514 1
7133 3644 1
7133 6454 1
7133 8777 1
7133 9490 1
7134 70 1
7134 2640 1
7134 3742 1
7134 6552 1
7135 1753 1
7135 2325 1
7135 3541 1
7135 3771 1
7135 8152 1
7136 690 1
7136 1222 1
7136 1901 1
7136 3074 1
7137 201 1
7137 3242 1
7137 5584 1
7137 6801 1
7138 239 1
7138 791 1
7138 1820 1
7138 6554 1
7138 8816 1
7139 1147 1
7139 2086 1
7139 2604 1
7139 3592 1
7140 176 1
7140 4092 1
7140 4613 1
7140 6657 1
7141 4549 1
7141 4850 1
7141 5519 1
7141 5702 1
7142 120 1
7142 162 1
7142 400 1
7142 1204 1
7142 7840 1
7143 28 1
7143 1370 1
7143 1405 1
7143 4937 1
7143 9978 1
7144 379 1
7144 5770 1
7144 6086 1
7144 6637 1
7144 9313 1
7145 43 1
7145 3541 1
7145 3769 1
7145 5965 1
7146 767 1
7146 2594 1
7146 3995 1
7146 6636 1
7147 19 1
7147 2922 1
7147 5904 1
7147 6127 1
7147 8909 1
7148 2801 1
7148 3383 1
7148 4724 1
7148 5430 1
7149 198 1
7149 267 1
7149 1262 1
7149 3553 1
7149 7529 1
7149 7836 1
7149 9088 1
7150 14 1
7150 106 1
7150 1476 1
7150 2816 1
7151 31 1
7151 562 1
7151 5429 1
7151 6016 1
7152 107 1
7152 2619 1
7152 4007 1
7152 7045 1
7152 9441 1
7152 9904 1
7153 477 1
7153 2485 1
7153 6130 1
7153 6980 1
7153 8842 1
7153 9606 1
7154 260 1
7154 2826 1
7154 5330 1
7154 6619 1
7155 6 1
7155 311 1
7155 1896 1
7155 3891 1
7155 8560 1
7156 8 1
7156 1165 1
7156 3883 1
7156 5570 1
7156 8381 1
7156 9933 1
7157 635 1
7157 2762 1
7157 3117 1
7157 6598 1
7157 7878 1
7158 714 1
7158 2458 1
7158 6087 1
7158 7015 1
7158 9849 1
7159 583 1
7159 1850 1
7159 2469 1
7159 2939 1
7159 9837 1
7160 260 1
7160 393 1
7160 4832 1
7160 6715 1
7161 2018 1
7161 2274 1
7161 3914 1
7161 6975 1
7161 7839 1
7161 8754 1
7162 748 1
7162 2322 1
7162 3932 1
7162 4142 1
7162 7942 1
7162 9638 1
7163 111 1
7163 151 1
7163 281 1
7163 2621 1
7164 203 1
7164 409 1
7164 4555 1
7164 6860 1
7164 9975 1
7165 243 1
7165 4112 1
7165 5725 1
7165 5986 1
7166 1544 1
7166 3388 1
7166 4262 1
7166 4266 1
7166 7745 1
7167 1516 1
7167 5742 1
7167 6344 1
7167 7106 1
7167 7417 1
7167 8403 1
7167 9101 1
7168 147 1
7168 1128 1
7168 2723 1
7168 5696 1
7168 7202 1
7168 7761 1
7169 6 1
7169 34 1
7169 179 1
7169 1890 1
7170 69 1
7170 376 1
7170 398 1
7170 2119 1
7171 1491 1
7171 2585 1
7171 5417 1
7171 6984 1
7171 7831 1
7172 714 1
7172 3965 1
7172 4435 1
7172 5654 1
7173 160 1
7173 1147 1
7173 1817 1
7173 2336 1
7174 2556 1
7174 3878 1
7174 4047 1
7174 4433 1
7174 8518 1
7175 185 1
7175 330 1
7175 3154 1
7175 5079 1
7176 125 1
7176 258 1
7176 417 1
7176 3804 1
7176 9210 1
7177 924 1
7177 1687 1
7177 2088 1
7177 2177 1
7177 7824 1
7177 7858 1
7177 9043 1
7177 9151 1
7177 9623 1
7177 9916 1
7178 38 1
7178 430 1
7178 1201 1
7178 6000 1
7179 11 1
7179 176 1
7179 3430 1
7179 5641 1
7179 8144 1
7179 9951 1
7180 1967 1
7180 2252 1
7180 2556 1
7180 4326 1
7181 89 1
7181 163 1
7181 819 1
7181 2234 1
7181 9197 1
7182 969 1
7182 1098 1
7182 1947 1
7182 2716 1
7183 11 1
7183 23 1
7183 795 1
7183 3046 1
7183 9379 1
7184 328 1
7184 1389 1
7184 3197 1
7184 7054 1
7184 9137 1
7185 58 1
7185 590 1
7185 3167 1
7185 3432 1
7185 8728 1
7186 48 1
7186 2499 1
7186 2686 1
7186 6087 1
7187 41 1
7187 384 1
7187 1397 1
7187 5893 1
7188 199 1
7188 1313 1
7188 2608 1
7188 3053 1
7188 8406 1
7188 8476 1
7189 93 1
7189 295 1
7189 2918 1
7189 5746 1
7190 14 1
7190 153 1
7190 690 1
7190 1913 1
7191 2538 1
7191 4606 1
7191 5309 1
7191 7094 1
7192 49 1
7192 397 1
7192 5600 1
7192 6733 1
7193 24 1
7193 462 1
7193 2878 1
7193 4664 1
7194 33 1
7194 3012 1
7194 4262 1
7194 6408 1
7194 7307 1
7194 9167 1
7195 312 1
7195 1499 1
7195 2109 1
7195 2252 1
7196 722 1
7196 1141 1
7196 2637 1
7196 6405 1
7196 8586 1
7196 9354 1
7197 14 1
7197 636 1
7197 835 1
7197 3749 1
7197 8784 1
7198 354 1
7198 1204 1
7198 3456 1
7198 4458 1
7199 31 1
7199 1198 1
7199 2275 1
7199 4972 1
7199 7580 1
7200 538 1
7200 3364 1
7200 4181 1
7200 6757 1
7201 1 1
7201 82 1
7201 230 1
7201 397 1
7202 422 1
7202 2793 1
7202 3722 1
7202 7168 1
7203 329 1
7203 584 1
7203 2489 1
7203 4642 1
7203 7646 1
7203 8143 1
7204 65 1
7204 2482 1
7204 3154 1
7204 5488 1
7204 8919 1
7205 13 1
7205 1617 1
7205 4186 1
7205 6539 1
7206 6 1
7206 2126 1
7206 2548 1
7206 3520 1
7207 7 1
7207 1705 1
7207 5008 1
7207 5340 1
7207 8644 1
7207 9710 1
7208 48 1
7208 76 1
7208 605 1
7208 2993 1
7208 8723 1
7208 9830 1
7209 243 1
7209 759 1
7209 3503 1
7209 4959 1
7209 8327 1
7210 11 1
7210 219 1
7210 1253 1
7210 3406 1
7211 637 1
7211 1405 1
7211 5788 1
7211 6607 1
7212 275 1
7212 457 1
7212 1140 1
7212 2221 1
7213 96 1
7213 189 1
7213 220 1
7213 399 1
7214 282 1
7214 2295 1
7214 2725 1
7214 7121 1
7215 52 1
7215 148 1
7215 1270 1
7215 6285 1
7215 9848 1
7216 383 1
7216 517 1
7216 2188 1
7216 3492 1
7217 325 1
7217 1060 1
7217 2738 1
7217 5838 1
7217 9947 1
7218 1387 1
7218 1425 1
7218 2209 1
7218 6151 1
7219 427 1
7219 1251 1
7219 2429 1
7219 3547 1
7220 12 1
7220 78 1
7220 833 1
7220 6703 1
7220 8021 1
7221 19 1
7221 443 1
7221 3413 1
7221 6233 1
7221 9580 1
7222 537 1
7222 937 1
7222 3082 1
7222 7091 1
7223 197 1
7223 250 1
7223 282 1
7223 4177 1
7224 244 1
7224 482 1
7224 651 1
7224 665 1
7224 9698 1
7225 301 1
7225 1138 1
7225 3731 1
7225 6534 1
7225 9514 1
7226 452 1
7226 2366 1
7226 4595 1
7226 5737 1
7227 117 1
7227 2649 1
7227 6555 1
7227 6661 1
7228 5 1
7228 980 1
7228 4744 1
7228 5066 1
7228 9427 1
7229 970 1
7229 2482 1
7229 2871 1
7229 3368 1
7230 46 1
7230 399 1
7230 1170 1
7230 1813 1
7230 8131 1
7231 1299 1
7231 2985 1
7231 3479 1
7231 3907 1
7231 9677 1
7232 4019 1
7232 4070 1
7232 4588 1
7232 5278 1
7233 1116 1
7233 2004 1
7233 4699 1
7233 4779 1
7233 9549 1
7234 275 1
7234 1634 1
7234 5516 1
7234 6980 1
7234 8066 1
7234 8212 1
7234 8769 1
7234 9544 1
7235 2 1
7235 1458 1
7235 3849 1
7235 5425 1
7236 327 1
7236 2072 1
7236 4478 1
7236 6621 1
7236 8436 1
7237 368 1
7237 2410 1
7237 2505 1
7237 4142 1
7237 8834 1
7238 260 1
7238 400 1
7238 565 1
7238 3917 1
7239 286 1
7239 313 1
7239 398 1
7239 2026 1
7239 7836 1
7239 8473 1
7240 598 1
7240 690 1
7240 1023 1
7240 1142 1
7240 7493 1
7240 7812 1
7241 1268 1
7241 2042 1
7241 2945 1
7241 5053 1
7242 197 1
7242 1432 1
7242 1702 1
7242 5398 1
7243 110 1
7243 674 1
7243 1753 1
7243 3237 1
7244 7 1
7244 1807 1
7244 2018 1
7244 2269 1
7245 283 1
7245 3062 1
7245 4337 1
7245 4816 1
7245 7826 1
7245 9618 1
7246 467 1
7246 928 1
7246 2419 1
7246 2938 1
7247 161 1
7247 2881 1
7247 3129 1
7247 6127 1
7248 295 1
7248 340 1
7248 2982 1
7248 3268 1
7248 8979 1
7249 30 1
7249 140 1
7249 1259 1
7249 7094 1
7249 8173 1
7250 766 1
7250 1835 1
7250 2724 1
7250 5609 1
7251 104 1
7251 370 1
7251 1314 1
7251 6642 1
7251 7490 1
7251 8105 1
7252 1158 1
7252 1851 1
7252 5688 1
7252 6026 1
7252 7861 1
7253 63 1
7253 5078 1
7253 6008 1
7253 7130 1
7254 403 1
7254 1604 1
7254 2544 1
7254 2581 1
7254 7519 1
7254 7985 1
7255 150 1
7255 1725 1
7255 3188 1
7255 6373 1
7256 29 1
7256 368 1
7256 1870 1
7256 3605 1
7257 95 1
7257 572 1
7257 2418 1
7257 6086 1
7258 1051 1
7258 1291 1
7258 4106 1
7258 5226 1
7258 9467 1
7259 230 1
7259 1442 1
7259 1911 1
7259 4983 1
7259 8796 1
7259 9492 1
7260 434 1
7260 2355 1
7260 3730 1
7260 4597 1
7260 8815 1
7260 9712 1
7261 1345 1
7261 1957 1
7261 4351 1
7261 6368 1
7262 14 1
7262 238 1
7262 768 1
7262 3642 1
7262 9212 1
7262 9735 1
7263 64 1
7263 1878 1
7263 3436 1
7263 4649 1
7263 7778 1
7263 7996 1
7263 8458 1
7264 12 1
7264 279 1
7264 1276 1
7264 1642 1
7265 33 1
7265 133 1
7265 2771 1
7265 4172 1
7266 1970 1
7266 2574 1
7266 4364 1
7266 4859 1
7267 110 1
7267 335 1
7267 2166 1
7267 5072 1
7268 517 1
7268 1856 1
7268 1897 1
7268 6930 1
7268 9310 1
7269 39 1
7269 2583 1
7269 2830 1
7269 3087 1
7269 7835 1
7270 1028 1
7270 2265 1
7270 2598 1
7270 5249 1
7270 9124 1
7271 218 1
7271 595 1
7271 693 1
7271 3419 1
7271 9341 1
7272 29 1
7272 1409 1
7272 1662 1
7272 6812 1
7273 176 1
7273 703 1
7273 3195 1
7273 7072 1
7273 7395 1
7274 42 1
7274 76 1
7274 2542 1
7274 6359 1
7274 7354 1
7275 557 1
7275 682 1
7275 1479 1
7275 2833 1
7275 8305 1
7276 229 1
7276 467 1
7276 1010 1
7276 6230 1
7277 1048 1
7277 2136 1
7277 3120 1
7277 4613 1
7277 8186 1
7277 9444 1
7278 136 1
7278 173 1
7278 440 1
7278 4777 1
7279 11 1
7279 269 1
7279 4142 1
7279 6449 1
7280 14 1
7280 91 1
7280 981 1
7280 2143 1
7280 8576 1
7280 9788 1
7281 435 1
7281 1208 1
7281 6504 1
7281 6763 1
7281 7651 1
7281 9529 1
7282 162 1
7282 936 1
7282 3580 1
7282 5039 1
7282 9800 1
7283 256 1
7283 535 1
7283 1682 1
7283 4634 1
7284 1041 1
7284 4219 1
7284 4699 1
7284 5459 1
7285 248 1
7285 487 1
7285 489 1
7285 1767 1
7285 9356 1
7286 17 1
7286 53 1
7286 496 1
7286 498 1
7286 8574 1
7286 8614 1
7287 503 1
7287 1088 1
7287 2714 1
7287 6412 1
7288 2350 1
7288 2693 1
7288 5584 1
7288 6674 1
7289 97 1
7289 2879 1
7289 5454 1
7289 6451 1
7290 76 1
7290 351 1
7290 683 1
7290 3266 1
7290 8848 1
7291 1 1
7291 2503 1
7291 4299 1
7291 4450 1
7292 12 1
7292 484 1
7292 4303 1
7292 5757 1
7293 37 1
7293 425 1
7293 4885 1
7293 6913 1
7294 20 1
7294 99 1
7294 516 1
7294 6132 1
7295 34 1
7295 512 1
7295 572 1
7295 2263 1
7296 1233 1
7296 1785 1
7296 2360 1
7296 3053 1
7297 52 1
7297 1056 1
7297 4156 1
7297 5023 1
7298 521 1
7298 539 1
7298 1217 1
7298 3944 1
7298 7709 1
7298 8311 1
7298 8753 1
7298 9964 1
7299 95 1
7299 578 1
7299 3463 1
7299 3787 1
7299 9633 1
7300 1451 1
7300 3285 1
7300 5170 1
7300 5662 1
7300 7436 1
7300 8740 1
7300 8844 1
7301 117 1
7301 320 1
7301 1252 1
7301 2403 1
7301 7887 1
7302 204 1
7302 295 1
7302 5567 1
7302 6977 1
7303 45 1
7303 95 1
7303 1281 1
7303 2745 1
7304 6 1
7304 72 1
7304 132 1
7304 2354 1
7304 7815 1
7304 9311 1
7305 156 1
7305 180 1
7305 1360 1
7305 1598 1
7306 576 1
7306 1534 1
7306 1703 1
7306 6285 1
7306 7373 1
7306 9487 1
7307 156 1
7307 258 1
7307 4183 1
7307 7194 1
7308 191 1
7308 212 1
7308 270 1
7308 1619 1
7308 7378 1
7309 708 1
7309 1119 1
7309 2839 1
7309 4224 1
7309 8882 1
7309 9502 1
7310 34 1
7310 2808 1
7310 2853 1
7310 6326 1
7311 35 1
7311 1505 1
7311 2946 1
7311 4798 1
7312 932 1
7312 2198 1
7312 3081 1
7312 3154 1
7312 7471 1
7313 54 1
7313 777 1
7313 2388 1
7313 5591 1
7313 8479 1
7314 82 1
7314 807 1
7314 2150 1
7314 3212 1
7315 206 1
7315 1373 1
7315 5653 1
7315 6497 1
7315 9287 1
7316 1619 1
7316 1959 1
7316 1972 1
7316 3804 1
7316 7985 1
7317 404 1
7317 2090 1
7317 3489 1
7317 6145 1
7317 7699 1
7317 8446 1
7317 9389 1
7318 272 1
7318 499 1
7318 1210 1
7318 1583 1
7319 74 1
7319 1320 1
7319 1354 1
7319 4037 1
7319 9243 1
7320 202 1
7320 394 1
7320 2142 1
7320 5598 1
7321 463 1
7321 1192 1
7321 4738 1
7321 5440 1
7321 9617 1
7322 1912 1
7322 2762 1
7322 3240 1
7322 5931 1
7323 19 1
7323 89 1
7323 227 1
7323 5493 1
7323 8535 1
7324 1276 1
7324 2247 1
7324 4727 1
7324 6665 1
7325 292 1
7325 566 1
7325 2909 1
7325 5486 1
7325 8575 1
7325 9493 1
7326 856 1
7326 1420 1
7326 2521 1
7326 2988 1
7327 269 1
7327 3605 1
7327 3757 1
7327 5096 1
7327 7458 1
7327 9820 1
7328 1066 1
7328 1156 1
7328 1576 1
7328 2664 1
7328 8364 1
7329 72 1
7329 552 1
7329 4801 1
7329 6340 1
7329 9956 1
7330 124 1
7330 143 1
7330 1266 1
7330 6169 1
7330 9703 1
7331 379 1
7331 5087 1
7331 6552 1
7331 6925 1
7332 233 1
7332 2177 1
7332 4599 1
7332 7003 1
7333 12 1
7333 31 1
7333 1661 1
7333 3956 1
7333 8415 1
7333 8628 1
7334 261 1
7334 623 1
7334 879 1
7334 2986 1
7335 456 1
7335 1528 1
7335 2180 1
7335 3106 1
7335 8774 1
7335 9600 1
7336 157 1
7336 485 1
7336 1634 1
7336 1855 1
7336 9555 1
7337 44 1
7337 863 1
7337 2288 1
7337 3001 1
7338 520 1
7338 1440 1
7338 3966 1
7338 4805 1
7339 204 1
7339 245 1
7339 6609 1
7339 6943 1
7339 8858 1
7339 9819 1
7340 671 1
7340 1361 1
7340 5806 1
7340 5865 1
7340 8060 1
7341 160 1
7341 1196 1
7341 1337 1
7341 2433 1
7342 54 1
7342 560 1
7342 1818 1
7342 5474 1
7343 368 1
7343 1192 1
7343 3899 1
7343 6378 1
7343 8037 1
7344 1498 1
7344 1780 1
7344 4535 1
7344 5645 1
7344 9119 1
7344 9813 1
7345 618 1
7345 1896 1
7345 3573 1
7345 6712 1
7345 9877 1
7346 27 1
7346 1513 1
7346 3732 1
7346 4027 1
7346 9948 1
7347 1634 1
7347 2690 1
7347 3231 1
7347 3575 1
7348 406 1
7348 1242 1
7348 1566 1
7348 5994 1
7348 9104 1
7349 2376 1
7349 3990 1
7349 5229 1
7349 5309 1
7349 7361 1
7350 1324 1
7350 1478 1
7350 3725 1
7350 4306 1
7351 2383 1
7351 2544 1
7351 3413 1
7351 5020 1
7352 16 1
7352 43 1
7352 2175 1
7352 4027 1
7352 7366 1
7352 8502 1
7353 1 1
7353 1660 1
7353 3531 1
7353 6692 1
7353 9824 1
7354 57 1
7354 568 1
7354 3214 1
7354 7274 1
7354 7505 1
7355 138 1
7355 425 1
7355 1803 1
7355 3266 1
7355 9329 1
7356 118 1
7356 1105 1
7356 2618 1
7356 3649 1
7357 3 1
7357 347 1
7357 1360 1
7357 2639 1
7358 732 1
7358 1333 1
7358 2275 1
7358 6004 1
7359 52 1
7359 1963 1
7359 2089 1
7359 6170 1
7360 2774 1
7360 5133 1
7360 5408 1
7360 5913 1
7360 8505 1
7361 1260 1
7361 1881 1
7361 6193 1
7361 7349 1
7361 7569 1
7362 641 1
7362 3760 1
7362 5881 1
7362 7104 1
7363 294 1
7363 2206 1
7363 2219 1
7363 4629 1
7363 8402 1
7364 336 1
7364 463 1
7364 2032 1
7364 2058 1
7365 639 1
7365 1923 1
7365 3783 1
7365 5257 1
7366 6 1
7366 534 1
7366 3294 1
7366 7352 1
7367 1132 1
7367 1909 1
7367 2715 1
7367 5436 1
7367 8302 1
7368 138 1
7368 529 1
7368 855 1
7368 3365 1
7368 9343 1
7368 9773 1
7369 1118 1
7369 3890 1
7369 3935 1
7369 5435 1
7370 984 1
7370 1381 1
7370 2135 1
7370 5086 1
7371 112 1
7371 198 1
7371 422 1
7371 5819 1
7371 9287 1
7372 690 1
7372 2061 1
7372 2340 1
7372 6322 1
7373 1068 1
7373 2253 1
7373 3795 1
7373 7306 1
7374 28 1
7374 140 1
7374 2564 1
7374 4771 1
7375 722 1
7375 1724 1
7375 3121 1
7375 6330 1
7376 885 1
7376 3168 1
7376 4745 1
7376 5549 1
7376 8260 1
7377 228 1
7377 268 1
7377 1535 1
7377 5653 1
7378 2317 1
7378 2679 1
7378 6662 1
7378 7308 1
7379 76 1
7379 298 1
7379 4140 1
7379 6305 1
7380 132 1
7380 213 1
7380 1043 1
7380 1796 1
7380 9361 1
7381 5 1
7381 314 1
7381 3747 1
7381 4087 1
7382 539 1
7382 989 1
7382 2107 1
7382 5757 1
7383 235 1
7383 732 1
7383 2857 1
7383 3542 1
7383 9159 1
7384 81 1
7384 1570 1
7384 3578 1
7384 5393 1
7385 484 1
7385 1870 1
7385 2422 1
7385 2976 1
7386 601 1
7386 1350 1
7386 1777 1
7386 4828 1
7386 7616 1
7386 8656 1
7387 182 1
7387 1544 1
7387 3659 1
7387 5443 1
7388 353 1
7388 1581 1
7388 2718 1
7388 4795 1
7388 8219 1
7388 9583 1
7389 17 1
7389 766 1
7389 1541 1
7389 3814 1
7390 138 1
7390 3600 1
7390 5357 1
7390 6849 1
7390 9221 1
7391 266 1
7391 966 1
7391 1333 1
7391 3225 1
7391 8609 1
7392 41 1
7392 108 1
7392 4103 1
7392 4692 1
7393 1375 1
7393 2323 1
7393 6109 1
7393 6504 1
7393 8020 1
7393 8161 1
7393 9052 1
7393 9760 1
7394 694 1
7394 1816 1
7394 2107 1
7394 4636 1
7395 171 1
7395 385 1
7395 3046 1
7395 7273 1
7396 165 1
7396 4198 1
7396 4719 1
7396 6549 1
7397 19 1
7397 1106 1
7397 1863 1
7397 6151 1
7398 278 1
7398 293 1
7398 1558 1
7398 1734 1
7399 126 1
7399 817 1
7399 1748 1
7399 4733 1
7400 3 1
7400 1062 1
7400 2844 1
7400 5179 1
7400 9020 1
7401 277 1
7401 862 1
7401 1286 1
7401 5097 1
7402 5 1
7402 519 1
7402 2530 1
7402 3913 1
7403 179 1
7403 782 1
7403 3582 1
7403 4769 1
7404 2147 1
7404 3312 1
7404 5442 1
7404 6421 1
7405 74 1
7405 200 1
7405 4511 1
7405 4981 1
7406 2087 1
7406 2715 1
7406 6056 1
7406 6587 1
7407 99 1
7407 142 1
7407 516 1
7407 5925 1
7407 9165 1
7407 9813 1
7408 766 1
7408 921 1
7408 1230 1
7408 4866 1
7409 513 1
7409 2882 1
7409 3861 1
7409 4126 1
7410 4 1
7410 28 1
7410 771 1
7410 2760 1
7410 7622 1
7410 8885 1
7411 1106 1
7411 1451 1
7411 5499 1
7411 5553 1
7411 7666 1
7412 189 1
7412 1075 1
7412 3688 1
7412 6119 1
7412 9498 1
7413 289 1
7413 791 1
7413 961 1
7413 4165 1
7413 7550 1
7414 31 1
7414 1040 1
7414 5002 1
7414 6655 1
7415 178 1
7415 316 1
7415 690 1
7415 1050 1
7416 67 1
7416 2172 1
7416 3627 1
7416 6542 1
7417 56 1
7417 555 1
7417 987 1
7417 7167 1
7417 8964 1
7418 1976 1
7418 2910 1
7418 6148 1
7418 6176 1
7418 9226 1
7419 8 1
7419 179 1
7419 1775 1
7419 5200 1
7419 7786 1
7420 10 1
7420 494 1
7420 696 1
7420 6192 1
7421 926 1
7421 4329 1
7421 4521 1
7421 4683 1
7422 7 1
7422 873 1
7422 1671 1
7422 6536 1
7422 7523 1
7422 9764 1
7423 91 1
7423 1317 1
7423 1957 1
7423 2766 1
7424 758 1
7424 1155 1
7424 1870 1
7424 3489 1
7424 8820 1
7425 478 1
7425 629 1
7425 2264 1
7425 5822 1
7426 209 1
7426 4908 1
7426 5086 1
7426 5087 1
7426 7648 1
7426 7828 1
7426 9146 1
7427 6 1
7427 1753 1
7427 3622 1
7427 6707 1
7427 9386 1
7428 1 1
7428 413 1
7428 2679 1
7428 5157 1
7428 7828 1
7428 9513 1
7429 13 1
7429 263 1
7429 4673 1
7429 5723 1
7430 65 1
7430 1018 1
7430 5113 1
7430 6273 1
7430 8705 1
7430 8832 1
7431 33 1
7431 124 1
7431 1247 1
7431 1716 1
7431 9977 1
7432 880 1
7432 3300 1
7432 4870 1
7432 4959 1
7433 122 1
7433 4318 1
7433 4706 1
7433 5728 1
7434 339 1
7434 2449 1
7434 2585 1
7434 6319 1
7435 963 1
7435 1255 1
7435 2088 1
7435 4427 1
7436 1062 1
7436 2543 1
7436 5217 1
7436 7300 1
7436 8415 1
7437 52 1
7437 1254 1
7437 3680 1
7437 4170 1
7438 47 1
7438 2775 1
7438 3315 1
7438 4356 1
7438 8292 1
7439 179 1
7439 574 1
7439 955 1
7439 4838 1
7440 563 1
7440 3323 1
7440 4076 1
7440 6759 1
7440 9579 1
7441 1896 1
7441 2590 1
7441 3211 1
7441 6512 1
7441 7851 1
7442 341 1
7442 2086 1
7442 3267 1
7442 6599 1
7443 313 1
7443 4644 1
7443 5225 1
7443 6923 1
7444 12 1
7444 4493 1
7444 4968 1
7444 6286 1
7445 193 1
7445 293 1
7445 2920 1
7445 4626 1
7445 7640 1
7445 9950 1
7446 110 1
7446 1253 1
7446 4042 1
7446 4578 1
7446 8973 1
7447 386 1
7447 861 1
7447 3433 1
7447 4087 1
7448 42 1
7448 2407 1
7448 2945 1
7448 3969 1
7449 12 1
7449 704 1
7449 2825 1
7449 6014 1
7449 9726 1
7450 74 1
7450 2835 1
7450 5506 1
7450 5862 1
7450 7947 1
7451 479 1
7451 904 1
7451 1898 1
7451 4775 1
7452 185 1
7452 199 1
7452 555 1
7452 1467 1
7453 80 1
7453 706 1
7453 2386 1
7453 3922 1
7453 8974 1
7454 7 1
7454 78 1
7454 1435 1
7454 2103 1
7454 8090 1
7454 9914 1
7455 1326 1
7455 2373 1
7455 5154 1
7455 6452 1
7455 9138 1
7456 6 1
7456 260 1
7456 1477 1
7456 3903 1
7457 214 1
7457 1306 1
7457 2409 1
7457 4079 1
7458 1070 1
7458 1666 1
7458 7114 1
7458 7327 1
7459 316 1
7459 627 1
7459 4763 1
7459 6910 1
7459 9636 1
7460 14 1
7460 961 1
7460 1675 1
7460 3832 1
7461 31 1
7461 706 1
7461 3741 1
7461 4763 1
7462 296 1
7462 910 1
7462 2651 1
7462 6136 1
7463 1653 1
7463 2443 1
7463 2976 1
7463 5773 1
7463 8842 1
7464 251 1
7464 2350 1
7464 3582 1
7464 5638 1
7464 7957 1
7465 1003 1
7465 4619 1
7465 5449 1
7465 6703 1
7466 267 1
7466 872 1
7466 2147 1
7466 4630 1
7467 323 1
7467 3047 1
7467 3946 1
7467 5348 1
7468 886 1
7468 2008 1
7468 2083 1
7468 2394 1
7468 9514 1
7469 80 1
7469 115 1
7469 5409 1
7469 6414 1
7469 8051 1
7469 8641 1
7470 1018 1
7470 1662 1
7470 3432 1
7470 5461 1
7471 1453 1
7471 5426 1
7471 5740 1
7471 7312 1
7472 188 1
7472 441 1
7472 715 1
7472 5622 1
7473 72 1
7473 507 1
7473 2521 1
7473 2744 1
7473 9306 1
7474 179 1
7474 4612 1
7474 4948 1
7474 6367 1
7475 95 1
7475 140 1
7475 142 1
7475 436 1
7475 7766 1
7475 8821 1
7475 9617 1
7476 9 1
7476 61 1
7476 263 1
7476 323 1
7476 8715 1
7477 52 1
7477 547 1
7477 6166 1
7477 6185 1
7478 142 1
7478 192 1
7478 434 1
7478 4197 1
7479 570 1
7479 1984 1
7479 5431 1
7479 6309 1
7480 45 1
7480 71 1
7480 799 1
7480 5144 1
7480 8853 1
7481 48 1
7481 53 1
7481 427 1
7481 4105 1
7481 7918 1
7482 1319 1
7482 1935 1
7482 2782 1
7482 5447 1
7482 8874 1
7483 1382 1
7483 3557 1
7483 4206 1
7483 4796 1
7484 272 1
7484 1480 1
7484 5440 1
7484 5563 1
7485 324 1
7485 891 1
7485 3756 1
7485 4163 1
7486 49 1
7486 468 1
7486 1016 1
7486 4587 1
7487 3 1
7487 95 1
7487 302 1
7487 444 1
7487 7753 1
7487 8490 1
7488 16 1
7488 405 1
7488 6741 1
7488 7123 1
7488 7886 1
7489 674 1
7489 1826 1
7489 2260 1
7489 4426 1
7490 961 1
7490 1426 1
7490 2844 1
7490 7251 1
7490 7571 1
7490 9091 1
7490 9468 1
7491 6 1
7491 15 1
7491 3308 1
7491 4917 1
7492 7 1
7492 21 1
7492 3109 1
7492 5700 1
7493 173 1
7493 314 1
7493 3576 1
7493 7240 1
7493 8833 1
7494 488 1
7494 4351 1
7494 5522 1
7494 6319 1
7494 8194 1
7495 1856 1
7495 2462 1
7495 5480 1
7495 6609 1
7496 352 1
7496 1422 1
7496 5004 1
7496 5719 1
7497 759 1
7497 854 1
7497 2005 1
7497 2794 1
7498 89 1
7498 3652 1
7498 6285 1
7498 7075 1
7499 135 1
7499 1593 1
7499 3153 1
7499 4815 1
7499 8295 1
7500 115 1
7500 461 1
7500 2555 1
7500 7056 1
7501 190 1
7501 549 1
7501 1909 1
7501 3043 1
7501 7588 1
7502 3125 1
7502 3908 1
7502 4242 1
7502 4915 1
7502 8190 1
7502 8844 1
7503 118 1
7503 598 1
7503 2136 1
7503 7118 1
7504 127 1
7504 2065 1
7504 3433 1
7504 5530 1
7504 8793 1
7504 8824 1
7504 9797 1
7504 9839 1
7505 20 1
7505 869 1
7505 4320 1
7505 7354 1
7505 7884 1
7505 9315 1
7505 9979 1
7506 889 1
7506 1724 1
7506 2442 1
7506 3099 1
7507 48 1
7507 1320 1
7507 1946 1
7507 2485 1
7507 7801 1
7507 8171 1
7507 9133 1
7507 9982 1
7508 721 1
7508 1799 1
7508 3999 1
7508 5216 1
7509 45 1
7509 331 1
7509 2478 1
7509 2674 1
7510 6 1
7510 285 1
7510 3159 1
7510 5022 1
7511 70 1
7511 1634 1
7511 2768 1
7511 4945 1
7512 909 1
7512 3145 1
7512 3820 1
7512 6087 1
7512 7790 1
7512 9832 1
7513 576 1
7513 1065 1
7513 3870 1
7513 4675 1
7513 9653 1
7514 648 1
7514 4704 1
7514 5309 1
7514 6664 1
7515 10 1
7515 14 1
7515 1480 1
7515 2899 1
7516 211 1
7516 1333 1
7516 1724 1
7516 2352 1
7517 260 1
7517 1104 1
7517 1569 1
7517 5453 1
7518 29 1
7518 1125 1
7518 2733 1
7518 3820 1
7519 3415 1
7519 4837 1
7519 5093 1
7519 7254 1
7519 8291 1
7519 8902 1
7520 248 1
7520 4724 1
7520 5984 1
7520 6647 1
7520 8084 1
7520 9868 1
7521 149 1
7521 1219 1
7521 1422 1
7521 3391 1
7521 9705 1
7522 36 1
7522 455 1
7522 1714 1
7522 4272 1
7523 3 1
7523 2420 1
7523 5530 1
7523 7422 1
7524 81 1
7524 385 1
7524 1026 1
7524 2095 1
7524 7637 1
7524 8234 1
7525 1234 1
7525 1933 1
7525 2056 1
7525 3784 1
7526 47 1
7526 174 1
7526 1438 1
7526 2481 1
7526 7917 1
7527 264 1
7527 1294 1
7527 1444 1
7527 3284 1
7527 8697 1
7527 9425 1
7528 850 1
7528 918 1
7528 1931 1
7528 5769 1
7528 7976 1
7528 9297 1
7529 1560 1
7529 2104 1
7529 2444 1
7529 7149 1
7530 1051 1
7530 1501 1
7530 2109 1
7530 3747 1
7531 293 1
7531 3374 1
7531 3598 1
7531 4490 1
7531 9346 1
7532 76 1
7532 1120 1
7532 3195 1
7532 4728 1
7532 8988 1
7533 121 1
7533 3670 1
7533 4934 1
7533 5491 1
7533 7730 1
7534 55 1
7534 1834 1
7534 4629 1
7534 5810 1
7534 8133 1
7534 8213 1
7534 8522 1
7534 9659 1
7535 1760 1
7535 1776 1
7535 2192 1
7535 5579 1
7535 8072 1
7536 3151 1
7536 3946 1
7536 6704 1
7536 6742 1
7537 1627 1
7537 2870 1
7537 5066 1
7537 5079 1
7538 14 1
7538 1031 1
7538 2981 1
7538 3752 1
7538 9351 1
7539 4 1
7539 529 1
7539 3741 1
7539 3847 1
7540 5 1
7540 17 1
7540 104 1
7540 1075 1
7540 9560 1
7541 173 1
7541 2576 1
7541 2695 1
7541 4727 1
7542 13 1
7542 1107 1
7542 1514 1
7542 6487 1
7543 20 1
7543 90 1
7543 1524 1
7543 1746 1
7543 8230 1
7544 67 1
7544 412 1
7544 3305 1
7544 6020 1
7544 8888 1
7545 49 1
7545 2606 1
7545 4197 1
7545 6855 1
7545 7731 1
7545 8506 1
7546 864 1
7546 1559 1
7546 2904 1
7546 3807 1
7547 1763 1
7547 2372 1
7547 3809 1
7547 4043 1
7548 481 1
7548 2047 1
7548 2126 1
7548 5326 1
7548 8231 1
7549 117 1
7549 1263 1
7549 5184 1
7549 6233 1
7549 8951 1
7550 102 1
7550 1805 1
7550 3017 1
7550 7413 1
7551 96 1
7551 723 1
7551 728 1
7551 2699 1
7552 1528 1
7552 2705 1
7552 5684 1
7552 6532 1
7552 9095 1
7552 9126 1
7553 203 1
7553 539 1
7553 632 1
7553 4793 1
7554 586 1
7554 770 1
7554 1244 1
7554 6404 1
7555 1056 1
7555 1884 1
7555 5598 1
7555 6617 1
7555 8125 1
7555 8705 1
7556 1879 1
7556 1915 1
7556 4889 1
7556 6432 1
7557 160 1
7557 171 1
7557 3481 1
7557 5560 1
7558 28 1
7558 57 1
7558 3272 1
7558 3304 1
7558 8246 1
7558 8696 1
7559 1337 1
7559 1546 1
7559 2451 1
7559 2897 1
7559 7778 1
7560 86 1
7560 988 1
7560 2021 1
7560 6910 1
7560 8727 1
7560 8775 1
7561 2591 1
7561 3246 1
7561 4723 1
7561 4792 1
7561 8819 1
7562 202 1
7562 404 1
7562 1424 1
7562 1633 1
7563 312 1
7563 3568 1
7563 4827 1
7563 6289 1
7563 9408 1
7564 984 1
7564 2884 1
7564 3777 1
7564 3906 1
7565 2650 1
7565 2728 1
7565 3175 1
7565 3428 1
7566 34 1
7566 4004 1
7566 4631 1
7566 4863 1
7566 8959 1
7567 218 1
7567 305 1
7567 366 1
7567 3454 1
7568 262 1
7568 332 1
7568 4222 1
7568 6138 1
7569 2104 1
7569 2329 1
7569 4539 1
7569 7361 1
7569 8166 1
7570 6 1
7570 839 1
7570 1681 1
7570 4198 1
7570 9173 1
7571 489 1
7571 904 1
7571 4500 1
7571 7490 1
7572 6 1
7572 97 1
7572 1219 1
7572 4373 1
7572 7816 1
7573 244 1
7573 329 1
7573 1358 1
7573 5694 1
7574 2287 1
7574 5012 1
7574 6221 1
7574 6417 1
7574 9306 1
7575 56 1
7575 268 1
7575 1318 1
7575 3349 1
7575 9487 1
7576 1800 1
7576 2720 1
7576 2756 1
7576 3435 1
7576 7580 1
7577 609 1
7577 2731 1
7577 4523 1
7577 6502 1
7578 156 1
7578 2470 1
7578 3285 1
7578 6548 1
7579 1753 1
7579 1998 1
7579 2963 1
7579 5379 1
7579 8358 1
7580 12 1
7580 53 1
7580 7199 1
7580 7576 1
7581 1158 1
7581 1941 1
7581 6202 1
7581 7130 1
7581 9390 1
7582 175 1
7582 835 1
7582 1831 1
7582 2917 1
7583 58 1
7583 1041 1
7583 2622 1
7583 2636 1
7584 271 1
7584 1814 1
7584 2015 1
7584 2540 1
7585 177 1
7585 632 1
7585 5331 1
7585 5435 1
7586 47 1
7586 1520 1
7586 2484 1
7586 4285 1
7587 6 1
7587 290 1
7587 2178 1
7587 4557 1
7588 106 1
7588 2304 1
7588 3313 1
7588 7501 1
7588 8042 1
7589 19 1
7589 303 1
7589 1503 1
7589 5298 1
7590 159 1
7590 2187 1
7590 2333 1
7590 4367 1
7590 8941 1
7590 9403 1
7590 9923 1
7591 70 1
7591 696 1
7591 5096 1
7591 5350 1
7591 9332 1
7592 1111 1
7592 1670 1
7592 3520 1
7592 6786 1
7593 154 1
7593 572 1
7593 1092 1
7593 5194 1
7594 224 1
7594 509 1
7594 3200 1
7594 4619 1
7595 423 1
7595 3174 1
7595 4384 1
7595 6606 1
7595 7649 1
7595 7684 1
7595 8039 1
7596 78 1
7596 285 1
7596 888 1
7596 6320 1
7596 9122 1
7597 30 1
7597 699 1
7597 3206 1
7597 4105 1
7598 505 1
7598 765 1
7598 2245 1
7598 5832 1
7598 9222 1
7599 6 1
7599 196 1
7599 470 1
7599 6428 1
7599 8036 1
7600 15 1
7600 729 1
7600 3844 1
7600 4648 1
7600 8937 1
7601 22 1
7601 104 1
7601 622 1
7601 979 1
7602 16 1
7602 2581 1
7602 3023 1
7602 5632 1
7603 64 1
7603 762 1
7603 1604 1
7603 5393 1
7603 9009 1
7604 1451 1
7604 2489 1
7604 2904 1
7604 3497 1
7605 953 1
7605 3065 1
7605 5285 1
7605 5565 1
7606 77 1
7606 236 1
7606 1509 1
7606 4859 1
7607 934 1
7607 1077 1
7607 2018 1
7607 4188 1
7607 8527 1
7608 3 1
7608 561 1
7608 1517 1
7608 3846 1
7609 1071 1
7609 1724 1
7609 2873 1
7609 4956 1
7609 8015 1
7609 8231 1
7609 8261 1
7610 267 1
7610 931 1
7610 1771 1
7610 6160 1
7611 22 1
7611 3094 1
7611 3756 1
7611 5006 1
7611 7869 1
7612 385 1
7612 1460 1
7612 5319 1
7612 5487 1
7612 8748 1
7613 1114 1
7613 3448 1
7613 4257 1
7613 4659 1
7613 9566 1
7613 9708 1
7614 17 1
7614 2036 1
7614 3266 1
7614 4912 1
7614 8954 1
7615 95 1
7615 802 1
7615 1578 1
7615 3308 1
7616 413 1
7616 1817 1
7616 4988 1
7616 7386 1
7616 8438 1
7617 127 1
7617 998 1
7617 2194 1
7617 3199 1
7618 20 1
7618 1443 1
7618 2220 1
7618 5009 1
7618 9174 1
7619 148 1
7619 371 1
7619 2229 1
7619 6829 1
7619 8525 1
7620 36 1
7620 807 1
7620 1151 1
7620 1738 1
7621 49 1
7621 1126 1
7621 1878 1
7621 5039 1
7621 8780 1
7622 130 1
7622 3096 1
7622 5292 1
7622 7410 1
7623 31 1
7623 148 1
7623 168 1
7623 2400 1
7624 1931 1
7624 2444 1
7624 2577 1
7624 2596 1
7625 2229 1
7625 3128 1
7625 3739 1
7625 4329 1
7626 118 1
7626 277 1
7626 1251 1
7626 3185 1
7626 8632 1
7627 83 1
7627 919 1
7627 3668 1
7627 5339 1
7628 1319 1
7628 3981 1
7628 4368 1
7628 5495 1
7628 8641 1
7628 9550 1
7629 20 1
7629 600 1
7629 1167 1
7629 3056 1
7630 121 1
7630 1093 1
7630 4925 1
7630 5791 1
7631 118 1
7631 3298 1
7631 5241 1
7631 6100 1
7632 202 1
7632 1798 1
7632 3852 1
7632 6630 1
7633 1071 1
7633 1272 1
7633 2312 1
7633 4125 1
7634 243 1
7634 280 1
7634 3128 1
7634 5884 1
7635 635 1
7635 2990 1
7635 3204 1
7635 4822 1
7636 468 1
7636 474 1
7636 648 1
7636 2305 1
7637 56 1
7637 4329 1
7637 5823 1
7637 7524 1
7637 8668 1
7638 303 1
7638 341 1
7638 873 1
7638 6224 1
7638 9114 1
7639 2758 1
7639 4016 1
7639 4909 1
7639 6220 1
7640 179 1
7640 1729 1
7640 6152 1
7640 7445 1
7641 86 1
7641 1803 1
7641 2664 1
7641 6904 1
7641 8486 1
7641 8804 1
7642 60 1
7642 4201 1
7642 6742 1
7642 6970 1
7642 7703 1
7643 398 1
7643 1139 1
7643 1188 1
7643 2179 1
7644 1541 1
7644 1844 1
7644 4383 1
7644 4505 1
7645 5 1
7645 1170 1
7645 1770 1
7645 6120 1
7646 65 1
7646 529 1
7646 3426 1
7646 7203 1
7647 1739 1
7647 3674 1
7647 3804 1
7647 5040 1
7648 1159 1
7648 5281 1
7648 5988 1
7648 7426 1
7648 9545 1
7649 16 1
7649 42 1
7649 83 1
7649 7595 1
7650 114 1
7650 149 1
7650 443 1
7650 690 1
7650 8007 1
7651 16 1
7651 1671 1
7651 5555 1
7651 7281 1
7651 7904 1
7652 33 1
7652 199 1
7652 285 1
7652 607 1
7653 47 1
7653 247 1
7653 2974 1
7653 7080 1
7654 433 1
7654 2451 1
7654 2783 1
7654 3559 1
7655 27 1
7655 142 1
7655 485 1
7655 5941 1
7656 460 1
7656 1634 1
7656 5135 1
7656 6428 1
7656 8036 1
7656 8788 1
7657 81 1
7657 397 1
7657 5178 1
7657 6412 1
7658 456 1
7658 713 1
7658 1543 1
7658 4260 1
7659 149 1
7659 1297 1
7659 2938 1
7659 3086 1
7660 95 1
7660 1757 1
7660 2352 1
7660 5936 1
7660 9359 1
7661 1 1
7661 640 1
7661 1723 1
7661 4950 1
7662 33 1
7662 986 1
7662 4279 1
7662 4538 1
7663 923 1
7663 1564 1
7663 2485 1
7663 3559 1
7663 8829 1
7663 9283 1
7664 930 1
7664 1040 1
7664 2426 1
7664 2648 1
7664 8331 1
7665 6 1
7665 577 1
7665 1912 1
7665 4988 1
7666 17 1
7666 6289 1
7666 6448 1
7666 7411 1
7666 8520 1
7667 651 1
7667 2545 1
7667 2871 1
7667 4437 1
7667 8403 1
7668 218 1
7668 992 1
7668 1249 1
7668 4619 1
7668 7743 1
7668 9272 1
7669 64 1
7669 303 1
7669 1123 1
7669 3689 1
7669 8319 1
7669 8920 1
7670 117 1
7670 124 1
7670 220 1
7670 562 1
7671 5 1
7671 3401 1
7671 4769 1
7671 5715 1
7672 219 1
7672 1471 1
7672 1672 1
7672 7081 1
7672 8783 1
7672 8898 1
7673 167 1
7673 180 1
7673 4968 1
7673 6642 1
7673 8554 1
7673 8623 1
7673 9362 1
7674 559 1
7674 569 1
7674 815 1
7674 2155 1
7674 7984 1
7675 21 1
7675 157 1
7675 277 1
7675 4100 1
7676 1752 1
7676 2690 1
7676 5599 1
7676 6297 1
7676 8754 1
7677 176 1
7677 1245 1
7677 5187 1
7677 5599 1
7677 9603 1
7677 9743 1
7678 842 1
7678 1063 1
7678 4096 1
7678 6160 1
7678 8519 1
7679 1160 1
7679 2066 1
7679 2340 1
7679 4543 1
7680 1265 1
7680 2256 1
7680 5892 1
7680 6421 1
7681 37 1
7681 65 1
7681 102 1
7681 452 1
7681 8853 1
7682 14 1
7682 36 1
7682 5069 1
7682 6107 1
7683 1 1
7683 1765 1
7683 2276 1
7683 6409 1
7684 1614 1
7684 1745 1
7684 3029 1
7684 7595 1
7685 238 1
7685 241 1
7685 264 1
7685 2329 1
7685 7739 1
7686 307 1
7686 1912 1
7686 3386 1
7686 3514 1
7687 30 1
7687 656 1
7687 1291 1
7687 6589 1
7688 270 1
7688 760 1
7688 900 1
7688 3708 1
7688 8549 1
7689 358 1
7689 442 1
7689 1487 1
7689 3233 1
7690 104 1
7690 613 1
7690 1454 1
7690 1495 1
7691 358 1
7691 2364 1
7691 4835 1
7691 5723 1
7692 428 1
7692 1264 1
7692 5224 1
7692 5712 1
7692 8093 1
7692 8462 1
7693 771 1
7693 1874 1
7693 3566 1
7693 4986 1
7694 1344 1
7694 1482 1
7694 2780 1
7694 6744 1
7695 251 1
7695 271 1
7695 300 1
7695 1039 1
7696 5 1
7696 93 1
7696 112 1
7696 1064 1
7696 7823 1
7696 7838 1
7697 368 1
7697 2570 1
7697 3043 1
7697 6914 1
7698 172 1
7698 495 1
7698 1107 1
7698 5279 1
7698 8445 1
7699 631 1
7699 4729 1
7699 5644 1
7699 7317 1
7700 1624 1
7700 2773 1
7700 2774 1
7700 6696 1
7701 1041 1
7701 1571 1
7701 5962 1
7701 6944 1
7701 9651 1
7702 19 1
7702 256 1
7702 2423 1
7702 4234 1
7702 8007 1
7703 327 1
7703 584 1
7703 6871 1
7703 7642 1
7704 160 1
7704 415 1
7704 440 1
7704 4718 1
7705 2671 1
7705 2734 1
7705 4497 1
7705 5548 1
7705 7893 1
7705 9043 1
7705 9125 1
7705 9255 1
7706 58 1
7706 403 1
7706 3056 1
7706 5883 1
7707 254 1
7707 763 1
7707 1265 1
7707 1907 1
7708 358 1
7708 1312 1
7708 4815 1
7708 6620 1
7708 8407 1
7709 142 1
7709 216 1
7709 5842 1
7709 7298 1
7710 199 1
7710 961 1
7710 1970 1
7710 6352 1
7710 9357 1
7711 1107 1
7711 1456 1
7711 1872 1
7711 5108 1
7711 8300 1
7712 2480 1
7712 5292 1
7712 5513 1
7712 5892 1
7713 150 1
7713 2598 1
7713 2752 1
7713 3390 1
7714 11 1
7714 529 1
7714 4958 1
7714 7071 1
7715 372 1
7715 794 1
7715 1459 1
7715 1724 1
7715 9188 1
7716 142 1
7716 481 1
7716 2647 1
7716 5225 1
7717 734 1
7717 976 1
7717 2257 1
7717 4501 1
7718 168 1
7718 2225 1
7718 2450 1
7718 5451 1
7718 8332 1
7719 16 1
7719 329 1
7719 1607 1
7719 2623 1
7720 121 1
7720 498 1
7720 1339 1
7720 6862 1
7720 9219 1
7721 1142 1
7721 1259 1
7721 3442 1
7721 3780 1
7722 170 1
7722 545 1
7722 5006 1
7722 6650 1
7723 1423 1
7723 2013 1
7723 3293 1
7723 3792 1
7723 8536 1
7724 1408 1
7724 1556 1
7724 4296 1
7724 6591 1
7724 7807 1
7724 7823 1
7724 8660 1
7724 9890 1
7725 293 1
7725 328 1
7725 3280 1
7725 4857 1
7725 8175 1
7726 157 1
7726 193 1
7726 1477 1
7726 3647 1
7726 7752 1
7726 8626 1
7727 47 1
7727 49 1
7727 2810 1
7727 3800 1
7728 204 1
7728 399 1
7728 5564 1
7728 6083 1
7728 9810 1
7729 24 1
7729 60 1
7729 891 1
7729 1192 1
7729 8405 1
7729 8768 1
7729 9978 1
7730 225 1
7730 2227 1
7730 2670 1
7730 7533 1
7731 70 1
7731 723 1
7731 2850 1
7731 7545 1
7731 9747 1
7732 15 1
7732 1611 1
7732 2051 1
7732 4573 1
7733 196 1
7733 1425 1
7733 4464 1
7733 4848 1
7734 103 1
7734 1193 1
7734 1927 1
7734 2041 1
7735 137 1
7735 1146 1
7735 1292 1
7735 4315 1
7735 8184 1
7735 8916 1
7735 8986 1
7735 9515 1
7736 55 1
7736 3559 1
7736 5733 1
7736 6985 1
7737 194 1
7737 281 1
7737 802 1
7737 3300 1
7737 8273 1
7738 34 1
7738 310 1
7738 1309 1
7738 5641 1
7739 435 1
7739 2749 1
7739 4315 1
7739 7685 1
7739 8493 1
7740 890 1
7740 1478 1
7740 1581 1
7740 2123 1
7741 104 1
7741 160 1
7741 1019 1
7741 2609 1
7741 8925 1
7742 71 1
7742 523 1
7742 2957 1
7742 5366 1
7743 334 1
7743 3386 1
7743 3760 1
7743 7668 1
7744 44 1
7744 173 1
7744 2711 1
7744 5176 1
7745 72 1
7745 115 1
7745 303 1
7745 7166 1
7745 9169 1
7746 651 1
7746 1678 1
7746 1941 1
7746 6153 1
7746 9345 1
7746 9385 1
7747 81 1
7747 1716 1
7747 4039 1
7747 5357 1
7747 8907 1
7748 893 1
7748 1681 1
7748 5151 1
7748 6763 1
7748 8751 1
7749 539 1
7749 723 1
7749 961 1
7749 6860 1
7749 8391 1
7750 3 1
7750 13 1
7750 1193 1
7750 1950 1
7751 2 1
7751 218 1
7751 1724 1
7751 3374 1
7751 9018 1
7752 1889 1
7752 2979 1
7752 7009 1
7752 7726 1
7753 103 1
7753 677 1
7753 5637 1
7753 7487 1
7753 8222 1
7754 192 1
7754 453 1
7754 2264 1
7754 5377 1
7755 127 1
7755 716 1
7755 1259 1
7755 6736 1
7756 104 1
7756 508 1
7756 1367 1
7756 3353 1
7757 2532 1
7757 4438 1
7757 5064 1
7757 6750 1
7758 124 1
7758 763 1
7758 2066 1
7758 5756 1
7758 8660 1
7759 687 1
7759 3246 1
7759 3988 1
7759 5790 1
7760 165 1
7760 288 1
7760 815 1
7760 952 1
7760 8443 1
7761 12 1
7761 34 1
7761 143 1
7761 7168 1
7761 8051 1
7761 9009 1
7762 37 1
7762 201 1
7762 683 1
7762 746 1
7762 9394 1
7763 872 1
7763 1449 1
7763 1879 1
7763 2746 1
7763 8404 1
7763 8813 1
7763 9975 1
7764 1798 1
7764 5843 1
7764 6428 1
7764 6586 1
7765 3528 1
7765 4725 1
7765 4765 1
7765 6962 1
7766 27 1
7766 846 1
7766 1298 1
7766 7475 1
7766 9673 1
7767 295 1
7767 468 1
7767 1276 1
7767 4760 1
7768 8 1
7768 305 1
7768 2316 1
7768 2630 1
7769 20 1
7769 132 1
7769 611 1
7769 868 1
7769 8070 1
7770 767 1
7770 1713 1
7770 2760 1
7770 3872 1
7770 8054 1
7770 8582 1
7770 8733 1
7771 427 1
7771 832 1
7771 2150 1
7771 5526 1
7772 1482 1
7772 2251 1
7772 5271 1
7772 5429 1
7773 683 1
7773 2913 1
7773 2977 1
7773 5009 1
7773 8508 1
7774 1 1
7774 271 1
7774 949 1
7774 4262 1
7774 7924 1
7774 8405 1
7775 11 1
7775 51 1
7775 584 1
7775 1239 1
7776 14 1
7776 3085 1
7776 5375 1
7776 5781 1
7776 8548 1
7776 9025 1
7776 9716 1
7777 425 1
7777 1636 1
7777 2080 1
7777 3250 1
7778 3791 1
7778 5299 1
7778 7263 1
7778 7559 1
7779 66 1
7779 2246 1
7779 2599 1
7779 4276 1
7780 13 1
7780 61 1
7780 80 1
7780 5893 1
7781 52 1
7781 962 1
7781 2188 1
7781 4052 1
7781 8296 1
7781 8875 1
7781 9255 1
7782 451 1
7782 839 1
7782 990 1
7782 1355 1
7782 9229 1
7782 9803 1
7783 55 1
7783 272 1
7783 906 1
7783 1776 1
7783 9215 1
7784 181 1
7784 2166 1
7784 2983 1
7784 3465 1
7784 8440 1
7784 8837 1
7785 607 1
7785 3939 1
7785 4237 1
7785 5315 1
7786 233 1
7786 1522 1
7786 6209 1
7786 7419 1
7787 989 1
7787 1579 1
7787 5253 1
7787 6677 1
7788 409 1
7788 2630 1
7788 3183 1
7788 4599 1
7788 8580 1
7789 121 1
7789 1991 1
7789 2428 1
7789 5398 1
7790 2310 1
7790 3622 1
7790 5467 1
7790 7512 1
7790 7906 1
7790 9415 1
7791 157 1
7791 287 1
7791 4085 1
7791 4379 1
7791 9462 1
7792 377 1
7792 653 1
7792 734 1
7792 3980 1
7793 10 1
7793 122 1
7793 275 1
7793 298 1
7794 22 1
7794 2143 1
7794 4164 1
7794 5674 1
7795 531 1
7795 2699 1
7795 5144 1
7795 5874 1
7795 8549 1
7795 9376 1
7796 45 1
7796 1099 1
7796 3580 1
7796 5707 1
7797 156 1
7797 340 1
7797 1192 1
7797 5565 1
7798 476 1
7798 541 1
7798 1493 1
7798 2171 1
7799 601 1
7799 762 1
7799 3673 1
7799 4642 1
7800 308 1
7800 664 1
7800 7095 1
7800 7108 1
7801 21 1
7801 1209 1
7801 4172 1
7801 7507 1
7801 8093 1
7801 8160 1
7802 1445 1
7802 1905 1
7802 2119 1
7802 4842 1
7802 8568 1
7803 696 1
7803 1299 1
7803 2178 1
7803 4489 1
7804 51 1
7804 1199 1
7804 1296 1
7804 1369 1
7805 368 1
7805 402 1
7805 453 1
7805 1022 1
7805 8173 1
7806 1288 1
7806 1632 1
7806 1836 1
7806 6218 1
7807 153 1
7807 1048 1
7807 3176 1
7807 7724 1
7807 8545 1
7808 17 1
7808 4770 1
7808 6844 1
7808 7112 1
7809 663 1
7809 1464 1
7809 4773 1
7809 6292 1
7810 1813 1
7810 1860 1
7810 3251 1
7810 4738 1
7810 7957 1
7811 990 1
7811 2092 1
7811 3183 1
7811 4302 1
7812 1510 1
7812 2267 1
7812 2672 1
7812 7240 1
7812 9151 1
7812 9749 1
7813 90 1
7813 272 1
7813 2505 1
7813 3249 1
7813 8661 1
7814 66 1
7814 116 1
7814 2134 1
7814 4173 1
7815 188 1
7815 707 1
7815 6849 1
7815 7304 1
7816 407 1
7816 1076 1
7816 1343 1
7816 7572 1
7816 9823 1
7817 36 1
7817 831 1
7817 3231 1
7817 3453 1
7817 8989 1
7818 409 1
7818 2555 1
7818 4727 1
7818 5815 1
7819 90 1
7819 181 1
7819 928 1
7819 1476 1
7819 9301 1
7820 279 1
7820 3046 1
7820 3189 1
7820 6657 1
7820 7889 1
7820 8812 1
7820 9593 1
7821 115 1
7821 2285 1
7821 2620 1
7821 3448 1
7822 358 1
7822 531 1
7822 2497 1
7822 6424 1
7823 646 1
7823 6398 1
7823 7696 1
7823 7724 1
7824 273 1
7824 1114 1
7824 1752 1
7824 7177 1
7825 9 1
7825 539 1
7825 821 1
7825 1962 1
7825 7963 1
7826 1762 1
7826 1947 1
7826 2588 1
7826 7245 1
7827 49 1
7827 1411 1
7827 4076 1
7827 6538 1
7827 8645 1
7828 926 1
7828 1868 1
7828 7426 1
7828 7428 1
7828 9994 1
7829 1108 1
7829 1757 1
7829 5225 1
7829 6250 1
7830 41 1
7830 1106 1
7830 2053 1
7830 5296 1
7830 7921 1
7831 1420 1
7831 2052 1
7831 4015 1
7831 7171 1
7832 14 1
7832 30 1
7832 146 1
7832 4686 1
7833 601 1
7833 603 1
7833 1768 1
7833 4757 1
7834 7 1
7834 94 1
7834 1504 1
7834 2247 1
7835 742 1
7835 2138 1
7835 3564 1
7835 7269 1
7836 17 1
7836 3238 1
7836 7149 1
7836 7239 1
7836 8550 1
7836 9355 1
7837 739 1
7837 1308 1
7837 2352 1
7837 4016 1
7838 323 1
7838 1855 1
7838 6967 1
7838 7696 1
7839 341 1
7839 1361 1
7839 2052 1
7839 7161 1
7840 736 1
7840 1501 1
7840 1813 1
7840 7142 1
7841 14 1
7841 757 1
7841 2437 1
7841 6467 1
7841 7934 1
7842 34 1
7842 338 1
7842 701 1
7842 2350 1
7843 321 1
7843 3589 1
7843 3863 1
7843 5668 1
7844 14 1
7844 82 1
7844 3577 1
7844 5661 1
7845 14 1
7845 185 1
7845 1406 1
7845 6056 1
7846 468 1
7846 599 1
7846 1700 1
7846 3912 1
7847 1399 1
7847 1689 1
7847 2456 1
7847 3817 1
7848 115 1
7848 329 1
7848 3327 1
7848 5597 1
7849 1303 1
7849 3080 1
7849 4448 1
7849 4898 1
7850 11 1
7850 15 1
7850 949 1
7850 6820 1
7850 8787 1
7850 9299 1
7851 63 1
7851 1451 1
7851 6276 1
7851 7441 1
7852 44 1
7852 139 1
7852 3968 1
7852 5218 1
7853 653 1
7853 707 1
7853 1354 1
7853 3331 1
7854 255 1
7854 4236 1
7854 5160 1
7854 5567 1
7855 1157 1
7855 2422 1
7855 2673 1
7855 2705 1
7856 828 1
7856 1862 1
7856 3260 1
7856 3841 1
7856 9023 1
7857 228 1
7857 2126 1
7857 3435 1
7857 6004 1
7858 1 1
7858 580 1
7858 2823 1
7858 7177 1
7859 4 1
7859 2546 1
7859 2589 1
7859 2857 1
7860 71 1
7860 568 1
7860 6098 1
7860 6572 1
7861 19 1
7861 156 1
7861 4372 1
7861 7252 1
7862 149 1
7862 932 1
7862 5749 1
7862 6473 1
7862 8500 1
7863 445 1
7863 1510 1
7863 2456 1
7863 3530 1
7863 9551 1
7864 2288 1
7864 2437 1
7864 3128 1
7864 4279 1
7865 635 1
7865 3096 1
7865 4708 1
7865 7105 1
7866 1796 1
7866 3141 1
7866 4991 1
7866 6811 1
7866 9435 1
7867 134 1
7867 613 1
7867 4007 1
7867 4912 1
7868 7 1
7868 2650 1
7868 3805 1
7868 5631 1
7868 7998 1
7869 84 1
7869 455 1
7869 3615 1
7869 7611 1
7870 2199 1
7870 2639 1
7870 6637 1
7870 6746 1
7870 8926 1
7871 28 1
7871 523 1
7871 662 1
7871 5588 1
7871 8604 1
7871 8678 1
7871 9423 1
7871 9558 1
7872 116 1
7872 839 1
7872 1809 1
7872 3672 1
7872 9027 1
7872 9273 1
7873 6 1
7873 458 1
7873 839 1
7873 4504 1
7874 2679 1
7874 3345 1
7874 4249 1
7874 5209 1
7875 281 1
7875 1880 1
7875 2496 1
7875 6574 1
7876 28 1
7876 176 1
7876 6055 1
7876 6940 1
7876 7907 1
7876 8961 1
7876 9802 1
7877 78 1
7877 389 1
7877 3397 1
7877 3636 1
7878 35 1
7878 732 1
7878 4806 1
7878 7157 1
7878 9764 1
7879 1821 1
7879 3747 1
7879 4239 1
7879 4491 1
7879 8448 1
7880 263 1
7880 946 1
7880 1598 1
7880 2516 1
7880 8576 1
7881 288 1
7881 818 1
7881 1997 1
7881 5522 1
7882 5 1
7882 1040 1
7882 2364 1
7882 4476 1
7883 744 1
7883 2943 1
7883 4598 1
7883 4697 1
7884 98 1
7884 1657 1
7884 4435 1
7884 7505 1
7884 7898 1
7885 19 1
7885 211 1
7885 629 1
7885 5072 1
7885 9713 1
7886 85 1
7886 106 1
7886 390 1
7886 7488 1
7886 8099 1
7886 9755 1
7886 9888 1
7887 15 1
7887 1311 1
7887 3742 1
7887 7301 1
7888 58 1
7888 926 1
7888 1548 1
7888 3139 1
7888 8316 1
7889 2623 1
7889 5678 1
7889 6781 1
7889 7820 1
7889 8165 1
7890 711 1
7890 1729 1
7890 1758 1
7890 4630 1
7890 8347 1
7891 196 1
7891 5001 1
7891 5135 1
7891 5270 1
7892 535 1
7892 723 1
7892 1535 1
7892 2616 1
7892 8612 1
7893 73 1
7893 1520 1
7893 2557 1
7893 7705 1
7893 9021 1
7894 281 1
7894 3351 1
7894 3912 1
7894 4089 1
7894 8370 1
7895 558 1
7895 2531 1
7895 4857 1
7895 5719 1
7895 8838 1
7896 82 1
7896 419 1
7896 603 1
7896 4379 1
7896 9000 1
7896 9814 1
7897 1234 1
7897 1975 1
7897 2567 1
7897 6548 1
7898 346 1
7898 2144 1
7898 4245 1
7898 7884 1
7899 1530 1
7899 2505 1
7899 3565 1
7899 4991 1
7900 2003 1
7900 2872 1
7900 3899 1
7900 6878 1
7900 9736 1
7901 107 1
7901 463 1
7901 4420 1
7901 4452 1
7902 1432 1
7902 1467 1
7902 3615 1
7902 4337 1
7903 226 1
7903 235 1
7903 552 1
7903 6992 1
7903 8435 1
7904 1084 1
7904 4565 1
7904 6541 1
7904 7651 1
7904 9760 1
7905 327 1
7905 816 1
7905 1044 1
7905 4157 1
7906 34 1
7906 152 1
7906 5693 1
7906 7790 1
7906 8651 1
7907 381 1
7907 1160 1
7907 5718 1
7907 7876 1
7908 1 1
7908 4031 1
7908 5063 1
7908 6796 1
7909 32 1
7909 788 1
7909 2881 1
7909 3463 1
7910 6 1
7910 159 1
7910 1830 1
7910 5027 1
7911 116 1
7911 667 1
7911 2092 1
7911 2382 1
7911 8683 1
7912 89 1
7912 1681 1
7912 1949 1
7912 4882 1
7913 431 1
7913 792 1
7913 1160 1
7913 6051 1
7913 8190 1
7914 26 1
7914 31 1
7914 1581 1
7914 2920 1
7914 8010 1
7915 10 1
7915 599 1
7915 1106 1
7915 4038 1
7915 9224 1
7916 705 1
7916 881 1
7916 1006 1
7916 6682 1
7917 352 1
7917 4602 1
7917 4815 1
7917 7526 1
7918 1970 1
7918 2650 1
7918 4016 1
7918 7481 1
7919 277 1
7919 680 1
7919 2159 1
7919 5660 1
7920 10 1
7920 57 1
7920 2854 1
7920 5318 1
7921 568 1
7921 2887 1
7921 4067 1
7921 7830 1
7922 2272 1
7922 3199 1
7922 4909 1
7922 5773 1
7922 8577 1
7923 2447 1
7923 2754 1
7923 4666 1
7923 6175 1
7924 32 1
7924 132 1
7924 2483 1
7924 7774 1
7925 165 1
7925 2820 1
7925 4296 1
7925 7007 1
7925 8002 1
7926 48 1
7926 850 1
7926 3363 1
7926 7067 1
7927 778 1
7927 1581 1
7927 4498 1
7927 6394 1
7928 320 1
7928 2594 1
7928 2907 1
7928 4620 1
7929 79 1
7929 912 1
7929 2926 1
7929 3378 1
7929 8137 1
7929 8780 1
7930 138 1
7930 688 1
7930 753 1
7930 4674 1
7931 218 1
7931 750 1
7931 1279 1
7931 1282 1
7931 9761 1
7932 364 1
7932 917 1
7932 2970 1
7932 3671 1
7933 1434 1
7933 1626 1
7933 1902 1
7933 5408 1
7934 31 1
7934 265 1
7934 845 1
7934 7841 1
7934 9211 1
7935 31 1
7935 3409 1
7935 4096 1
7935 5133 1
7935 8578 1
7936 575 1
7936 1590 1
7936 1635 1
7936 2917 1
7937 41 1
7937 77 1
7937 1001 1
7937 2725 1
7937 8486 1
7938 194 1
7938 428 1
7938 987 1
7938 2001 1
7939 72 1
7939 347 1
7939 1413 1
7939 1722 1
7940 157 1
7940 551 1
7940 1042 1
7940 2767 1
7941 1068 1
7941 3140 1
7941 4471 1
7941 6206 1
7941 8191 1
7941 8752 1
7941 9750 1
7942 6148 1
7942 6668 1
7942 7098 1
7942 7162 1
7942 8431 1
7943 1118 1
7943 1406 1
7943 1441 1
7943 2889 1
7944 226 1
7944 4149 1
7944 4796 1
7944 5835 1
7945 4 1
7945 524 1
7945 631 1
7945 5819 1
7945 8769 1
7946 17 1
7946 5493 1
7946 5635 1
7946 6072 1
7946 8324 1
7947 8 1
7947 2479 1
7947 3242 1
7947 7450 1
7947 9006 1
7947 9050 1
7948 2732 1
7948 3580 1
7948 5241 1
7948 7125 1
7949 58 1
7949 309 1
7949 1048 1
7949 6672 1
7950 253 1
7950 347 1
7950 1211 1
7950 4992 1
7951 149 1
7951 3172 1
7951 4138 1
7951 6305 1
7951 8223 1
7951 9336 1
7952 12 1
7952 401 1
7952 1883 1
7952 4785 1
7953 5 1
7953 17 1
7953 841 1
7953 2042 1
7953 9399 1
7954 213 1
7954 1516 1
7954 3329 1
7954 3843 1
7955 5 1
7955 1506 1
7955 2198 1
7955 3340 1
7955 9573 1
7956 2733 1
7956 3729 1
7956 4217 1
7956 4548 1
7957 1390 1
7957 3929 1
7957 7464 1
7957 7810 1
7957 8605 1
7958 1082 1
7958 1860 1
7958 3207 1
7958 4031 1
7958 9400 1
7959 1282 1
7959 1814 1
7959 4988 1
7959 6027 1
7959 9328 1
7960 1 1
7960 1356 1
7960 6456 1
7960 6656 1
7960 8577 1
7960 9688 1
7961 23 1
7961 81 1
7961 1664 1
7961 4615 1
7962 420 1
7962 689 1
7962 1743 1
7962 3798 1
7963 1108 1
7963 5731 1
7963 6447 1
7963 7825 1
7964 68 1
7964 1951 1
7964 2567 1
7964 2854 1
7964 8990 1
7965 179 1
7965 2241 1
7965 3769 1
7965 4386 1
7966 56 1
7966 81 1
7966 2172 1
7966 3204 1
7966 9276 1
7967 629 1
7967 971 1
7967 1443 1
7967 2125 1
7968 909 1
7968 969 1
7968 3306 1
7968 5253 1
7968 9634 1
7969 34 1
7969 118 1
7969 2501 1
7969 6479 1
7969 8646 1
7969 9792 1
7970 460 1
7970 2229 1
7970 2437 1
7970 2860 1
7971 61 1
7971 258 1
7971 1133 1
7971 2036 1
7971 8810 1
7971 9234 1
7972 2292 1
7972 2370 1
7972 4239 1
7972 5794 1
7973 8 1
7973 120 1
7973 572 1
7973 1340 1
7974 1161 1
7974 3159 1
7974 4180 1
7974 4512 1
7975 1 1
7975 883 1
7975 4238 1
7975 6094 1
7976 3898 1
7976 6016 1
7976 6115 1
7976 7528 1
7977 3 1
7977 868 1
7977 1422 1
7977 3482 1
7978 218 1
7978 314 1
7978 1590 1
7978 2400 1
7979 256 1
7979 739 1
7979 2346 1
7979 3015 1
7980 605 1
7980 4220 1
7980 4941 1
7980 5063 1
7981 29 1
7981 79 1
7981 368 1
7981 4815 1
7981 8233 1
7981 9449 1
7982 1056 1
7982 3333 1
7982 4464 1
7982 6382 1
7983 51 1
7983 221 1
7983 567 1
7983 2128 1
7984 658 1
7984 969 1
7984 4952 1
7984 7674 1
7985 1151 1
7985 3942 1
7985 7254 1
7985 7316 1
7986 6 1
7986 65 1
7986 904 1
7986 6592 1
7987 69 1
7987 1108 1
7987 1977 1
7987 6571 1
7988 89 1
7988 1220 1
7988 5344 1
7988 7013 1
7989 220 1
7989 1284 1
7989 2957 1
7989 4580 1
7990 265 1
7990 2163 1
7990 2610 1
7990 3960 1
7991 149 1
7991 3415 1
7991 5296 1
7991 6023 1
7991 8409 1
7992 300 1
7992 609 1
7992 807 1
7992 1082 1
7992 8022 1
7993 77 1
7993 326 1
7993 690 1
7993 4539 1
7994 66 1
7994 282 1
7994 1044 1
7994 6649 1
7995 132 1
7995 1097 1
7995 2935 1
7995 7031 1
7995 9275 1
7996 91 1
7996 1083 1
7996 3144 1
7996 7263 1
7997 8 1
7997 117 1
7997 2271 1
7997 2461 1
7998 314 1
7998 568 1
7998 719 1
7998 7868 1
7998 8408 1
7999 2261 1
7999 3984 1
7999 4577 1
7999 4613 1
8000 3 1
8000 65 1
8000 1704 1
8000 2119 1
8001 3 1
8001 1699 1
8001 2765 1
8001 4264 1
8001 8891 1
8002 1768 1
8002 3160 1
8002 3539 1
8002 7925 1
8003 833 1
8003 1098 1
8003 1556 1
8003 2567 1
8004 95 1
8004 3310 1
8004 5029 1
8004 6282 1
8005 1 1
8005 6 1
8005 3746 1
8005 6313 1
8006 1056 1
8006 1464 1
8006 2061 1
8006 4658 1
8007 3640 1
8007 6546 1
8007 7650 1
8007 7702 1
8008 306 1
8008 1435 1
8008 1611 1
8008 2486 1
8009 116 1
8009 236 1
8009 3659 1
8009 6794 1
8009 8125 1
8009 8387 1
8010 301 1
8010 566 1
8010 2131 1
8010 7914 1
8011 521 1
8011 2428 1
8011 2561 1
8011 4314 1
8012 1911 1
8012 3979 1
8012 5189 1
8012 6611 1
8013 900 1
8013 1140 1
8013 3653 1
8013 4652 1
8014 46 1
8014 1266 1
8014 4519 1
8014 5117 1
8014 9827 1
8015 270 1
8015 549 1
8015 1085 1
8015 7609 1
8015 8685 1
8015 9199 1
8016 10 1
8016 1079 1
8016 1117 1
8016 1482 1
8017 1 1
8017 1930 1
8017 2165 1
8017 2234 1
8018 496 1
8018 2025 1
8018 3392 1
8018 3854 1
8019 1097 1
8019 2758 1
8019 3924 1
8019 5235 1
8020 6 1
8020 1216 1
8020 3284 1
8020 7393 1
8020 8410 1
8021 160 1
8021 4706 1
8021 6383 1
8021 7220 1
8022 555 1
8022 1634 1
8022 3245 1
8022 7992 1
8022 9777 1
8023 1290 1
8023 1546 1
8023 3860 1
8023 6951 1
8024 1160 1
8024 3747 1
8024 3761 1
8024 5912 1
8025 477 1
8025 5008 1
8025 5793 1
8025 6525 1
8026 197 1
8026 693 1
8026 3294 1
8026 4294 1
8027 1970 1
8027 3243 1
8027 3595 1
8027 5746 1
8028 606 1
8028 1242 1
8028 2203 1
8028 6652 1
8029 949 1
8029 1779 1
8029 3817 1
8029 5897 1
8030 17 1
8030 1715 1
8030 2063 1
8030 4809 1
8031 39 1
8031 124 1
8031 377 1
8031 4257 1
8032 392 1
8032 3981 1
8032 4575 1
8032 6043 1
8033 1260 1
8033 2957 1
8033 4261 1
8033 4436 1
8034 2128 1
8034 2207 1
8034 5076 1
8034 6205 1
8034 9889 1
8035 669 1
8035 1076 1
8035 3431 1
8035 6721 1
8036 196 1
8036 1048 1
8036 7599 1
8036 7656 1
8037 3669 1
8037 5620 1
8037 7017 1
8037 7343 1
8038 1969 1
8038 2321 1
8038 3241 1
8038 5882 1
8038 9312 1
8039 184 1
8039 2574 1
8039 6212 1
8039 7595 1
8040 38 1
8040 445 1
8040 1730 1
8040 6006 1
8040 8532 1
8041 557 1
8041 1128 1
8041 2268 1
8041 3270 1
8041 8759 1
8042 1513 1
8042 5272 1
8042 6616 1
8042 7588 1
8043 978 1
8043 1997 1
8043 2550 1
8043 5642 1
8044 6 1
8044 438 1
8044 2289 1
8044 3036 1
8044 9454 1
8044 9539 1
8045 73 1
8045 326 1
8045 3197 1
8045 4692 1
8045 8696 1
8046 391 1
8046 1369 1
8046 4602 1
8046 6163 1
8047 1405 1
8047 3172 1
8047 4511 1
8047 5816 1
8048 213 1
8048 275 1
8048 5395 1
8048 5805 1
8049 93 1
8049 2910 1
8049 4903 1
8049 7054 1
8050 779 1
8050 1786 1
8050 3132 1
8050 6379 1
8051 256 1
8051 5832 1
8051 7469 1
8051 7761 1
8052 1173 1
8052 5162 1
8052 5229 1
8052 6601 1
8053 15 1
8053 156 1
8053 1356 1
8053 5090 1
8054 479 1
8054 3492 1
8054 5625 1
8054 7770 1
8055 1934 1
8055 2903 1
8055 3744 1
8055 4394 1
8055 8255 1
8056 1705 1
8056 2154 1
8056 3620 1
8056 4765 1
8057 51 1
8057 260 1
8057 2232 1
8057 3424 1
8058 301 1
8058 487 1
8058 2359 1
8058 5338 1
8059 98 1
8059 487 1
8059 758 1
8059 1221 1
8059 8220 1
8060 6 1
8060 245 1
8060 1222 1
8060 7340 1
8060 9509 1
8061 339 1
8061 422 1
8061 1343 1
8061 4422 1
8062 92 1
8062 1126 1
8062 1699 1
8062 3683 1
8063 674 1
8063 2217 1
8063 2542 1
8063 5496 1
8063 8809 1
8064 23 1
8064 1872 1
8064 2829 1
8064 3150 1
8065 76 1
8065 4849 1
8065 5592 1
8065 7103 1
8066 46 1
8066 5766 1
8066 6629 1
8066 7234 1
8066 8494 1
8067 434 1
8067 457 1
8067 778 1
8067 5835 1
8067 9899 1
8068 279 1
8068 2420 1
8068 2976 1
8068 6965 1
8068 8486 1
8069 12 1
8069 76 1
8069 400 1
8069 3640 1
8070 109 1
8070 719 1
8070 4806 1
8070 7769 1
8071 470 1
8071 1193 1
8071 2815 1
8071 3726 1
8072 909 1
8072 3164 1
8072 4158 1
8072 7535 1
8073 53 1
8073 708 1
8073 2920 1
8073 4916 1
8074 993 1
8074 1067 1
8074 1149 1
8074 6750 1
8075 674 1
8075 4842 1
8075 5269 1
8075 5719 1
8076 1132 1
8076 1699 1
8076 4143 1
8076 6578 1
8077 83 1
8077 93 1
8077 384 1
8077 4992 1
8078 1294 1
8078 3215 1
8078 4431 1
8078 4740 1
8078 9341 1
8079 73 1
8079 1512 1
8079 1560 1
8079 5677 1
8080 3510 1
8080 4157 1
8080 4478 1
8080 5283 1
8081 7 1
8081 10 1
8081 749 1
8081 5433 1
8082 16 1
8082 667 1
8082 2374 1
8082 3009 1
8083 200 1
8083 1138 1
8083 5515 1
8083 5543 1
8084 357 1
8084 3500 1
8084 5362 1
8084 7520 1
8084 9625 1
8085 34 1
8085 95 1
8085 403 1
8085 3690 1
8086 76 1
8086 294 1
8086 2782 1
8086 3540 1
8087 5 1
8087 45 1
8087 48 1
8087 5180 1
8087 8906 1
8087 9850 1
8088 244 1
8088 1260 1
8088 3017 1
8088 6018 1
8089 149 1
8089 215 1
8089 1826 1
8089 5210 1
8090 953 1
8090 4064 1
8090 5868 1
8090 7454 1
8091 2511 1
8091 4918 1
8091 5594 1
8091 6822 1
8091 8914 1
8092 223 1
8092 3769 1
8092 4094 1
8092 6162 1
8092 9368 1
8092 9530 1
8093 1494 1
8093 7015 1
8093 7692 1
8093 7801 1
8094 13 1
8094 1401 1
8094 2200 1
8094 3267 1
8094 8819 1
8095 437 1
8095 485 1
8095 2525 1
8095 6512 1
8095 9736 1
8095 9855 1
8096 1066 1
8096 3560 1
8096 4379 1
8096 6122 1
8097 241 1
8097 1831 1
8097 5713 1
8097 6736 1
8097 8944 1
8098 169 1
8098 1068 1
8098 3088 1
8098 4059 1
8099 3121 1
8099 3682 1
8099 7050 1
8099 7886 1
8100 83 1
8100 1139 1
8100 2527 1
8100 6243 1
8101 1317 1
8101 1894 1
8101 3640 1
8101 6279 1
8102 27 1
8102 1512 1
8102 4240 1
8102 5699 1
8103 271 1
8103 5134 1
8103 5824 1
8103 6210 1
8104 820 1
8104 1580 1
8104 4394 1
8104 4969 1
8104 9244 1
8105 1079 1
8105 3602 1
8105 4899 1
8105 7251 1
8106 56 1
8106 491 1
8106 1366 1
8106 1858 1
8107 13 1
8107 26 1
8107 1073 1
8107 4763 1
8108 29 1
8108 339 1
8108 1668 1
8108 5351 1
8109 7 1
8109 4111 1
8109 5441 1
8109 6392 1
8110 502 1
8110 549 1
8110 2622 1
8110 6102 1
8111 190 1
8111 486 1
8111 594 1
8111 1041 1
8112 873 1
8112 918 1
8112 2253 1
8112 6338 1
8113 132 1
8113 961 1
8113 1921 1
8113 6192 1
8113 9112 1
8113 9279 1
8114 3 1
8114 313 1
8114 1711 1
8114 5221 1
8114 8225 1
8114 9675 1
8115 390 1
8115 493 1
8115 3430 1
8115 4418 1
8115 8289 1
8115 9271 1
8116 165 1
8116 292 1
8116 2197 1
8116 2293 1
8117 971 1
8117 1091 1
8117 4364 1
8117 5632 1
8118 14 1
8118 3027 1
8118 5006 1
8118 5437 1
8118 9350 1
8119 43 1
8119 295 1
8119 716 1
8119 4629 1
8120 46 1
8120 379 1
8120 2929 1
8120 3646 1
8120 8643 1
8121 540 1
8121 2432 1
8121 3800 1
8121 7094 1
8121 9858 1
8122 28 1
8122 64 1
8122 674 1
8122 1216 1
8122 8867 1
8123 1991 1
8123 2116 1
8123 4547 1
8123 5761 1
8124 6 1
8124 1445 1
8124 1885 1
8124 4573 1
8125 1420 1
8125 4271 1
8125 7555 1
8125 8009 1
8125 8863 1
8125 9477 1
8126 309 1
8126 2713 1
8126 3253 1
8126 4009 1
8127 10 1
8127 726 1
8127 1696 1
8127 4297 1
8127 8334 1
8127 9098 1
8128 37 1
8128 3505 1
8128 4365 1
8128 4835 1
8128 9960 1
8129 73 1
8129 97 1
8129 539 1
8129 877 1
8130 1 1
8130 1362 1
8130 1600 1
8130 6504 1
8131 6 1
8131 1133 1
8131 2884 1
8131 7230 1
8132 213 1
8132 1041 1
8132 5252 1
8132 5341 1
8133 5 1
8133 572 1
8133 6629 1
8133 7534 1
8134 52 1
8134 699 1
8134 4205 1
8134 5131 1
8135 964 1
8135 1079 1
8135 2170 1
8135 2734 1
8136 329 1
8136 2720 1
8136 3486 1
8136 3791 1
8137 3 1
8137 149 1
8137 1254 1
8137 7929 1
8137 9148 1
8138 51 1
8138 401 1
8138 739 1
8138 4487 1
8139 87 1
8139 155 1
8139 2977 1
8139 4324 1
8140 1180 1
8140 2177 1
8140 4491 1
8140 5497 1
8140 8882 1
8141 868 1
8141 3898 1
8141 4169 1
8141 4634 1
8141 8650 1
8141 9167 1
8142 95 1
8142 580 1
8142 2648 1
8142 3937 1
8142 8509 1
8142 8912 1
8143 289 1
8143 1279 1
8143 1701 1
8143 7203 1
8143 9251 1
8143 9965 1
8143 9979 1
8144 409 1
8144 761 1
8144 6319 1
8144 7179 1
8144 8800 1
8145 847 1
8145 1461 1
8145 2361 1
8145 2981 1
8146 225 1
8146 3672 1
8146 3842 1
8146 4131 1
8146 8730 1
8147 125 1
8147 500 1
8147 1107 1
8147 4261 1
8147 8393 1
8148 19 1
8148 49 1
8148 58 1
8148 4543 1
8149 304 1
8149 375 1
8149 4545 1
8149 6594 1
8149 8511 1
8149 9038 1
8150 1041 1
8150 2031 1
8150 3458 1
8150 5810 1
8150 9727 1
8151 588 1
8151 3445 1
8151 5343 1
8151 5349 1
8152 230 1
8152 3093 1
8152 5672 1
8152 7135 1
8153 13 1
8153 139 1
8153 460 1
8153 691 1
8154 992 1
8154 1694 1
8154 2001 1
8154 2466 1
8155 288 1
8155 1086 1
8155 1612 1
8155 2357 1
8156 635 1
8156 1695 1
8156 2059 1
8156 3269 1
8157 26 1
8157 372 1
8157 2533 1
8157 5623 1
8158 360 1
8158 451 1
8158 1280 1
8158 5656 1
8159 47 1
8159 230 1
8159 1438 1
8159 6176 1
8159 9497 1
8159 9910 1
8160 73 1
8160 1192 1
8160 5198 1
8160 7801 1
8160 8261 1
8161 93 1
8161 682 1
8161 1032 1
8161 7393 1
8161 8861 1
8162 5 1
8162 312 1
8162 1280 1
8162 3458 1
8162 9716 1
8163 2288 1
8163 3389 1
8163 3868 1
8163 4516 1
8164 253 1
8164 3136 1
8164 4274 1
8164 7086 1
8165 16 1
8165 1575 1
8165 1870 1
8165 7889 1
8166 1 1
8166 1524 1
8166 1764 1
8166 7569 1
8166 8551 1
8167 227 1
8167 1226 1
8167 3565 1
8167 4625 1
8168 1836 1
8168 2980 1
8168 4486 1
8168 6795 1
8169 1 1
8169 161 1
8169 2043 1
8169 6547 1
8170 121 1
8170 145 1
8170 262 1
8170 4702 1
8171 918 1
8171 2255 1
8171 2454 1
8171 7507 1
8172 10 1
8172 611 1
8172 2501 1
8172 3754 1
8173 622 1
8173 787 1
8173 7249 1
8173 7805 1
8173 8414 1
8174 39 1
8174 244 1
8174 3928 1
8174 5874 1
8175 47 1
8175 188 1
8175 889 1
8175 7725 1
8176 78 1
8176 369 1
8176 644 1
8176 1211 1
8177 28 1
8177 112 1
8177 673 1
8177 1058 1
8178 1 1
8178 6 1
8178 365 1
8178 549 1
8178 8865 1
8179 1439 1
8179 1750 1
8179 2807 1
8179 6708 1
8180 1 1
8180 31 1
8180 281 1
8180 1829 1
8180 8637 1
8181 22 1
8181 1309 1
8181 3148 1
8181 6858 1
8182 272 1
8182 1506 1
8182 1691 1
8182 5630 1
8183 514 1
8183 924 1
8183 2655 1
8183 4964 1
8183 9703 1
8184 174 1
8184 1815 1
8184 6781 1
8184 7735 1
8184 8615 1
8185 816 1
8185 1284 1
8185 2804 1
8185 6038 1
8185 8633 1
8185 8972 1
8186 53 1
8186 2715 1
8186 2825 1
8186 7277 1
8187 1532 1
8187 4047 1
8187 5115 1
8187 5298 1
8188 28 1
8188 340 1
8188 1428 1
8188 7050 1
8189 195 1
8189 1827 1
8189 2358 1
8189 2426 1
8190 3059 1
8190 5626 1
8190 7502 1
8190 7913 1
8191 17 1
8191 289 1
8191 1916 1
8191 7941 1
8192 54 1
8192 252 1
8192 275 1
8192 6304 1
8193 117 1
8193 535 1
8193 1070 1
8193 1604 1
8194 2395 1
8194 3134 1
8194 5793 1
8194 7494 1
8195 801 1
8195 1389 1
8195 5565 1
8195 5805 1
8196 507 1
8196 917 1
8196 3465 1
8196 5783 1
8197 766 1
8197 1222 1
8197 1803 1
8197 6390 1
8198 815 1
8198 823 1
8198 1666 1
8198 6366 1
8199 296 1
8199 425 1
8199 1513 1
8199 3043 1
8200 37 1
8200 1898 1
8200 1942 1
8200 6183 1
8200 9342 1
8201 22 1
8201 1596 1
8201 2506 1
8201 3347 1
8202 102 1
8202 304 1
8202 4773 1
8202 6504 1
8202 9349 1
8203 1243 1
8203 2352 1
8203 3625 1
8203 4366 1
8203 8842 1
8204 877 1
8204 913 1
8204 3103 1
8204 6871 1
8205 1833 1
8205 2847 1
8205 3615 1
8205 5185 1
8206 9 1
8206 223 1
8206 422 1
8206 1144 1
8206 9666 1
8207 20 1
8207 1027 1
8207 2151 1
8207 5434 1
8208 76 1
8208 872 1
8208 2010 1
8208 5612 1
8209 1416 1
8209 2773 1
8209 4426 1
8209 5270 1
8209 8831 1
8210 88 1
8210 229 1
8210 721 1
8210 2868 1
8211 145 1
8211 296 1
8211 3506 1
8211 6701 1
8212 6 1
8212 2336 1
8212 3338 1
8212 7234 1
8212 9189 1
8213 64 1
8213 1398 1
8213 2323 1
8213 7534 1
8213 8307 1
8214 305 1
8214 1730 1
8214 1865 1
8214 3689 1
8215 247 1
8215 1160 1
8215 2561 1
8215 6109 1
8215 8988 1
8216 120 1
8216 3142 1
8216 4640 1
8216 6724 1
8217 260 1
8217 1017 1
8217 2443 1
8217 4779 1
8218 1885 1
8218 2022 1
8218 2854 1
8218 6696 1
8219 1100 1
8219 2009 1
8219 4387 1
8219 7388 1
8219 8269 1
8220 967 1
8220 1076 1
8220 3329 1
8220 8059 1
8221 6 1
8221 949 1
8221 969 1
8221 1069 1
8222 107 1
8222 1708 1
8222 6766 1
8222 7753 1
8222 8254 1
8223 208 1
8223 546 1
8223 4308 1
8223 7951 1
8223 9779 1
8224 2020 1
8224 3848 1
8224 3993 1
8224 4775 1
8224 9135 1
8225 2411 1
8225 2673 1
8225 3475 1
8225 8114 1
8226 28 1
8226 95 1
8226 1273 1
8226 2760 1
8226 8908 1
8226 9041 1
8226 9233 1
8227 374 1
8227 2675 1
8227 3649 1
8227 4723 1
8228 22 1
8228 516 1
8228 1803 1
8228 2476 1
8228 9320 1
8229 1069 1
8229 2408 1
8229 2579 1
8229 3725 1
8229 9830 1
8230 3 1
8230 19 1
8230 636 1
8230 7543 1
8230 9578 1
8231 373 1
8231 6067 1
8231 7548 1
8231 7609 1
8232 186 1
8232 1727 1
8232 4143 1
8232 6204 1
8233 599 1
8233 2034 1
8233 3069 1
8233 7981 1
8234 7 1
8234 1595 1
8234 4582 1
8234 7524 1
8235 100 1
8235 254 1
8235 306 1
8235 2747 1
8236 91 1
8236 290 1
8236 1405 1
8236 4015 1
8237 1420 1
8237 1614 1
8237 2859 1
8237 3514 1
8238 12 1
8238 273 1
8238 694 1
8238 2266 1
8238 9300 1
8239 415 1
8239 1560 1
8239 2199 1
8239 6884 1
8240 2 1
8240 619 1
8240 961 1
8240 1732 1
8241 244 1
8241 2952 1
8241 5153 1
8241 5734 1
8241 9559 1
8242 22 1
8242 3311 1
8242 6819 1
8242 6993 1
8243 81 1
8243 222 1
8243 3958 1
8243 6608 1
8244 1026 1
8244 2140 1
8244 5791 1
8244 6477 1
8244 9678 1
8245 730 1
8245 3647 1
8245 5232 1
8245 5534 1
8246 8 1
8246 969 1
8246 1553 1
8246 7558 1
8247 697 1
8247 1311 1
8247 4997 1
8247 6575 1
8248 368 1
8248 468 1
8248 3068 1
8248 6549 1
8249 295 1
8249 928 1
8249 3277 1
8249 4893 1
8250 489 1
8250 3560 1
8250 5134 1
8250 5672 1
8251 6 1
8251 432 1
8251 789 1
8251 1535 1
8252 188 1
8252 711 1
8252 2454 1
8252 3345 1
8252 8388 1
8253 29 1
8253 134 1
8253 2275 1
8253 4943 1
8253 9045 1
8254 176 1
8254 1047 1
8254 1740 1
8254 8222 1
8254 9756 1
8255 3 1
8255 139 1
8255 3020 1
8255 8055 1
8256 6 1
8256 1750 1
8256 2834 1
8256 3899 1
8256 9930 1
8257 112 1
8257 1174 1
8257 2278 1
8257 3561 1
8258 1 1
8258 1327 1
8258 1602 1
8258 3115 1
8259 237 1
8259 1780 1
8259 5400 1
8259 6758 1
8260 31 1
8260 206 1
8260 2749 1
8260 7376 1
8261 242 1
8261 724 1
8261 7609 1
8261 8160 1
8261 8450 1
8262 503 1
8262 715 1
8262 2111 1
8262 2219 1
8263 643 1
8263 1110 1
8263 4280 1
8263 4406 1
8263 9549 1
8264 1603 1
8264 4930 1
8264 5630 1
8264 6506 1
8265 51 1
8265 462 1
8265 1100 1
8265 2468 1
8266 5 1
8266 1101 1
8266 1206 1
8266 2407 1
8267 732 1
8267 795 1
8267 1945 1
8267 3489 1
8268 321 1
8268 6194 1
8268 6410 1
8268 6860 1
8269 1715 1
8269 2314 1
8269 3425 1
8269 8219 1
8270 104 1
8270 512 1
8270 525 1
8270 2362 1
8270 8953 1
8271 749 1
8271 2221 1
8271 2830 1
8271 5829 1
8272 2195 1
8272 2690 1
8272 3952 1
8272 6199 1
8273 474 1
8273 504 1
8273 594 1
8273 7737 1
8273 9625 1
8274 533 1
8274 756 1
8274 2115 1
8274 5885 1
8275 327 1
8275 1190 1
8275 4580 1
8275 5932 1
8276 360 1
8276 1222 1
8276 2318 1
8276 3322 1
8277 904 1
8277 1276 1
8277 2065 1
8277 4517 1
8278 702 1
8278 823 1
8278 1677 1
8278 1798 1
8279 262 1
8279 302 1
8279 368 1
8279 7061 1
8280 463 1
8280 3796 1
8280 5890 1
8280 6054 1
8281 57 1
8281 1499 1
8281 1805 1
8281 4684 1
8281 8812 1
8282 1392 1
8282 2407 1
8282 3256 1
8282 5942 1
8282 8506 1
8282 9706 1
8283 3264 1
8283 3462 1
8283 5030 1
8283 6518 1
8284 8 1
8284 518 1
8284 1693 1
8284 1756 1
8284 9173 1
8285 469 1
8285 931 1
8285 4994 1
8285 6302 1
8286 273 1
8286 847 1
8286 1238 1
8286 4697 1
8287 182 1
8287 797 1
8287 1610 1
8287 2234 1
8288 321 1
8288 786 1
8288 2565 1
8288 4737 1
8288 9016 1
8289 2513 1
8289 3327 1
8289 6870 1
8289 8115 1
8290 1075 1
8290 2643 1
8290 3897 1
8290 5781 1
8291 294 1
8291 2010 1
8291 6519 1
8291 7519 1
8292 143 1
8292 278 1
8292 2693 1
8292 7438 1
8292 9261 1
8293 93 1
8293 327 1
8293 931 1
8293 2632 1
8294 72 1
8294 3312 1
8294 3470 1
8294 5567 1
8295 62 1
8295 166 1
8295 243 1
8295 7499 1
8296 45 1
8296 572 1
8296 1896 1
8296 7781 1
8296 8622 1
8297 5 1
8297 994 1
8297 2220 1
8297 3507 1
8297 9167 1
8298 1418 1
8298 3687 1
8298 5204 1
8298 5737 1
8298 9451 1
8299 866 1
8299 2131 1
8299 3873 1
8299 5045 1
8300 482 1
8300 2503 1
8300 3752 1
8300 7711 1
8300 8701 1
8301 67 1
8301 159 1
8301 409 1
8301 1125 1
8301 8733 1
8302 986 1
8302 1297 1
8302 3110 1
8302 7367 1
8302 9123 1
8302 9688 1
8303 55 1
8303 1287 1
8303 1585 1
8303 3517 1
8303 9271 1
8304 16 1
8304 38 1
8304 289 1
8304 1596 1
8305 677 1
8305 1430 1
8305 5740 1
8305 7275 1
8305 9797 1
8306 69 1
8306 969 1
8306 3384 1
8306 3808 1
8306 8959 1
8307 218 1
8307 6055 1
8307 6877 1
8307 8213 1
8308 1161 1
8308 1354 1
8308 1674 1
8308 3374 1
8309 124 1
8309 1693 1
8309 1813 1
8309 3609 1
8309 9296 1
8310 71 1
8310 267 1
8310 694 1
8310 3128 1
8310 9661 1
8311 135 1
8311 3853 1
8311 5474 1
8311 7298 1
8311 9054 1
8311 9269 1
8312 389 1
8312 426 1
8312 2235 1
8312 2760 1
8313 32 1
8313 284 1
8313 6359 1
8313 6608 1
8314 1859 1
8314 2007 1
8314 4030 1
8314 5223 1
8315 107 1
8315 176 1
8315 583 1
8315 2582 1
8316 190 1
8316 417 1
8316 2345 1
8316 7888 1
8317 2814 1
8317 2976 1
8317 3112 1
8317 3294 1
8317 9728 1
8318 7 1
8318 862 1
8318 4660 1
8318 5901 1
8318 8592 1
8319 6 1
8319 26 1
8319 466 1
8319 7669 1
8320 437 1
8320 858 1
8320 1456 1
8320 6275 1
8320 8499 1
8321 5 1
8321 145 1
8321 2118 1
8321 2336 1
8321 8546 1
8322 947 1
8322 1077 1
8322 1999 1
8322 2835 1
8323 786 1
8323 1243 1
8323 5106 1
8323 6536 1
8324 3 1
8324 1540 1
8324 1941 1
8324 7946 1
8325 539 1
8325 5318 1
8325 6340 1
8325 6828 1
8325 8728 1
8325 9049 1
8326 1703 1
8326 4498 1
8326 5913 1
8326 6672 1
8327 1791 1
8327 3095 1
8327 3282 1
8327 7209 1
8328 2065 1
8328 4362 1
8328 4470 1
8328 6464 1
8328 8977 1
8329 698 1
8329 2103 1
8329 5369 1
8329 5480 1
8330 91 1
8330 446 1
8330 759 1
8330 1405 1
8331 1543 1
8331 4497 1
8331 6813 1
8331 7664 1
8332 2620 1
8332 6078 1
8332 6784 1
8332 7718 1
8332 9757 1
8333 203 1
8333 674 1
8333 679 1
8333 2061 1
8333 9556 1
8334 124 1
8334 812 1
8334 5734 1
8334 8127 1
8335 15 1
8335 218 1
8335 1965 1
8335 3714 1
8336 15 1
8336 390 1
8336 630 1
8336 5293 1
8337 27 1
8337 3461 1
8337 4558 1
8337 5127 1
8338 457 1
8338 529 1
8338 1718 1
8338 6086 1
8339 118 1
8339 773 1
8339 1991 1
8339 2883 1
8340 171 1
8340 2447 1
8340 3957 1
8340 6744 1
8341 131 1
8341 151 1
8341 185 1
8341 3399 1
8342 17 1
8342 97 1
8342 2095 1
8342 3738 1
8342 8436 1
8342 8870 1
8343 561 1
8343 1107 1
8343 1378 1
8343 2077 1
8343 9041 1
8344 77 1
8344 342 1
8344 4443 1
8344 6084 1
8345 310 1
8345 2981 1
8345 3082 1
8345 6113 1
8345 8655 1
8346 275 1
8346 320 1
8346 1411 1
8346 6243 1
8347 8 1
8347 22 1
8347 234 1
8347 7890 1
8347 8900 1
8348 6 1
8348 105 1
8348 177 1
8348 2897 1
8349 6 1
8349 1168 1
8349 4423 1
8349 5167 1
8349 9995 1
8350 484 1
8350 1014 1
8350 3549 1
8350 5205 1
8351 448 1
8351 853 1
8351 3128 1
8351 6802 1
8352 14 1
8352 1133 1
8352 1461 1
8352 2217 1
8352 8681 1
8352 8908 1
8352 9227 1
8353 1397 1
8353 4100 1
8353 5545 1
8353 5587 1
8354 165 1
8354 1918 1
8354 3481 1
8354 4072 1
8354 8702 1
8355 60 1
8355 843 1
8355 2499 1
8355 4193 1
8356 317 1
8356 694 1
8356 4537 1
8356 7063 1
8357 1565 1
8357 4912 1
8357 6943 1
8357 6982 1
8357 8729 1
8358 347 1
8358 1582 1
8358 5245 1
8358 7579 1
8359 102 1
8359 1785 1
8359 4199 1
8359 6432 1
8360 149 1
8360 261 1
8360 708 1
8360 1801 1
8361 525 1
8361 707 1
8361 2123 1
8361 5480 1
8362 631 1
8362 2072 1
8362 3524 1
8362 3659 1
8363 1301 1
8363 2987 1
8363 4742 1
8363 6176 1
8364 72 1
8364 124 1
8364 1690 1
8364 7328 1
8365 86 1
8365 1080 1
8365 3306 1
8365 4595 1
8366 3 1
8366 2426 1
8366 2731 1
8366 3380 1
8367 667 1
8367 2248 1
8367 5398 1
8367 5423 1
8367 8835 1
8367 9692 1
8368 9 1
8368 1270 1
8368 5733 1
8368 6166 1
8369 87 1
8369 500 1
8369 1495 1
8369 5239 1
8369 8590 1
8369 8781 1
8370 1472 1
8370 3490 1
8370 3521 1
8370 7894 1
8371 57 1
8371 670 1
8371 4906 1
8371 5099 1
8371 8641 1
8372 34 1
8372 2678 1
8372 4950 1
8372 6858 1
8373 95 1
8373 238 1
8373 427 1
8373 2354 1
8374 256 1
8374 2444 1
8374 5565 1
8374 6278 1
8375 400 1
8375 875 1
8375 2430 1
8375 6826 1
8375 9523 1
8376 8 1
8376 3648 1
8376 3912 1
8376 4614 1
8377 27 1
8377 1160 1
8377 2699 1
8377 3273 1
8377 8919 1
8378 281 1
8378 2155 1
8378 2430 1
8378 2590 1
8379 34 1
8379 984 1
8379 996 1
8379 3721 1
8380 281 1
8380 441 1
8380 3195 1
8380 3320 1
8380 8717 1
8381 1873 1
8381 5909 1
8381 6219 1
8381 7156 1
8382 427 1
8382 1374 1
8382 1473 1
8382 3940 1
8383 330 1
8383 5573 1
8383 5986 1
8383 6644 1
8384 1305 1
8384 1335 1
8384 3529 1
8384 4828 1
8384 9881 1
8385 72 1
8385 1716 1
8385 3274 1
8385 5292 1
8386 729 1
8386 986 1
8386 2981 1
8386 5737 1
8386 8628 1
8387 20 1
8387 1038 1
8387 1180 1
8387 8009 1
8388 1354 1
8388 2594 1
8388 5339 1
8388 8252 1
8389 651 1
8389 866 1
8389 3039 1
8389 3293 1
8389 8802 1
8390 481 1
8390 827 1
8390 1466 1
8390 2620 1
8390 8865 1
8391 115 1
8391 777 1
8391 5431 1
8391 7749 1
8392 1140 1
8392 2268 1
8392 2791 1
8392 3594 1
8393 765 1
8393 3693 1
8393 5466 1
8393 8147 1
8394 127 1
8394 828 1
8394 1970 1
8394 6040 1
8395 254 1
8395 1418 1
8395 2547 1
8395 4139 1
8396 76 1
8396 176 1
8396 301 1
8396 1248 1
8397 8 1
8397 97 1
8397 807 1
8397 1763 1
8398 132 1
8398 347 1
8398 1083 1
8398 2746 1
8399 802 1
8399 917 1
8399 5898 1
8399 6403 1
8399 8956 1
8400 2423 1
8400 3231 1
8400 3933 1
8400 5425 1
8401 95 1
8401 1530 1
8401 1549 1
8401 5182 1
8402 4 1
8402 504 1
8402 3971 1
8402 7363 1
8403 2471 1
8403 3717 1
8403 7167 1
8403 7667 1
8403 8818 1
8403 9910 1
8404 1984 1
8404 2825 1
8404 3554 1
8404 7763 1
8405 3264 1
8405 3327 1
8405 7729 1
8405 7774 1
8406 9 1
8406 2593 1
8406 4737 1
8406 7188 1
8407 19 1
8407 1138 1
8407 3137 1
8407 7708 1
8408 24 1
8408 62 1
8408 1350 1
8408 7998 1
8409 122 1
8409 2797 1
8409 3135 1
8409 7991 1
8409 8963 1
8410 16 1
8410 705 1
8410 3253 1
8410 8020 1
8411 45 1
8411 3197 1
8411 3374 1
8411 4871 1
8412 28 1
8412 142 1
8412 341 1
8412 1426 1
8412 8527 1
8413 397 1
8413 680 1
8413 764 1
8413 4482 1
8413 9862 1
8414 17 1
8414 36 1
8414 137 1
8414 8173 1
8415 7 1
8415 3997 1
8415 7333 1
8415 7436 1
8416 8 1
8416 375 1
8416 3690 1
8416 3995 1
8416 9140 1
8417 8 1
8417 24 1
8417 28 1
8417 2122 1
8417 9186 1
8418 70 1
8418 199 1
8418 2618 1
8418 5140 1
8419 806 1
8419 807 1
8419 808 1
8419 1878 1
8420 994 1
8420 1127 1
8420 2171 1
8420 2385 1
8421 24 1
8421 47 1
8421 323 1
8421 899 1
8422 5 1
8422 281 1
8422 2161 1
8422 4331 1
8423 131 1
8423 162 1
8423 3715 1
8423 6314 1
8424 125 1
8424 926 1
8424 3490 1
8424 3716 1
8425 3 1
8425 832 1
8425 1260 1
8425 5188 1
8426 229 1
8426 1274 1
8426 1797 1
8426 4517 1
8427 213 1
8427 326 1
8427 2262 1
8427 5741 1
8428 60 1
8428 2690 1
8428 3904 1
8428 5139 1
8429 26 1
8429 66 1
8429 362 1
8429 6109 1
8430 31 1
8430 454 1
8430 2194 1
8430 6355 1
8430 9543 1
8431 121 1
8431 3361 1
8431 6715 1
8431 7942 1
8431 8468 1
8432 68 1
8432 625 1
8432 4031 1
8432 6297 1
8433 11 1
8433 1200 1
8433 2475 1
8433 5610 1
8434 1130 1
8434 1259 1
8434 2365 1
8434 5881 1
8435 102 1
8435 690 1
8435 5898 1
8435 7903 1
8435 9494 1
8436 5529 1
8436 6319 1
8436 7236 1
8436 8342 1
8436 8533 1
8437 1758 1
8437 4570 1
8437 5746 1
8437 6432 1
8438 109 1
8438 134 1
8438 6837 1
8438 7616 1
8439 610 1
8439 783 1
8439 3883 1
8439 4173 1
8440 17 1
8440 48 1
8440 2718 1
8440 7784 1
8441 760 1
8441 1706 1
8441 2037 1
8441 2496 1
8442 26 1
8442 79 1
8442 839 1
8442 1453 1
8443 94 1
8443 1371 1
8443 3504 1
8443 7760 1
8443 8831 1
8443 9242 1
8444 1350 1
8444 1869 1
8444 3506 1
8444 3603 1
8445 2385 1
8445 2993 1
8445 6708 1
8445 7698 1
8446 2856 1
8446 5485 1
8446 6188 1
8446 7317 1
8446 8830 1
8447 12 1
8447 691 1
8447 6076 1
8447 6513 1
8447 9950 1
8448 360 1
8448 4351 1
8448 5258 1
8448 7879 1
8448 9415 1
8449 493 1
8449 2507 1
8449 6346 1
8449 6843 1
8450 2 1
8450 888 1
8450 3032 1
8450 8261 1
8450 9250 1
8451 30 1
8451 2060 1
8451 5206 1
8451 5425 1
8452 1737 1
8452 1792 1
8452 2156 1
8452 4125 1
8453 448 1
8453 671 1
8453 1281 1
8453 4177 1
8454 691 1
8454 1081 1
8454 1210 1
8454 3602 1
8455 855 1
8455 978 1
8455 2456 1
8455 6393 1
8456 49 1
8456 2000 1
8456 3068 1
8456 5975 1
8457 14 1
8457 717 1
8457 2486 1
8457 4945 1
8458 178 1
8458 527 1
8458 2144 1
8458 7263 1
8459 766 1
8459 1438 1
8459 3634 1
8459 7047 1
8460 147 1
8460 1569 1
8460 1910 1
8460 7026 1
8460 8470 1
8461 476 1
8461 1566 1
8461 2909 1
8461 4422 1
8462 335 1
8462 1139 1
8462 2308 1
8462 7692 1
8463 6 1
8463 380 1
8463 6283 1
8463 6708 1
8464 10 1
8464 421 1
8464 3965 1
8464 5386 1
8465 102 1
8465 400 1
8465 5652 1
8465 6386 1
8465 9501 1
8466 1980 1
8466 2853 1
8466 3188 1
8466 4912 1
8467 87 1
8467 2037 1
8467 3856 1
8467 5296 1
8467 8905 1
8467 9273 1
8468 281 1
8468 2126 1
8468 3109 1
8468 8431 1
8469 14 1
8469 1104 1
8469 1403 1
8469 5218 1
8469 8788 1
8470 259 1
8470 2263 1
8470 5120 1
8470 8460 1
8471 170 1
8471 301 1
8471 2876 1
8471 4643 1
8471 9050 1
8472 57 1
8472 385 1
8472 425 1
8472 4683 1
8472 9609 1
8473 63 1
8473 3567 1
8473 6713 1
8473 7239 1
8474 20 1
8474 606 1
8474 3529 1
8474 3929 1
8475 29 1
8475 688 1
8475 2524 1
8475 3512 1
8475 8690 1
8475 8843 1
8476 452 1
8476 3163 1
8476 4183 1
8476 7188 1
8476 8666 1
8476 8772 1
8477 403 1
8477 760 1
8477 4078 1
8477 6236 1
8478 744 1
8478 948 1
8478 4487 1
8478 6474 1
8479 142 1
8479 2000 1
8479 4673 1
8479 7313 1
8480 62 1
8480 481 1
8480 947 1
8480 6298 1
8480 9283 1
8481 149 1
8481 865 1
8481 4504 1
8481 4796 1
8482 1 1
8482 2606 1
8482 5977 1
8482 6694 1
8483 143 1
8483 277 1
8483 1609 1
8483 2089 1
8484 921 1
8484 989 1
8484 2621 1
8484 7013 1
8485 75 1
8485 290 1
8485 2747 1
8485 4422 1
8486 2948 1
8486 7641 1
8486 7937 1
8486 8068 1
8487 968 1
8487 2620 1
8487 6350 1
8487 6783 1
8487 9586 1
8488 6 1
8488 31 1
8488 1010 1
8488 6236 1
8488 9778 1
8489 1277 1
8489 2274 1
8489 3002 1
8489 6784 1
8489 8638 1
8489 9425 1
8490 1047 1
8490 2163 1
8490 3145 1
8490 7487 1
8491 233 1
8491 871 1
8491 2570 1
8491 6848 1
8492 668 1
8492 852 1
8492 5214 1
8492 5986 1
8492 8869 1
8493 928 1
8493 2330 1
8493 2913 1
8493 7739 1
8494 1235 1
8494 1259 1
8494 2709 1
8494 8066 1
8495 19 1
8495 90 1
8495 4585 1
8495 6042 1
8496 12 1
8496 271 1
8496 1352 1
8496 2505 1
8497 546 1
8497 672 1
8497 4561 1
8497 5279 1
8498 2223 1
8498 3558 1
8498 5675 1
8498 6256 1
8499 1550 1
8499 2257 1
8499 4012 1
8499 8320 1
8500 188 1
8500 1223 1
8500 6324 1
8500 7862 1
8501 2697 1
8501 3338 1
8501 3685 1
8501 5409 1
8502 259 1
8502 611 1
8502 3472 1
8502 7352 1
8503 37 1
8503 819 1
8503 5807 1
8503 6283 1
8503 8636 1
8504 9 1
8504 1749 1
8504 2930 1
8504 3433 1
8505 115 1
8505 199 1
8505 1812 1
8505 7360 1
8505 9366 1
8506 145 1
8506 824 1
8506 7545 1
8506 8282 1
8507 177 1
8507 1777 1
8507 2075 1
8507 7118 1
8508 21 1
8508 580 1
8508 2119 1
8508 7773 1
8509 72 1
8509 1830 1
8509 4058 1
8509 8142 1
8510 564 1
8510 609 1
8510 2444 1
8510 3881 1
8511 365 1
8511 659 1
8511 6094 1
8511 8149 1
8512 464 1
8512 1129 1
8512 5225 1
8512 6835 1
8513 303 1
8513 483 1
8513 764 1
8513 4735 1
8514 1417 1
8514 2825 1
8514 3315 1
8514 6447 1
8514 8738 1
8515 260 1
8515 3870 1
8515 4549 1
8515 5863 1
8516 97 1
8516 1287 1
8516 3323 1
8516 3868 1
8517 166 1
8517 427 1
8517 1552 1
8517 2779 1
8517 9530 1
8518 11 1
8518 120 1
8518 1799 1
8518 7174 1
8518 9624 1
8519 477 1
8519 3234 1
8519 5994 1
8519 7678 1
8519 9317 1
8520 1802 1
8520 3320 1
8520 3807 1
8520 7666 1
8521 198 1
8521 280 1
8521 3410 1
8521 4711 1
8522 254 1
8522 1262 1
8522 3446 1
8522 7534 1
8523 65 1
8523 390 1
8523 1245 1
8523 2868 1
8524 455 1
8524 484 1
8524 745 1
8524 4192 1
8525 866 1
8525 2538 1
8525 5047 1
8525 7619 1
8525 9587 1
8525 9797 1
8526 116 1
8526 875 1
8526 958 1
8526 2452 1
8526 9922 1
8527 2433 1
8527 2935 1
8527 7607 1
8527 8412 1
8528 10 1
8528 188 1
8528 481 1
8528 1251 1
8529 95 1
8529 3467 1
8529 4260 1
8529 5457 1
8530 184 1
8530 2684 1
8530 3603 1
8530 4457 1
8531 255 1
8531 465 1
8531 1227 1
8531 6610 1
8532 726 1
8532 2463 1
8532 3455 1
8532 8040 1
8532 9097 1
8532 9893 1
8533 516 1
8533 1864 1
8533 2034 1
8533 8436 1
8534 10 1
8534 555 1
8534 699 1
8534 3557 1
8534 8797 1
8535 181 1
8535 5283 1
8535 5904 1
8535 7323 1
8536 1596 1
8536 2555 1
8536 3598 1
8536 7723 1
8537 130 1
8537 1602 1
8537 1604 1
8537 3065 1
8538 4 1
8538 5399 1
8538 6781 1
8538 6931 1
8539 40 1
8539 2161 1
8539 3904 1
8539 5570 1
8540 589 1
8540 596 1
8540 5041 1
8540 5256 1
8541 373 1
8541 4073 1
8541 4369 1
8541 5871 1
8542 138 1
8542 2713 1
8542 3265 1
8542 4648 1
8543 136 1
8543 1697 1
8543 2212 1
8543 2532 1
8544 51 1
8544 711 1
8544 2798 1
8544 4588 1
8545 8 1
8545 2410 1
8545 4614 1
8545 7807 1
8546 1092 1
8546 2666 1
8546 3647 1
8546 8321 1
8547 630 1
8547 2089 1
8547 4763 1
8547 6158 1
8548 282 1
8548 615 1
8548 4938 1
8548 7776 1
8549 4714 1
8549 6389 1
8549 7688 1
8549 7795 1
8550 348 1
8550 4488 1
8550 4964 1
8550 7836 1
8551 156 1
8551 922 1
8551 2149 1
8551 8166 1
8552 34 1
8552 2382 1
8552 2613 1
8552 4524 1
8553 282 1
8553 858 1
8553 1837 1
8553 2177 1
8554 8 1
8554 2318 1
8554 6297 1
8554 7673 1
8554 8565 1
8555 303 1
8555 1306 1
8555 2773 1
8555 4823 1
8556 435 1
8556 690 1
8556 4074 1
8556 7121 1
8556 9617 1
8557 66 1
8557 193 1
8557 2765 1
8557 4643 1
8558 58 1
8558 59 1
8558 864 1
8558 5215 1
8558 9008 1
8559 122 1
8559 410 1
8559 5932 1
8559 7109 1
8559 8878 1
8560 20 1
8560 1132 1
8560 3978 1
8560 7155 1
8561 1001 1
8561 2618 1
8561 2724 1
8561 4072 1
8562 6 1
8562 193 1
8562 455 1
8562 3181 1
8563 281 1
8563 3296 1
8563 4493 1
8563 6041 1
8564 17 1
8564 668 1
8564 5302 1
8564 6538 1
8565 79 1
8565 1222 1
8565 1821 1
8565 8554 1
8566 6 1
8566 420 1
8566 2410 1
8566 3836 1
8567 398 1
8567 555 1
8567 1505 1
8567 6188 1
8568 118 1
8568 2399 1
8568 4060 1
8568 7802 1
8569 31 1
8569 4662 1
8569 6287 1
8569 6453 1
8570 130 1
8570 160 1
8570 4155 1
8570 4535 1
8571 244 1
8571 400 1
8571 3750 1
8571 6893 1
8571 9320 1
8572 274 1
8572 1126 1
8572 1471 1
8572 3387 1
8572 9637 1
8573 244 1
8573 886 1
8573 1279 1
8573 3059 1
8573 9536 1
8574 853 1
8574 6888 1
8574 7023 1
8574 7286 1
8574 9855 1
8575 10 1
8575 1688 1
8575 1781 1
8575 7325 1
8576 312 1
8576 4148 1
8576 7280 1
8576 7880 1
8576 9588 1
8577 425 1
8577 2974 1
8577 7922 1
8577 7960 1
8578 9 1
8578 2957 1
8578 6780 1
8578 7935 1
8579 43 1
8579 63 1
8579 4769 1
8579 5778 1
8579 9422 1
8580 418 1
8580 605 1
8580 2068 1
8580 7788 1
8581 3 1
8581 58 1
8581 431 1
8581 1757 1
8582 174 1
8582 601 1
8582 1284 1
8582 7770 1
8583 2386 1
8583 4639 1
8583 4839 1
8583 5247 1
8584 93 1
8584 2583 1
8584 5100 1
8584 5830 1
8585 21 1
8585 212 1
8585 392 1
8585 4338 1
8586 581 1
8586 845 1
8586 4429 1
8586 7196 1
8587 711 1
8587 1846 1
8587 4288 1
8587 6701 1
8587 9367 1
8587 9817 1
8588 109 1
8588 224 1
8588 284 1
8588 5499 1
8589 29 1
8589 1191 1
8589 4145 1
8589 4425 1
8589 9503 1
8590 1493 1
8590 3983 1
8590 5405 1
8590 8369 1
8591 1889 1
8591 2478 1
8591 5283 1
8591 5922 1
8592 149 1
8592 188 1
8592 6067 1
8592 8318 1
8593 1339 1
8593 1439 1
8593 2231 1
8593 6951 1
8593 9401 1
8594 263 1
8594 2007 1
8594 2621 1
8594 2967 1
8594 9977 1
8595 690 1
8595 3101 1
8595 4898 1
8595 6514 1
8595 8837 1
8595 9854 1
8596 1001 1
8596 2694 1
8596 2829 1
8596 4132 1
8597 57 1
8597 1227 1
8597 2089 1
8597 4236 1
8597 9472 1
8598 140 1
8598 188 1
8598 4917 1
8598 5178 1
8598 8936 1
8599 65 1
8599 2604 1
8599 5824 1
8599 5996 1
8600 6 1
8600 140 1
8600 1495 1
8600 3949 1
8600 9916 1
8601 1082 1
8601 1658 1
8601 3158 1
8601 5562 1
8602 48 1
8602 1335 1
8602 1724 1
8602 6398 1
8603 29 1
8603 1445 1
8603 3059 1
8603 6350 1
8604 515 1
8604 583 1
8604 2685 1
8604 7871 1
8605 295 1
8605 3620 1
8605 4989 1
8605 7957 1
8606 1358 1
8606 2549 1
8606 2648 1
8606 5742 1
8607 15 1
8607 121 1
8607 177 1
8607 2305 1
8608 772 1
8608 2016 1
8608 3467 1
8608 6988 1
8609 10 1
8609 2580 1
8609 7077 1
8609 7391 1
8610 665 1
8610 972 1
8610 1548 1
8610 6564 1
8610 9995 1
8611 19 1
8611 21 1
8611 30 1
8611 2161 1
8612 63 1
8612 189 1
8612 2016 1
8612 7892 1
8612 8882 1
8613 3 1
8613 228 1
8613 678 1
8613 743 1
8614 1248 1
8614 1659 1
8614 5886 1
8614 7286 1
8615 1672 1
8615 3392 1
8615 5344 1
8615 8184 1
8616 3723 1
8616 5961 1
8616 6516 1
8616 6871 1
8617 288 1
8617 3582 1
8617 4045 1
8617 6849 1
8618 20 1
8618 817 1
8618 4288 1
8618 5342 1
8619 4 1
8619 12 1
8619 5566 1
8619 5865 1
8620 343 1
8620 462 1
8620 3851 1
8620 7104 1
8621 247 1
8621 1114 1
8621 4140 1
8621 6446 1
8622 10 1
8622 26 1
8622 1042 1
8622 8296 1
8623 635 1
8623 668 1
8623 7105 1
8623 7673 1
8623 9607 1
8624 213 1
8624 1300 1
8624 3316 1
8624 5615 1
8625 16 1
8625 17 1
8625 2425 1
8625 3855 1
8626 265 1
8626 1772 1
8626 5990 1
8626 7726 1
8627 1261 1
8627 4977 1
8627 6493 1
8627 6708 1
8628 2143 1
8628 4407 1
8628 7333 1
8628 8386 1
8628 8904 1
8629 323 1
8629 813 1
8629 1757 1
8629 4371 1
8630 42 1
8630 5525 1
8630 6538 1
8630 6877 1
8631 1221 1
8631 1735 1
8631 2315 1
8631 5935 1
8632 23 1
8632 2132 1
8632 2549 1
8632 7626 1
8632 9124 1
8633 182 1
8633 1798 1
8633 1970 1
8633 8185 1
8634 60 1
8634 95 1
8634 429 1
8634 6481 1
8634 8661 1
8635 340 1
8635 2522 1
8635 2940 1
8635 3053 1
8636 308 1
8636 729 1
8636 1842 1
8636 8503 1
8637 2128 1
8637 2319 1
8637 2420 1
8637 8180 1
8637 9086 1
8638 769 1
8638 838 1
8638 3572 1
8638 8489 1
8639 1671 1
8639 2425 1
8639 2963 1
8639 4331 1
8639 9577 1
8640 1503 1
8640 2724 1
8640 3568 1
8640 6697 1
8641 212 1
8641 7469 1
8641 7628 1
8641 8371 1
8641 9146 1
8642 76 1
8642 1789 1
8642 5465 1
8642 6184 1
8643 447 1
8643 4365 1
8643 5723 1
8643 8120 1
8644 900 1
8644 1188 1
8644 3512 1
8644 7207 1
8644 9144 1
8644 9917 1
8645 9 1
8645 94 1
8645 5631 1
8645 7827 1
8645 8913 1
8645 9108 1
8646 87 1
8646 148 1
8646 1616 1
8646 7969 1
8647 17 1
8647 96 1
8647 2435 1
8647 3587 1
8647 9660 1
8648 233 1
8648 905 1
8648 1215 1
8648 3318 1
8649 261 1
8649 1524 1
8649 3163 1
8649 7079 1
8650 553 1
8650 2207 1
8650 4946 1
8650 8141 1
8651 59 1
8651 434 1
8651 3575 1
8651 7906 1
8652 56 1
8652 461 1
8652 3323 1
8652 5923 1
8653 597 1
8653 3123 1
8653 4050 1
8653 4578 1
8654 165 1
8654 1611 1
8654 1963 1
8654 3358 1
8654 8927 1
8655 388 1
8655 1797 1
8655 5786 1
8655 8345 1
8656 4 1
8656 2993 1
8656 4573 1
8656 7386 1
8656 8973 1
8657 15 1
8657 1246 1
8657 4419 1
8657 5785 1
8658 57 1
8658 3623 1
8658 3765 1
8658 4146 1
8658 8997 1
8659 137 1
8659 606 1
8659 6188 1
8659 6539 1
8659 8889 1
8660 6 1
8660 780 1
8660 7724 1
8660 7758 1
8660 8820 1
8661 82 1
8661 527 1
8661 7813 1
8661 8634 1
8662 14 1
8662 116 1
8662 338 1
8662 1837 1
8663 2139 1
8663 4588 1
8663 5676 1
8663 5782 1
8664 1456 1
8664 2486 1
8664 2739 1
8664 5311 1
8664 9372 1
8664 9569 1
8665 384 1
8665 781 1
8665 2616 1
8665 6737 1
8666 987 1
8666 2958 1
8666 4368 1
8666 8476 1
8667 40 1
8667 2157 1
8667 4809 1
8667 4989 1
8668 188 1
8668 745 1
8668 994 1
8668 7637 1
8669 3936 1
8669 5140 1
8669 5460 1
8669 5674 1
8669 9007 1
8670 245 1
8670 320 1
8670 1059 1
8670 4847 1
8670 9899 1
8671 728 1
8671 1634 1
8671 2343 1
8671 2532 1
8672 185 1
8672 426 1
8672 461 1
8672 5344 1
8673 832 1
8673 867 1
8673 1175 1
8673 6025 1
8674 1040 1
8674 3581 1
8674 4018 1
8674 4030 1
8675 63 1
8675 417 1
8675 2414 1
8675 6898 1
8676 109 1
8676 1018 1
8676 1339 1
8676 4818 1
8677 142 1
8677 1758 1
8677 5613 1
8677 7121 1
8678 1325 1
8678 2250 1
8678 3614 1
8678 7871 1
8678 9127 1
8679 51 1
8679 1262 1
8679 2187 1
8679 5807 1
8680 1988 1
8680 5121 1
8680 5245 1
8680 5961 1
8680 9494 1
8681 31 1
8681 2912 1
8681 5772 1
8681 8352 1
8682 517 1
8682 1749 1
8682 3207 1
8682 6174 1
8683 6 1
8683 1289 1
8683 5228 1
8683 7911 1
8684 2283 1
8684 2694 1
8684 5030 1
8684 5372 1
8684 9132 1
8685 58 1
8685 219 1
8685 893 1
8685 8015 1
8686 6 1
8686 1858 1
8686 2528 1
8686 5554 1
8687 270 1
8687 286 1
8687 1901 1
8687 4154 1
8688 1259 1
8688 2752 1
8688 2870 1
8688 4662 1
8689 572 1
8689 1604 1
8689 3039 1
8689 6612 1
8690 28 1
8690 55 1
8690 361 1
8690 8475 1
8691 1 1
8691 3906 1
8691 4260 1
8691 4392 1
8692 267 1
8692 435 1
8692 6293 1
8692 6773 1
8692 9847 1
8693 14 1
8693 16 1
8693 1536 1
8693 3366 1
8694 1248 1
8694 2103 1
8694 5093 1
8694 7102 1
8695 945 1
8695 2095 1
8695 2517 1
8695 5855 1
8696 1156 1
8696 3039 1
8696 7558 1
8696 8045 1
8697 2323 1
8697 3981 1
8697 5644 1
8697 7527 1
8698 808 1
8698 1506 1
8698 2723 1
8698 5241 1
8699 470 1
8699 668 1
8699 1294 1
8699 4126 1
8700 91 1
8700 2573 1
8700 3116 1
8700 4963 1
8701 151 1
8701 428 1
8701 5222 1
8701 8300 1
8702 49 1
8702 1348 1
8702 2815 1
8702 8354 1
8702 8968 1
8702 9262 1
8702 9419 1
8703 627 1
8703 2484 1
8703 2910 1
8703 5776 1
8703 9852 1
8704 12 1
8704 971 1
8704 3028 1
8704 5984 1
8705 17 1
8705 504 1
8705 7430 1
8705 7555 1
8706 79 1
8706 2398 1
8706 3559 1
8706 4651 1
8707 506 1
8707 1010 1
8707 1481 1
8707 2282 1
8708 3 1
8708 2591 1
8708 5709 1
8708 6036 1
8709 58 1
8709 277 1
8709 2795 1
8709 3280 1
8710 122 1
8710 397 1
8710 3654 1
8710 3909 1
8711 7 1
8711 3715 1
8711 3978 1
8711 4805 1
8712 123 1
8712 819 1
8712 2080 1
8712 5956 1
8712 9691 1
8713 26 1
8713 120 1
8713 538 1
8713 1974 1
8714 345 1
8714 3041 1
8714 3190 1
8714 3929 1
8715 17 1
8715 43 1
8715 874 1
8715 7476 1
8716 6 1
8716 1587 1
8716 3936 1
8716 6324 1
8716 8883 1
8717 158 1
8717 273 1
8717 2029 1
8717 8380 1
8718 1851 1
8718 4589 1
8718 6084 1
8718 6367 1
8719 477 1
8719 1975 1
8719 3079 1
8719 6624 1
8720 325 1
8720 1421 1
8720 1552 1
8720 1791 1
8720 9180 1
8721 1 1
8721 656 1
8721 845 1
8721 1784 1
8722 3 1
8722 120 1
8722 3506 1
8722 5598 1
8723 690 1
8723 703 1
8723 867 1
8723 7208 1
8723 9589 1
8724 832 1
8724 2041 1
8724 4535 1
8724 6152 1
8725 1009 1
8725 1031 1
8725 1647 1
8725 5480 1
8726 597 1
8726 3837 1
8726 4123 1
8726 5653 1
8727 4697 1
8727 5699 1
8727 6188 1
8727 7560 1
8728 56 1
8728 6708 1
8728 7185 1
8728 8325 1
8728 8817 1
8729 1048 1
8729 3741 1
8729 5603 1
8729 8357 1
8729 8755 1
8730 375 1
8730 5598 1
8730 6283 1
8730 8146 1
8731 59 1
8731 142 1
8731 985 1
8731 5364 1
8732 23 1
8732 528 1
8732 1915 1
8732 1970 1
8733 1541 1
8733 6290 1
8733 7770 1
8733 8301 1
8734 6 1
8734 205 1
8734 698 1
8734 713 1
8735 6 1
8735 455 1
8735 822 1
8735 5615 1
8736 12 1
8736 145 1
8736 251 1
8736 2507 1
8737 182 1
8737 1485 1
8737 1768 1
8737 6498 1
8738 676 1
8738 690 1
8738 2609 1
8738 8514 1
8738 8814 1
8739 96 1
8739 714 1
8739 1827 1
8739 6309 1
8740 458 1
8740 1988 1
8740 3780 1
8740 7300 1
8741 1187 1
8741 1638 1
8741 3672 1
8741 5199 1
8742 43 1
8742 339 1
8742 1745 1
8742 1824 1
8742 9605 1
8743 171 1
8743 1085 1
8743 3039 1
8743 4012 1
8744 341 1
8744 734 1
8744 4601 1
8744 4651 1
8745 294 1
8745 425 1
8745 1139 1
8745 4224 1
8746 65 1
8746 737 1
8746 1513 1
8746 1895 1
8747 2388 1
8747 2428 1
8747 2767 1
8747 4050 1
8748 9 1
8748 1959 1
8748 3395 1
8748 7612 1
8749 812 1
8749 909 1
8749 2175 1
8749 6191 1
8749 9108 1
8750 40 1
8750 719 1
8750 5172 1
8750 5871 1
8750 9947 1
8751 220 1
8751 1894 1
8751 2910 1
8751 7748 1
8752 160 1
8752 445 1
8752 675 1
8752 7941 1
8753 11 1
8753 1281 1
8753 3735 1
8753 7298 1
8754 89 1
8754 6938 1
8754 7161 1
8754 7676 1
8755 699 1
8755 3280 1
8755 3325 1
8755 8729 1
8756 82 1
8756 2210 1
8756 3636 1
8756 6953 1
8756 9232 1
8757 3113 1
8757 4537 1
8757 5310 1
8757 7093 1
8758 59 1
8758 180 1
8758 5466 1
8758 6480 1
8759 978 1
8759 1777 1
8759 4481 1
8759 8041 1
8760 2022 1
8760 2941 1
8760 3216 1
8760 6216 1
8761 148 1
8761 468 1
8761 1785 1
8761 6878 1
8761 9465 1
8762 8 1
8762 213 1
8762 2084 1
8762 4332 1
8763 12 1
8763 570 1
8763 3659 1
8763 5691 1
8764 312 1
8764 1025 1
8764 1634 1
8764 2770 1
8765 14 1
8765 1103 1
8765 1757 1
8765 5181 1
8766 78 1
8766 1792 1
8766 4760 1
8766 6893 1
8767 1 1
8767 157 1
8767 828 1
8767 3672 1
8768 14 1
8768 1839 1
8768 6284 1
8768 7729 1
8769 2283 1
8769 3397 1
8769 7234 1
8769 7945 1
8770 568 1
8770 3212 1
8770 4261 1
8770 5612 1
8770 9936 1
8771 338 1
8771 1193 1
8771 3386 1
8771 3539 1
8772 2032 1
8772 2212 1
8772 2866 1
8772 8476 1
8773 1178 1
8773 1768 1
8773 4818 1
8773 5948 1
8774 436 1
8774 3044 1
8774 4393 1
8774 7335 1
8775 445 1
8775 2395 1
8775 5386 1
8775 7560 1
8776 68 1
8776 132 1
8776 709 1
8776 5458 1
8776 9680 1
8777 79 1
8777 3699 1
8777 5144 1
8777 7133 1
8778 8 1
8778 2767 1
8778 4230 1
8778 6526 1
8779 137 1
8779 1593 1
8779 2263 1
8779 6358 1
8780 1307 1
8780 1715 1
8780 7621 1
8780 7929 1
8781 2498 1
8781 3286 1
8781 3891 1
8781 8369 1
8782 1271 1
8782 2910 1
8782 3723 1
8782 4286 1
8782 8982 1
8783 1860 1
8783 3766 1
8783 4488 1
8783 7672 1
8783 8938 1
8784 311 1
8784 325 1
8784 5874 1
8784 7197 1
8785 42 1
8785 1054 1
8785 2426 1
8785 6089 1
8786 91 1
8786 253 1
8786 1329 1
8786 5348 1
8787 3 1
8787 1969 1
8787 3431 1
8787 7850 1
8788 91 1
8788 523 1
8788 7656 1
8788 8469 1
8789 829 1
8789 2255 1
8789 3248 1
8789 5477 1
8790 659 1
8790 983 1
8790 1050 1
8790 4089 1
8790 8854 1
8790 8864 1
8790 8866 1
8791 248 1
8791 917 1
8791 1132 1
8791 2957 1
8792 390 1
8792 4045 1
8792 4657 1
8792 6598 1
8793 307 1
8793 2134 1
8793 5764 1
8793 7504 1
8794 109 1
8794 2519 1
8794 6191 1
8794 6369 1
8795 1253 1
8795 1663 1
8795 1856 1
8795 5209 1
8795 9420 1
8796 11 1
8796 1143 1
8796 2909 1
8796 7259 1
8797 2443 1
8797 2621 1
8797 2992 1
8797 8534 1
8798 65 1
8798 418 1
8798 1048 1
8798 1177 1
8798 9928 1
8799 388 1
8799 2219 1
8799 5786 1
8799 6163 1
8800 1088 1
8800 2708 1
8800 4085 1
8800 8144 1
8801 2743 1
8801 3651 1
8801 3846 1
8801 6176 1
8802 37 1
8802 974 1
8802 2992 1
8802 8389 1
8803 121 1
8803 525 1
8803 651 1
8803 765 1
8804 6 1
8804 300 1
8804 3710 1
8804 7641 1
8805 5 1
8805 323 1
8805 2408 1
8805 4279 1
8806 137 1
8806 1446 1
8806 1762 1
8806 2859 1
8806 9894 1
8807 397 1
8807 1759 1
8807 2159 1
8807 2323 1
8808 51 1
8808 615 1
8808 5612 1
8808 6469 1
8809 543 1
8809 3145 1
8809 4685 1
8809 8063 1
8810 9 1
8810 120 1
8810 5603 1
8810 7971 1
8811 57 1
8811 117 1
8811 393 1
8811 4972 1
8812 104 1
8812 611 1
8812 7820 1
8812 8281 1
8813 120 1
8813 1768 1
8813 4049 1
8813 7763 1
8814 17 1
8814 690 1
8814 1827 1
8814 8738 1
8815 6 1
8815 993 1
8815 1921 1
8815 7260 1
8816 555 1
8816 1180 1
8816 2139 1
8816 7138 1
8817 48 1
8817 324 1
8817 1634 1
8817 8728 1
8817 8922 1
8818 894 1
8818 3008 1
8818 4554 1
8818 8403 1
8818 9552 1
8819 2514 1
8819 7011 1
8819 7561 1
8819 8094 1
8820 4262 1
8820 5327 1
8820 7424 1
8820 8660 1
8821 96 1
8821 1259 1
8821 1975 1
8821 7475 1
8822 651 1
8822 748 1
8822 4938 1
8822 6428 1
8823 358 1
8823 1048 1
8823 2925 1
8823 5092 1
8824 200 1
8824 456 1
8824 1022 1
8824 7504 1
8824 9328 1
8825 180 1
8825 774 1
8825 1921 1
8825 3986 1
8826 257 1
8826 1078 1
8826 1138 1
8826 5897 1
8826 9031 1
8826 9461 1
8827 833 1
8827 1531 1
8827 2375 1
8827 5455 1
8828 43 1
8828 222 1
8828 1988 1
8828 3888 1
8829 112 1
8829 142 1
8829 2323 1
8829 7663 1
8830 459 1
8830 1832 1
8830 3824 1
8830 8446 1
8831 262 1
8831 4806 1
8831 8209 1
8831 8443 1
8832 481 1
8832 851 1
8832 5063 1
8832 7430 1
8833 1278 1
8833 1289 1
8833 4972 1
8833 7493 1
8834 23 1
8834 719 1
8834 6188 1
8834 7237 1
8835 479 1
8835 829 1
8835 4524 1
8835 8367 1
8836 1134 1
8836 1258 1
8836 3576 1
8836 6741 1
8836 8921 1
8837 694 1
8837 6702 1
8837 7784 1
8837 8595 1
8838 956 1
8838 1905 1
8838 2365 1
8838 7895 1
8839 934 1
8839 2056 1
8839 5755 1
8839 5955 1
8840 147 1
8840 857 1
8840 2211 1
8840 5816 1
8841 11 1
8841 220 1
8841 229 1
8841 6350 1
8841 9642 1
8842 5027 1
8842 7153 1
8842 7463 1
8842 8203 1
8843 139 1
8843 304 1
8843 1179 1
8843 8475 1
8844 49 1
8844 4124 1
8844 7300 1
8844 7502 1
8845 542 1
8845 1007 1
8845 2592 1
8845 6975 1
8846 117 1
8846 695 1
8846 1933 1
8846 3949 1
8846 9359 1
8846 9438 1
8847 226 1
8847 839 1
8847 927 1
8847 2309 1
8848 274 1
8848 753 1
8848 2952 1
8848 7290 1
8849 22 1
8849 259 1
8849 5265 1
8849 6118 1
8850 20 1
8850 1069 1
8850 1583 1
8850 2720 1
8851 8 1
8851 123 1
8851 1842 1
8851 2687 1
8852 9 1
8852 2966 1
8852 3672 1
8852 5796 1
8853 3660 1
8853 6978 1
8853 7480 1
8853 7681 1
8853 9406 1
8854 31 1
8854 952 1
8854 2031 1
8854 8790 1
8855 110 1
8855 1057 1
8855 5456 1
8855 6778 1
8855 9225 1
8856 1585 1
8856 1943 1
8856 3173 1
8856 4422 1
8857 278 1
8857 411 1
8857 2235 1
8857 2639 1
8858 117 1
8858 184 1
8858 2639 1
8858 7339 1
8858 9800 1
8859 86 1
8859 124 1
8859 286 1
8859 5949 1
8860 1305 1
8860 1346 1
8860 2390 1
8860 6952 1
8861 421 1
8861 4082 1
8861 6761 1
8861 8161 1
8862 6 1
8862 97 1
8862 477 1
8862 1226 1
8863 1052 1
8863 4235 1
8863 5284 1
8863 8125 1
8864 188 1
8864 1480 1
8864 5885 1
8864 8790 1
8865 3641 1
8865 6329 1
8865 8178 1
8865 8390 1
8866 252 1
8866 4758 1
8866 5009 1
8866 8790 1
8867 718 1
8867 3257 1
8867 4728 1
8867 8122 1
8867 9591 1
8868 942 1
8868 3769 1
8868 5141 1
8868 6982 1
8868 8882 1
8868 9554 1
8868 9953 1
8869 123 1
8869 409 1
8869 1207 1
8869 8492 1
8870 13 1
8870 47 1
8870 2852 1
8870 8342 1
8871 6 1
8871 202 1
8871 1565 1
8871 5742 1
8872 57 1
8872 983 1
8872 3594 1
8872 5347 1
8872 9879 1
8873 17 1
8873 34 1
8873 2030 1
8873 3758 1
8873 9486 1
8874 3002 1
8874 3262 1
8874 6012 1
8874 7482 1
8875 32 1
8875 630 1
8875 1688 1
8875 7781 1
8876 269 1
8876 1248 1
8876 1438 1
8876 3762 1
8877 3297 1
8877 3785 1
8877 5876 1
8877 5962 1
8878 546 1
8878 4634 1
8878 6880 1
8878 8559 1
8879 476 1
8879 1507 1
8879 2815 1
8879 3246 1
8880 698 1
8880 1598 1
8880 2650 1
8880 6262 1
8881 55 1
8881 466 1
8881 7081 1
8881 7132 1
8882 7309 1
8882 8140 1
8882 8612 1
8882 8868 1
8883 259 1
8883 1337 1
8883 4772 1
8883 8716 1
8884 176 1
8884 826 1
8884 3269 1
8884 5274 1
8885 2069 1
8885 3027 1
8885 3163 1
8885 7410 1
8886 997 1
8886 3206 1
8886 5832 1
8886 6226 1
8887 3 1
8887 1154 1
8887 2230 1
8887 3193 1
8888 1107 1
8888 2237 1
8888 3025 1
8888 7544 1
8889 834 1
8889 1977 1
8889 5841 1
8889 8659 1
8890 501 1
8890 1905 1
8890 2738 1
8890 3234 1
8891 415 1
8891 759 1
8891 807 1
8891 8001 1
8892 537 1
8892 900 1
8892 1952 1
8892 2811 1
8893 72 1
8893 176 1
8893 555 1
8893 2387 1
8894 206 1
8894 432 1
8894 3957 1
8894 6741 1
8895 339 1
8895 507 1
8895 2731 1
8895 6262 1
8896 734 1
8896 1184 1
8896 4764 1
8896 7004 1
8897 341 1
8897 642 1
8897 737 1
8897 4893 1
8898 17 1
8898 589 1
8898 820 1
8898 7672 1
8899 1444 1
8899 1474 1
8899 2584 1
8899 3484 1
8900 1439 1
8900 3081 1
8900 4435 1
8900 8347 1
8901 105 1
8901 5435 1
8901 5851 1
8901 6033 1
8902 74 1
8902 1282 1
8902 3413 1
8902 7519 1
8903 996 1
8903 3364 1
8903 6581 1
8903 6842 1
8904 3462 1
8904 4719 1
8904 5927 1
8904 8628 1
8904 9099 1
8904 9258 1
8905 2069 1
8905 2931 1
8905 3318 1
8905 8467 1
8906 1092 1
8906 3560 1
8906 7104 1
8906 8087 1
8907 1275 1
8907 1856 1
8907 5803 1
8907 7747 1
8908 704 1
8908 854 1
8908 8226 1
8908 8352 1
8908 9296 1
8909 555 1
8909 6314 1
8909 6639 1
8909 7147 1
8909 9310 1
8909 9988 1
8910 562 1
8910 2118 1
8910 3596 1
8910 3983 1
8910 9512 1
8911 287 1
8911 2596 1
8911 3344 1
8911 5861 1
8911 9554 1
8912 233 1
8912 842 1
8912 4066 1
8912 8142 1
8913 3734 1
8913 4070 1
8913 4342 1
8913 8645 1
8914 124 1
8914 338 1
8914 5485 1
8914 8091 1
8915 4449 1
8915 4839 1
8915 6167 1
8915 6761 1
8916 513 1
8916 726 1
8916 1745 1
8916 7735 1
8917 105 1
8917 397 1
8917 1893 1
8917 4047 1
8918 238 1
8918 990 1
8918 1507 1
8918 5134 1
8918 9294 1
8919 4609 1
8919 5071 1
8919 7204 1
8919 8377 1
8920 283 1
8920 599 1
8920 1787 1
8920 7669 1
8921 1076 1
8921 1940 1
8921 2341 1
8921 8836 1
8922 618 1
8922 783 1
8922 1818 1
8922 8817 1
8922 9404 1
8923 14 1
8923 767 1
8923 3012 1
8923 5332 1
8923 8961 1
8923 9959 1
8924 10 1
8924 206 1
8924 1923 1
8924 2719 1
8924 9988 1
8925 531 1
8925 1476 1
8925 2244 1
8925 7741 1
8926 1602 1
8926 2779 1
8926 3418 1
8926 7870 1
8927 1076 1
8927 1600 1
8927 1945 1
8927 8654 1
8928 23 1
8928 97 1
8928 142 1
8928 1060 1
8929 17 1
8929 277 1
8929 515 1
8929 620 1
8930 12 1
8930 168 1
8930 368 1
8930 5837 1
8931 70 1
8931 1202 1
8931 2132 1
8931 6279 1
8931 9864 1
8932 1965 1
8932 3095 1
8932 3820 1
8932 3978 1
8933 1396 1
8933 1970 1
8933 2152 1
8933 2518 1
8933 9453 1
8934 220 1
8934 599 1
8934 674 1
8934 2624 1
8935 10 1
8935 373 1
8935 3560 1
8935 6178 1
8936 335 1
8936 2223 1
8936 3621 1
8936 8598 1
8937 216 1
8937 3848 1
8937 7001 1
8937 7600 1
8938 23 1
8938 1575 1
8938 2024 1
8938 8783 1
8939 475 1
8939 2055 1
8939 4083 1
8939 4331 1
8940 239 1
8940 1315 1
8940 2554 1
8940 3203 1
8941 423 1
8941 4296 1
8941 7106 1
8941 7590 1
8942 859 1
8942 1280 1
8942 3499 1
8942 4219 1
8943 2287 1
8943 4934 1
8943 5915 1
8943 6397 1
8944 325 1
8944 4159 1
8944 4691 1
8944 8097 1
8945 13 1
8945 2274 1
8945 3783 1
8945 5787 1
8945 9407 1
8946 238 1
8946 1309 1
8946 1350 1
8946 3006 1
8946 9203 1
8946 9365 1
8947 264 1
8947 632 1
8947 3187 1
8947 3794 1
8948 1627 1
8948 1987 1
8948 3724 1
8948 6581 1
8949 2284 1
8949 3813 1
8949 4704 1
8949 6158 1
8950 98 1
8950 759 1
8950 783 1
8950 1573 1
8951 394 1
8951 3178 1
8951 3535 1
8951 7549 1
8952 279 1
8952 2199 1
8952 2284 1
8952 5896 1
8953 1407 1
8953 3777 1
8953 6265 1
8953 8270 1
8954 212 1
8954 399 1
8954 6966 1
8954 7614 1
8955 281 1
8955 2986 1
8955 3163 1
8955 5469 1
8956 6 1
8956 72 1
8956 241 1
8956 8399 1
8956 9114 1
8956 9682 1
8957 1051 1
8957 4286 1
8957 6139 1
8957 6365 1
8958 250 1
8958 381 1
8958 1198 1
8958 2636 1
8958 9349 1
8959 545 1
8959 3930 1
8959 7566 1
8959 8306 1
8960 11 1
8960 715 1
8960 1478 1
8960 2119 1
8961 7 1
8961 3496 1
8961 7876 1
8961 8923 1
8962 219 1
8962 2013 1
8962 2624 1
8962 4471 1
8963 11 1
8963 570 1
8963 922 1
8963 8409 1
8964 2735 1
8964 3575 1
8964 4505 1
8964 7417 1
8965 6 1
8965 271 1
8965 2285 1
8965 2718 1
8965 9291 1
8966 12 1
8966 381 1
8966 1233 1
8966 1364 1
8967 120 1
8967 3442 1
8967 4816 1
8967 6192 1
8968 818 1
8968 1018 1
8968 2910 1
8968 8702 1
8969 29 1
8969 2392 1
8969 2940 1
8969 3624 1
8970 1003 1
8970 1607 1
8970 1757 1
8970 3707 1
8970 9908 1
8971 379 1
8971 671 1
8971 1800 1
8971 2026 1
8972 1470 1
8972 2374 1
8972 5838 1
8972 8185 1
8973 1260 1
8973 3634 1
8973 7446 1
8973 8656 1
8974 400 1
8974 512 1
8974 5168 1
8974 7453 1
8975 361 1
8975 1652 1
8975 2939 1
8975 5491 1
8976 12 1
8976 27 1
8976 4001 1
8976 5944 1
8977 1505 1
8977 4503 1
8977 4728 1
8977 8328 1
8978 911 1
8978 1004 1
8978 4382 1
8978 6868 1
8979 1143 1
8979 2856 1
8979 3280 1
8979 7248 1
8980 434 1
8980 539 1
8980 796 1
8980 889 1
8981 553 1
8981 812 1
8981 3987 1
8981 4170 1
8982 605 1
8982 690 1
8982 4247 1
8982 8782 1
8983 614 1
8983 1108 1
8983 4120 1
8983 6454 1
8984 16 1
8984 76 1
8984 552 1
8984 3249 1
8984 9601 1
8985 1 1
8985 4824 1
8985 6489 1
8985 6962 1
8986 48 1
8986 2695 1
8986 4476 1
8986 7735 1
8987 1 1
8987 1578 1
8987 2166 1
8987 2977 1
8988 11 1
8988 5240 1
8988 7532 1
8988 8215 1
8989 885 1
8989 939 1
8989 1251 1
8989 7817 1
8990 2405 1
8990 5128 1
8990 6234 1
8990 7964 1
8991 1372 1
8991 1929 1
8991 5271 1
8991 7108 1
8992 229 1
8992 1686 1
8992 3477 1
8992 5937 1
8993 17 1
8993 320 1
8993 4071 1
8993 5467 1
8994 172 1
8994 502 1
8994 1884 1
8994 2693 1
8995 63 1
8995 188 1
8995 3399 1
8995 5598 1
8996 2197 1
8996 4298 1
8996 5083 1
8996 6334 1
8997 655 1
8997 4036 1
8997 5434 1
8997 8658 1
8998 6 1
8998 577 1
8998 5159 1
8998 7094 1
8999 369 1
8999 1964 1
8999 2424 1
8999 2615 1
9000 270 1
9000 830 1
9000 1758 1
9000 7896 1
9001 3425 1
9001 3505 1
9001 3747 1
9001 6424 1
9001 9447 1
9002 134 1
9002 266 1
9002 3235 1
9002 5913 1
9002 9058 1
9003 2 1
9003 931 1
9003 3081 1
9003 5551 1
9004 1853 1
9004 2029 1
9004 2144 1
9004 5747 1
9005 76 1
9005 505 1
9005 560 1
9005 2507 1
9005 9166 1
9006 2960 1
9006 4609 1
9006 6640 1
9006 7947 1
9007 8 1
9007 2382 1
9007 6130 1
9007 8669 1
9008 26 1
9008 517 1
9008 6443 1
9008 8558 1
9009 1878 1
9009 2812 1
9009 7603 1
9009 7761 1
9010 1085 1
9010 1602 1
9010 3790 1
9010 4560 1
9011 844 1
9011 1176 1
9011 2058 1
9011 4537 1
9011 9443 1
9012 71 1
9012 1406 1
9012 1970 1
9012 3559 1
9012 9424 1
9013 193 1
9013 3262 1
9013 5474 1
9013 6873 1
9013 9684 1
9014 17 1
9014 57 1
9014 1302 1
9014 5116 1
9015 559 1
9015 972 1
9015 2052 1
9015 6916 1
9016 2673 1
9016 3194 1
9016 3572 1
9016 8288 1
9016 9538 1
9017 247 1
9017 655 1
9017 790 1
9017 4513 1
9018 88 1
9018 263 1
9018 388 1
9018 7751 1
9019 394 1
9019 2563 1
9019 5174 1
9019 6339 1
9020 1270 1
9020 2253 1
9020 6621 1
9020 7400 1
9021 16 1
9021 506 1
9021 4561 1
9021 7893 1
9021 9251 1
9021 9728 1
9022 1487 1
9022 3532 1
9022 3687 1
9022 4952 1
9023 48 1
9023 1584 1
9023 3365 1
9023 7856 1
9024 139 1
9024 3246 1
9024 4718 1
9024 4811 1
9025 1 1
9025 1958 1
9025 2679 1
9025 7776 1
9026 172 1
9026 256 1
9026 1284 1
9026 2683 1
9027 31 1
9027 864 1
9027 4034 1
9027 7872 1
9028 6 1
9028 10 1
9028 1624 1
9028 7079 1
9029 112 1
9029 415 1
9029 726 1
9029 6339 1
9030 194 1
9030 2953 1
9030 3715 1
9030 5498 1
9031 749 1
9031 1198 1
9031 4918 1
9031 8826 1
9032 298 1
9032 1194 1
9032 1666 1
9032 2093 1
9033 1253 1
9033 1552 1
9033 4619 1
9033 6968 1
9034 17 1
9034 615 1
9034 2839 1
9034 6897 1
9035 328 1
9035 1123 1
9035 5818 1
9035 6413 1
9035 9274 1
9036 2 1
9036 433 1
9036 5167 1
9036 7112 1
9037 1474 1
9037 1579 1
9037 2713 1
9037 5140 1
9038 39 1
9038 182 1
9038 3779 1
9038 8149 1
9039 179 1
9039 360 1
9039 2431 1
9039 3783 1
9040 199 1
9040 412 1
9040 1244 1
9040 6775 1
9040 9887 1
9041 112 1
9041 3757 1
9041 8226 1
9041 8343 1
9041 9699 1
9042 305 1
9042 308 1
9042 2075 1
9042 4007 1
9043 156 1
9043 1192 1
9043 7177 1
9043 7705 1
9043 9235 1
9043 9863 1
9044 5 1
9044 19 1
9044 480 1
9044 1558 1
9045 346 1
9045 3060 1
9045 3509 1
9045 8253 1
9046 81 1
9046 1495 1
9046 5378 1
9046 6008 1
9047 14 1
9047 44 1
9047 263 1
9047 1289 1
9047 9233 1
9047 9868 1
9048 13 1
9048 336 1
9048 2464 1
9048 2798 1
9048 9247 1
9048 9282 1
9049 1027 1
9049 1607 1
9049 4680 1
9049 8325 1
9050 220 1
9050 468 1
9050 7947 1
9050 8471 1
9051 19 1
9051 2300 1
9051 2900 1
9051 3949 1
9052 2 1
9052 498 1
9052 3769 1
9052 7393 1
9053 1160 1
9053 1815 1
9053 2507 1
9053 6415 1
9054 78 1
9054 271 1
9054 2318 1
9054 8311 1
9055 7 1
9055 1605 1
9055 3395 1
9055 6972 1
9056 73 1
9056 379 1
9056 944 1
9056 3867 1
9057 464 1
9057 1634 1
9057 1668 1
9057 3648 1
9058 1681 1
9058 2757 1
9058 5756 1
9058 9002 1
9059 2714 1
9059 3142 1
9059 3661 1
9059 4965 1
9060 1671 1
9060 2528 1
9060 3472 1
9060 4854 1
9060 9383 1
9061 576 1
9061 3437 1
9061 5202 1
9061 5223 1
9062 756 1
9062 800 1
9062 971 1
9062 1536 1
9063 62 1
9063 251 1
9063 1576 1
9063 5112 1
9064 380 1
9064 385 1
9064 1383 1
9064 1387 1
9065 183 1
9065 854 1
9065 5270 1
9065 6288 1
9065 9539 1
9066 1036 1
9066 1472 1
9066 2082 1
9066 4796 1
9067 115 1
9067 153 1
9067 182 1
9067 6084 1
9068 1000 1
9068 1381 1
9068 1501 1
9068 2535 1
9069 165 1
9069 1545 1
9069 1926 1
9069 3724 1
9070 538 1
9070 1062 1
9070 3188 1
9070 6922 1
9070 9126 1
9071 19 1
9071 227 1
9071 861 1
9071 6128 1
9072 83 1
9072 402 1
9072 603 1
9072 6781 1
9073 9 1
9073 920 1
9073 2208 1
9073 2810 1
9074 26 1
9074 2717 1
9074 4907 1
9074 5039 1
9075 2830 1
9075 3530 1
9075 5263 1
9075 6224 1
9076 97 1
9076 597 1
9076 611 1
9076 647 1
9077 149 1
9077 365 1
9077 725 1
9077 2185 1
9078 3018 1
9078 5068 1
9078 5190 1
9078 6007 1
9079 217 1
9079 1925 1
9079 3377 1
9079 4559 1
9080 422 1
9080 1333 1
9080 2200 1
9080 3628 1
9081 181 1
9081 350 1
9081 1065 1
9081 3616 1
9082 65 1
9082 1358 1
9082 1460 1
9082 5938 1
9083 493 1
9083 527 1
9083 1622 1
9083 3213 1
9083 9981 1
9084 6 1
9084 45 1
9084 118 1
9084 3178 1
9085 401 1
9085 448 1
9085 2646 1
9085 6248 1
9086 782 1
9086 1312 1
9086 1406 1
9086 8637 1
9086 9385 1
9087 145 1
9087 914 1
9087 2690 1
9087 4439 1
9088 1050 1
9088 1520 1
9088 6997 1
9088 7149 1
9089 421 1
9089 2380 1
9089 2558 1
9089 3517 1
9090 1083 1
9090 1836 1
9090 3893 1
9090 4398 1
9091 93 1
9091 426 1
9091 704 1
9091 7490 1
9091 9362 1
9092 57 1
9092 172 1
9092 263 1
9092 313 1
9093 30 1
9093 339 1
9093 702 1
9093 5496 1
9094 21 1
9094 205 1
9094 814 1
9094 3992 1
9095 16 1
9095 224 1
9095 1999 1
9095 7552 1
9096 83 1
9096 142 1
9096 1280 1
9096 4828 1
9097 110 1
9097 1056 1
9097 1172 1
9097 8532 1
9098 16 1
9098 1729 1
9098 4390 1
9098 8127 1
9099 2659 1
9099 5096 1
9099 6424 1
9099 8904 1
9100 12 1
9100 2709 1
9100 5781 1
9100 6624 1
9101 121 1
9101 2930 1
9101 4157 1
9101 7167 1
9102 4558 1
9102 4903 1
9102 5766 1
9102 6090 1
9103 514 1
9103 1740 1
9103 4808 1
9103 5954 1
9104 65 1
9104 209 1
9104 1256 1
9104 7348 1
9104 9428 1
9105 758 1
9105 1309 1
9105 2163 1
9105 7094 1
9106 19 1
9106 117 1
9106 3335 1
9106 3622 1
9107 112 1
9107 828 1
9107 5027 1
9107 5568 1
9108 256 1
9108 3747 1
9108 8645 1
9108 8749 1
9109 93 1
9109 227 1
9109 1130 1
9109 2665 1
9110 1218 1
9110 2428 1
9110 4378 1
9110 5719 1
9111 19 1
9111 1042 1
9111 3434 1
9111 4149 1
9112 2951 1
9112 3868 1
9112 4007 1
9112 8113 1
9113 124 1
9113 1409 1
9113 4023 1
9113 4239 1
9114 3196 1
9114 4241 1
9114 7638 1
9114 8956 1
9115 390 1
9115 1668 1
9115 3181 1
9115 4355 1
9116 301 1
9116 1520 1
9116 1741 1
9116 2257 1
9117 418 1
9117 696 1
9117 1104 1
9117 2007 1
9118 168 1
9118 1009 1
9118 1535 1
9118 3583 1
9119 1489 1
9119 1856 1
9119 4934 1
9119 7344 1
9119 9438 1
9120 118 1
9120 918 1
9120 1737 1
9120 5384 1
9121 52 1
9121 2856 1
9121 3457 1
9121 6498 1
9122 6248 1
9122 6571 1
9122 7080 1
9122 7596 1
9123 58 1
9123 4204 1
9123 5707 1
9123 8302 1
9124 30 1
9124 2449 1
9124 7270 1
9124 8632 1
9125 288 1
9125 1371 1
9125 3896 1
9125 7705 1
9126 1756 1
9126 2788 1
9126 7552 1
9126 9070 1
9127 270 1
9127 1512 1
9127 5380 1
9127 8678 1
9127 9129 1
9127 9774 1
9128 1242 1
9128 1792 1
9128 1886 1
9128 5553 1
9129 1033 1
9129 1172 1
9129 3167 1
9129 9127 1
9129 9537 1
9130 515 1
9130 760 1
9130 1726 1
9130 2713 1
9130 9994 1
9131 390 1
9131 1005 1
9131 5434 1
9131 6410 1
9131 9665 1
9132 2474 1
9132 3130 1
9132 4724 1
9132 8684 1
9133 1039 1
9133 6065 1
9133 6220 1
9133 7507 1
9134 238 1
9134 3432 1
9134 4852 1
9134 6485 1
9135 3055 1
9135 4049 1
9135 4846 1
9135 8224 1
9136 3 1
9136 98 1
9136 2080 1
9136 5174 1
9137 68 1
9137 293 1
9137 6754 1
9137 7184 1
9138 2304 1
9138 4806 1
9138 6347 1
9138 7455 1
9139 6 1
9139 94 1
9139 3176 1
9139 4181 1
9140 640 1
9140 4138 1
9140 5251 1
9140 8416 1
9141 230 1
9141 339 1
9141 362 1
9141 7081 1
9141 9211 1
9142 65 1
9142 84 1
9142 260 1
9142 2563 1
9143 715 1
9143 1325 1
9143 3190 1
9143 3506 1
9144 255 1
9144 1123 1
9144 1693 1
9144 8644 1
9144 9229 1
9145 86 1
9145 517 1
9145 1197 1
9145 3250 1
9146 447 1
9146 2346 1
9146 7426 1
9146 8641 1
9147 397 1
9147 1723 1
9147 2297 1
9147 3128 1
9148 285 1
9148 427 1
9148 1063 1
9148 8137 1
9149 599 1
9149 1615 1
9149 2268 1
9149 6632 1
9150 13 1
9150 945 1
9150 4018 1
9150 6467 1
9151 63 1
9151 889 1
9151 7177 1
9151 7812 1
9152 1416 1
9152 1684 1
9152 3286 1
9152 7006 1
9153 845 1
9153 1002 1
9153 3662 1
9153 6842 1
9154 1371 1
9154 1729 1
9154 2879 1
9154 2937 1
9155 600 1
9155 3188 1
9155 4473 1
9155 5768 1
9156 6 1
9156 12 1
9156 3183 1
9156 5654 1
9157 459 1
9157 580 1
9157 1310 1
9157 2146 1
9157 9200 1
9158 37 1
9158 664 1
9158 1405 1
9158 2334 1
9159 112 1
9159 2392 1
9159 6340 1
9159 7383 1
9160 339 1
9160 549 1
9160 2388 1
9160 5134 1
9161 3975 1
9161 4599 1
9161 5361 1
9161 6601 1
9162 98 1
9162 218 1
9162 240 1
9162 1102 1
9163 33 1
9163 1405 1
9163 2016 1
9163 4279 1
9164 714 1
9164 1486 1
9164 2317 1
9164 2328 1
9165 3115 1
9165 3976 1
9165 4164 1
9165 7407 1
9166 1578 1
9166 4330 1
9166 5903 1
9166 9005 1
9166 9338 1
9167 2650 1
9167 7194 1
9167 8141 1
9167 8297 1
9168 51 1
9168 1091 1
9168 4954 1
9168 6360 1
9169 1512 1
9169 1724 1
9169 4786 1
9169 7745 1
9170 74 1
9170 1378 1
9170 3871 1
9170 5395 1
9171 341 1
9171 1838 1
9171 6254 1
9171 7032 1
9172 481 1
9172 637 1
9172 965 1
9172 2413 1
9173 718 1
9173 6821 1
9173 7570 1
9173 8284 1
9174 162 1
9174 619 1
9174 1761 1
9174 7618 1
9175 157 1
9175 737 1
9175 2097 1
9175 5708 1
9176 52 1
9176 1047 1
9176 1776 1
9176 3640 1
9177 169 1
9177 699 1
9177 2319 1
9177 3364 1
9178 55 1
9178 527 1
9178 1446 1
9178 4154 1
9179 65 1
9179 1626 1
9179 2636 1
9179 3575 1
9180 198 1
9180 2848 1
9180 3262 1
9180 8720 1
9181 14 1
9181 76 1
9181 3666 1
9181 4229 1
9182 5 1
9182 407 1
9182 1442 1
9182 2898 1
9182 9378 1
9183 86 1
9183 1779 1
9183 2343 1
9183 4616 1
9184 1847 1
9184 2335 1
9184 3711 1
9184 5368 1
9185 418 1
9185 1430 1
9185 3892 1
9185 6949 1
9186 992 1
9186 2361 1
9186 3651 1
9186 8417 1
9186 9398 1
9187 10 1
9187 312 1
9187 3435 1
9187 5142 1
9188 1130 1
9188 1407 1
9188 2226 1
9188 7715 1
9189 716 1
9189 2872 1
9189 4166 1
9189 8212 1
9190 398 1
9190 1658 1
9190 3386 1
9190 6904 1
9191 1634 1
9191 1669 1
9191 1994 1
9191 6364 1
9192 149 1
9192 1138 1
9192 1725 1
9192 2005 1
9193 1652 1
9193 3300 1
9193 5138 1
9193 5869 1
9194 760 1
9194 1538 1
9194 2122 1
9194 6908 1
9195 10 1
9195 221 1
9195 1140 1
9195 5678 1
9196 310 1
9196 530 1
9196 1634 1
9196 2035 1
9196 9545 1
9197 1053 1
9197 2581 1
9197 5985 1
9197 7181 1
9198 2031 1
9198 2162 1
9198 4089 1
9198 4543 1
9198 9361 1
9199 89 1
9199 1880 1
9199 3138 1
9199 8015 1
9200 589 1
9200 6849 1
9200 7130 1
9200 9157 1
9201 566 1
9201 880 1
9201 1844 1
9201 3595 1
9201 9974 1
9202 374 1
9202 783 1
9202 1530 1
9202 3952 1
9203 26 1
9203 1259 1
9203 3551 1
9203 8946 1
9204 470 1
9204 1175 1
9204 2095 1
9204 5418 1
9205 134 1
9205 998 1
9205 4873 1
9205 5608 1
9206 23 1
9206 198 1
9206 324 1
9206 628 1
9207 425 1
9207 1099 1
9207 4612 1
9207 4959 1
9208 57 1
9208 59 1
9208 880 1
9208 2347 1
9209 937 1
9209 3585 1
9209 4259 1
9209 6989 1
9210 570 1
9210 1363 1
9210 3084 1
9210 7176 1
9211 716 1
9211 3141 1
9211 7934 1
9211 9141 1
9212 315 1
9212 6082 1
9212 6901 1
9212 7262 1
9213 4 1
9213 182 1
9213 2044 1
9213 3286 1
9214 33 1
9214 399 1
9214 3181 1
9214 3246 1
9215 1258 1
9215 4609 1
9215 4880 1
9215 7783 1
9216 281 1
9216 1255 1
9216 4144 1
9216 5005 1
9217 544 1
9217 1264 1
9217 2043 1
9217 6919 1
9217 9229 1
9218 557 1
9218 2262 1
9218 2670 1
9218 3874 1
9219 3 1
9219 1666 1
9219 6663 1
9219 7720 1
9220 312 1
9220 561 1
9220 4347 1
9220 4770 1
9221 6 1
9221 452 1
9221 2466 1
9221 7390 1
9222 2774 1
9222 5811 1
9222 6673 1
9222 7598 1
9223 173 1
9223 992 1
9223 995 1
9223 4723 1
9224 13 1
9224 1864 1
9224 4867 1
9224 7915 1
9225 5176 1
9225 6328 1
9225 6854 1
9225 8855 1
9225 9257 1
9226 423 1
9226 958 1
9226 5212 1
9226 7418 1
9227 58 1
9227 944 1
9227 3897 1
9227 8352 1
9228 2302 1
9228 4247 1
9228 4584 1
9228 6758 1
9229 855 1
9229 7782 1
9229 9144 1
9229 9217 1
9230 65 1
9230 209 1
9230 297 1
9230 3103 1
9231 301 1
9231 1125 1
9231 3155 1
9231 5024 1
9231 9264 1
9232 229 1
9232 2556 1
9232 3600 1
9232 8756 1
9232 9667 1
9233 1689 1
9233 1717 1
9233 8226 1
9233 9047 1
9234 381 1
9234 1562 1
9234 3928 1
9234 7971 1
9235 14 1
9235 2010 1
9235 4852 1
9235 9043 1
9236 535 1
9236 828 1
9236 2202 1
9236 6335 1
9237 607 1
9237 2112 1
9237 3476 1
9237 6618 1
9237 9496 1
9238 309 1
9238 1843 1
9238 1995 1
9238 5278 1
9239 209 1
9239 468 1
9239 2647 1
9239 4106 1
9240 166 1
9240 368 1
9240 452 1
9240 1020 1
9241 137 1
9241 312 1
9241 2437 1
9241 3408 1
9242 97 1
9242 4309 1
9242 6506 1
9242 8443 1
9243 499 1
9243 1581 1
9243 2030 1
9243 7319 1
9244 445 1
9244 1656 1
9244 6555 1
9244 8104 1
9245 620 1
9245 659 1
9245 1905 1
9245 5796 1
9246 41 1
9246 146 1
9246 1089 1
9246 2627 1
9247 1180 1
9247 2083 1
9247 2819 1
9247 9048 1
9248 62 1
9248 2334 1
9248 5564 1
9248 6374 1
9248 9304 1
9249 41 1
9249 149 1
9249 2126 1
9249 4685 1
9250 2673 1
9250 3331 1
9250 5046 1
9250 8450 1
9251 345 1
9251 2512 1
9251 8143 1
9251 9021 1
9252 11 1
9252 1073 1
9252 2693 1
9252 4855 1
9253 188 1
9253 301 1
9253 4345 1
9253 4968 1
9254 17 1
9254 19 1
9254 694 1
9254 5383 1
9255 634 1
9255 798 1
9255 7705 1
9255 7781 1
9256 252 1
9256 1648 1
9256 2737 1
9256 6222 1
9257 170 1
9257 624 1
9257 6009 1
9257 9225 1
9258 328 1
9258 359 1
9258 1409 1
9258 8904 1
9259 8 1
9259 581 1
9259 1699 1
9259 6477 1
9260 452 1
9260 1684 1
9260 3844 1
9260 5632 1
9260 9562 1
9261 918 1
9261 2111 1
9261 3814 1
9261 8292 1
9262 121 1
9262 826 1
9262 2651 1
9262 8702 1
9263 6 1
9263 1313 1
9263 2086 1
9263 5128 1
9264 10 1
9264 1539 1
9264 5858 1
9264 9231 1
9265 5 1
9265 248 1
9265 2473 1
9265 6344 1
9266 117 1
9266 715 1
9266 1485 1
9266 6018 1
9267 862 1
9267 939 1
9267 2262 1
9267 6752 1
9268 307 1
9268 1323 1
9268 2732 1
9268 5876 1
9268 9669 1
9269 463 1
9269 1288 1
9269 1522 1
9269 8311 1
9270 74 1
9270 310 1
9270 726 1
9270 3751 1
9271 2856 1
9271 3461 1
9271 8115 1
9271 8303 1
9272 561 1
9272 3887 1
9272 3912 1
9272 7668 1
9273 2953 1
9273 2955 1
9273 7872 1
9273 8467 1
9274 429 1
9274 1822 1
9274 2389 1
9274 9035 1
9275 5 1
9275 4810 1
9275 6184 1
9275 7995 1
9275 9748 1
9276 1004 1
9276 1694 1
9276 4052 1
9276 7966 1
9277 332 1
9277 568 1
9277 1190 1
9277 1317 1
9278 493 1
9278 868 1
9278 4259 1
9278 4711 1
9279 702 1
9279 2652 1
9279 4484 1
9279 8113 1
9280 3032 1
9280 3538 1
9280 4852 1
9280 5241 1
9281 6 1
9281 1215 1
9281 2495 1
9281 6311 1
9282 399 1
9282 1022 1
9282 1504 1
9282 9048 1
9283 19 1
9283 1529 1
9283 7663 1
9283 8480 1
9284 590 1
9284 1035 1
9284 1928 1
9284 2638 1
9285 2716 1
9285 3115 1
9285 6460 1
9285 6623 1
9286 144 1
9286 808 1
9286 1973 1
9286 2810 1
9287 54 1
9287 2361 1
9287 7315 1
9287 7371 1
9287 9958 1
9288 1277 1
9288 2575 1
9288 5044 1
9288 5541 1
9289 210 1
9289 893 1
9289 1233 1
9289 4391 1
9290 3101 1
9290 3511 1
9290 4818 1
9290 6869 1
9291 2712 1
9291 3768 1
9291 6407 1
9291 8965 1
9292 1653 1
9292 3519 1
9292 4663 1
9292 5423 1
9293 1258 1
9293 3138 1
9293 4554 1
9293 7107 1
9294 3 1
9294 519 1
9294 4215 1
9294 8918 1
9295 57 1
9295 679 1
9295 1086 1
9295 2252 1
9296 308 1
9296 3714 1
9296 8309 1
9296 8908 1
9296 9890 1
9297 172 1
9297 297 1
9297 3142 1
9297 7528 1
9298 393 1
9298 3103 1
9298 3942 1
9298 5810 1
9299 1431 1
9299 1828 1
9299 7130 1
9299 7850 1
9300 3916 1
9300 4441 1
9300 6124 1
9300 8238 1
9301 69 1
9301 231 1
9301 3481 1
9301 7819 1
9302 8 1
9302 602 1
9302 3111 1
9302 5796 1
9303 232 1
9303 238 1
9303 646 1
9303 5391 1
9304 1835 1
9304 3506 1
9304 6109 1
9304 9248 1
9305 1108 1
9305 1955 1
9305 2685 1
9305 6537 1
9306 403 1
9306 2646 1
9306 7473 1
9306 7574 1
9307 3 1
9307 485 1
9307 1066 1
9307 1086 1
9307 9371 1
9308 1 1
9308 1311 1
9308 3920 1
9308 6151 1
9309 11 1
9309 485 1
9309 1077 1
9309 5066 1
9310 6944 1
9310 7124 1
9310 7268 1
9310 8909 1
9311 190 1
9311 1154 1
9311 4898 1
9311 7304 1
9312 188 1
9312 1565 1
9312 2065 1
9312 8038 1
9313 115 1
9313 2834 1
9313 5627 1
9313 7144 1
9314 138 1
9314 308 1
9314 2099 1
9314 6244 1
9315 775 1
9315 1220 1
9315 1310 1
9315 7505 1
9316 1218 1
9316 3436 1
9316 4317 1
9316 5450 1
9317 640 1
9317 2220 1
9317 4731 1
9317 8519 1
9317 9510 1
9318 5 1
9318 40 1
9318 149 1
9318 1447 1
9319 23 1
9319 1131 1
9319 2762 1
9319 5167 1
9320 3123 1
9320 6763 1
9320 8228 1
9320 8571 1
9320 9877 1
9321 13 1
9321 47 1
9321 607 1
9321 1035 1
9322 19 1
9322 184 1
9322 749 1
9322 5547 1
9322 9655 1
9323 392 1
9323 1066 1
9323 1097 1
9323 6694 1
9324 34 1
9324 51 1
9324 85 1
9324 5431 1
9325 310 1
9325 611 1
9325 2407 1
9325 3987 1
9326 438 1
9326 2089 1
9326 2649 1
9326 4887 1
9327 252 1
9327 436 1
9327 1189 1
9327 4552 1
9328 29 1
9328 2301 1
9328 7959 1
9328 8824 1
9328 9700 1
9329 200 1
9329 953 1
9329 1530 1
9329 7355 1
9329 9668 1
9330 81 1
9330 606 1
9330 3995 1
9330 4817 1
9331 394 1
9331 719 1
9331 1331 1
9331 5833 1
9331 9687 1
9331 9933 1
9332 581 1
9332 595 1
9332 1957 1
9332 7591 1
9333 174 1
9333 493 1
9333 1668 1
9333 6009 1
9334 60 1
9334 303 1
9334 6737 1
9334 6781 1
9335 10 1
9335 2701 1
9335 3739 1
9335 6730 1
9335 9407 1
9335 9684 1
9336 39 1
9336 3036 1
9336 6611 1
9336 7951 1
9337 374 1
9337 884 1
9337 3249 1
9337 5440 1
9337 9769 1
9338 674 1
9338 1446 1
9338 3729 1
9338 9166 1
9339 799 1
9339 897 1
9339 1358 1
9339 1881 1
9339 9812 1
9340 171 1
9340 194 1
9340 768 1
9340 1997 1
9341 1251 1
9341 5499 1
9341 7271 1
9341 8078 1
9342 6 1
9342 3067 1
9342 3280 1
9342 8200 1
9343 47 1
9343 434 1
9343 1435 1
9343 7368 1
9344 37 1
9344 1777 1
9344 3355 1
9344 4002 1
9345 1520 1
9345 1729 1
9345 3105 1
9345 7746 1
9346 136 1
9346 1439 1
9346 1604 1
9346 7531 1
9347 309 1
9347 1140 1
9347 1364 1
9347 5437 1
9348 10 1
9348 3063 1
9348 3364 1
9348 4486 1
9349 28 1
9349 2929 1
9349 8202 1
9349 8958 1
9350 10 1
9350 460 1
9350 1883 1
9350 8118 1
9351 314 1
9351 463 1
9351 1484 1
9351 7538 1
9352 1 1
9352 633 1
9352 5872 1
9352 6043 1
9353 11 1
9353 651 1
9353 3617 1
9353 5851 1
9354 362 1
9354 697 1
9354 5600 1
9354 7196 1
9355 688 1
9355 2295 1
9355 2885 1
9355 7836 1
9356 22 1
9356 81 1
9356 2944 1
9356 7285 1
9357 253 1
9357 526 1
9357 2091 1
9357 7710 1
9358 258 1
9358 1672 1
9358 2185 1
9358 2434 1
9359 3637 1
9359 5095 1
9359 7660 1
9359 8846 1
9360 12 1
9360 744 1
9360 826 1
9360 2865 1
9360 9491 1
9361 55 1
9361 6849 1
9361 7380 1
9361 9198 1
9362 502 1
9362 6703 1
9362 7673 1
9362 9091 1
9362 9622 1
9363 125 1
9363 909 1
9363 983 1
9363 3060 1
9364 17 1
9364 2414 1
9364 2454 1
9364 5957 1
9365 10 1
9365 13 1
9365 3771 1
9365 8946 1
9366 84 1
9366 1114 1
9366 1482 1
9366 8505 1
9367 211 1
9367 307 1
9367 3240 1
9367 8587 1
9368 1895 1
9368 4837 1
9368 6412 1
9368 8092 1
9369 29 1
9369 762 1
9369 1020 1
9369 4712 1
9370 808 1
9370 3029 1
9370 3419 1
9370 7023 1
9371 676 1
9371 858 1
9371 6204 1
9371 9307 1
9371 9570 1
9372 37 1
9372 328 1
9372 362 1
9372 8664 1
9373 37 1
9373 1187 1
9373 1794 1
9373 2163 1
9374 20 1
9374 1905 1
9374 2453 1
9374 2577 1
9375 1175 1
9375 1978 1
9375 2287 1
9375 6317 1
9376 81 1
9376 1405 1
9376 2781 1
9376 7795 1
9377 323 1
9377 647 1
9377 3929 1
9377 5116 1
9378 1607 1
9378 1991 1
9378 3654 1
9378 9182 1
9379 1 1
9379 1933 1
9379 5085 1
9379 7183 1
9380 398 1
9380 1821 1
9380 2197 1
9380 5950 1
9381 617 1
9381 2505 1
9381 3395 1
9381 3744 1
9382 51 1
9382 101 1
9382 907 1
9382 2699 1
9383 61 1
9383 851 1
9383 6339 1
9383 9060 1
9384 273 1
9384 2679 1
9384 6837 1
9384 6964 1
9385 213 1
9385 377 1
9385 7746 1
9385 9086 1
9385 9546 1
9385 9730 1
9386 1847 1
9386 3235 1
9386 3733 1
9386 7427 1
9387 4 1
9387 2547 1
9387 2764 1
9387 3685 1
9388 1186 1
9388 1791 1
9388 5572 1
9388 6204 1
9389 103 1
9389 1446 1
9389 2782 1
9389 7317 1
9390 133 1
9390 3995 1
9390 6456 1
9390 7581 1
9391 23 1
9391 1857 1
9391 2444 1
9391 3635 1
9392 531 1
9392 754 1
9392 1481 1
9392 4648 1
9393 1602 1
9393 2753 1
9393 3711 1
9393 4757 1
9394 38 1
9394 76 1
9394 6794 1
9394 7762 1
9395 9 1
9395 88 1
9395 3211 1
9395 4489 1
9396 222 1
9396 512 1
9396 4787 1
9396 7026 1
9397 34 1
9397 2342 1
9397 2543 1
9397 3613 1
9398 11 1
9398 2119 1
9398 5126 1
9398 9186 1
9399 91 1
9399 1003 1
9399 3287 1
9399 7953 1
9400 36 1
9400 1354 1
9400 3505 1
9400 7958 1
9401 304 1
9401 627 1
9401 1681 1
9401 8593 1
9402 41 1
9402 4505 1
9402 4568 1
9402 6609 1
9403 648 1
9403 732 1
9403 6187 1
9403 7590 1
9404 730 1
9404 2166 1
9404 4620 1
9404 8922 1
9405 17 1
9405 2142 1
9405 2880 1
9405 6912 1
9406 96 1
9406 1248 1
9406 1476 1
9406 8853 1
9407 8 1
9407 4698 1
9407 8945 1
9407 9335 1
9407 9929 1
9408 663 1
9408 739 1
9408 2778 1
9408 7563 1
9409 32 1
9409 148 1
9409 509 1
9409 3164 1
9409 9772 1
9410 448 1
9410 1606 1
9410 3910 1
9410 6959 1
9411 917 1
9411 1076 1
9411 1294 1
9411 6752 1
9412 1148 1
9412 3678 1
9412 5218 1
9412 6038 1
9413 13 1
9413 30 1
9413 1926 1
9413 2296 1
9414 483 1
9414 885 1
9414 2257 1
9414 6148 1
9415 151 1
9415 4156 1
9415 7790 1
9415 8448 1
9416 46 1
9416 78 1
9416 4609 1
9416 5009 1
9417 496 1
9417 1329 1
9417 1672 1
9417 6534 1
9417 9600 1
9417 9642 1
9418 31 1
9418 2113 1
9418 3523 1
9418 5678 1
9419 479 1
9419 3187 1
9419 5911 1
9419 8702 1
9420 3171 1
9420 5934 1
9420 6727 1
9420 8795 1
9421 189 1
9421 727 1
9421 960 1
9421 2794 1
9422 377 1
9422 426 1
9422 4888 1
9422 8579 1
9423 16 1
9423 3370 1
9423 4045 1
9423 7871 1
9423 9481 1
9424 1720 1
9424 2389 1
9424 2532 1
9424 9012 1
9425 4221 1
9425 5970 1
9425 7527 1
9425 8489 1
9425 9838 1
9426 2564 1
9426 3044 1
9426 3212 1
9426 6162 1
9427 873 1
9427 4361 1
9427 5803 1
9427 7228 1
9428 6 1
9428 105 1
9428 3397 1
9428 9104 1
9429 392 1
9429 1340 1
9429 4024 1
9429 4335 1
9430 7 1
9430 1339 1
9430 4551 1
9430 6713 1
9431 19 1
9431 193 1
9431 409 1
9431 4814 1
9432 1289 1
9432 2372 1
9432 4515 1
9432 5632 1
9433 70 1
9433 3300 1
9433 5758 1
9433 6206 1
9434 15 1
9434 120 1
9434 286 1
9434 1282 1
9435 112 1
9435 302 1
9435 5290 1
9435 7866 1
9436 2693 1
9436 3917 1
9436 5252 1
9436 5452 1
9437 188 1
9437 642 1
9437 1529 1
9437 3994 1
9437 9684 1
9438 2014 1
9438 5017 1
9438 8846 1
9438 9119 1
9439 2 1
9439 453 1
9439 637 1
9439 4475 1
9440 3571 1
9440 5219 1
9440 5665 1
9440 6792 1
9441 231 1
9441 4263 1
9441 6794 1
9441 7152 1
9442 1612 1
9442 1746 1
9442 4364 1
9442 5252 1
9443 289 1
9443 3193 1
9443 5232 1
9443 9011 1
9444 31 1
9444 583 1
9444 598 1
9444 7277 1
9445 273 1
9445 4491 1
9445 5336 1
9445 5890 1
9446 379 1
9446 1154 1
9446 4124 1
9446 5984 1
9447 10 1
9447 1354 1
9447 3990 1
9447 9001 1
9448 299 1
9448 3405 1
9448 4592 1
9448 5103 1
9449 824 1
9449 883 1
9449 5972 1
9449 7981 1
9450 160 1
9450 927 1
9450 2416 1
9450 4612 1
9451 180 1
9451 1002 1
9451 5088 1
9451 8298 1
9452 7 1
9452 13 1
9452 41 1
9452 4883 1
9453 3412 1
9453 4997 1
9453 5579 1
9453 8933 1
9454 1179 1
9454 3784 1
9454 4208 1
9454 8044 1
9455 87 1
9455 285 1
9455 2236 1
9455 3752 1
9456 5 1
9456 273 1
9456 362 1
9456 6609 1
9457 45 1
9457 493 1
9457 1079 1
9457 1958 1
9458 24 1
9458 326 1
9458 5123 1
9458 6959 1
9459 868 1
9459 1201 1
9459 2109 1
9459 2347 1
9460 9 1
9460 36 1
9460 741 1
9460 2340 1
9461 19 1
9461 693 1
9461 3032 1
9461 8826 1
9462 315 1
9462 370 1
9462 567 1
9462 7791 1
9463 281 1
9463 1513 1
9463 1642 1
9463 1696 1
9464 403 1
9464 640 1
9464 1604 1
9464 3567 1
9464 9943 1
9464 9961 1
9465 45 1
9465 122 1
9465 572 1
9465 8761 1
9465 9519 1
9466 13 1
9466 45 1
9466 413 1
9466 6292 1
9467 2043 1
9467 4576 1
9467 5712 1
9467 7258 1
9468 4 1
9468 481 1
9468 2437 1
9468 7490 1
9468 9707 1
9469 305 1
9469 1827 1
9469 3234 1
9469 4581 1
9470 295 1
9470 1763 1
9470 2586 1
9470 4793 1
9471 6 1
9471 418 1
9471 4042 1
9471 4472 1
9472 1323 1
9472 1863 1
9472 2591 1
9472 8597 1
9473 824 1
9473 826 1
9473 2739 1
9473 4488 1
9474 812 1
9474 3104 1
9474 5366 1
9474 5719 1
9475 14 1
9475 76 1
9475 2669 1
9475 4906 1
9476 133 1
9476 136 1
9476 487 1
9476 1666 1
9477 38 1
9477 1001 1
9477 4927 1
9477 8125 1
9478 638 1
9478 846 1
9478 2294 1
9478 3381 1
9479 165 1
9479 576 1
9479 1021 1
9479 5066 1
9480 64 1
9480 282 1
9480 2497 1
9480 5237 1
9481 2284 1
9481 4578 1
9481 4837 1
9481 9423 1
9481 9734 1
9482 48 1
9482 4318 1
9482 5996 1
9482 6146 1
9483 113 1
9483 1442 1
9483 2208 1
9483 4351 1
9484 11 1
9484 115 1
9484 2749 1
9484 3436 1
9485 260 1
9485 273 1
9485 1886 1
9485 6242 1
9486 13 1
9486 1981 1
9486 3858 1
9486 8873 1
9487 2614 1
9487 3300 1
9487 7306 1
9487 7575 1
9487 9923 1
9488 29 1
9488 1138 1
9488 3633 1
9488 4585 1
9489 55 1
9489 651 1
9489 714 1
9489 4305 1
9490 20 1
9490 251 1
9490 1259 1
9490 7133 1
9491 567 1
9491 605 1
9491 640 1
9491 9360 1
9492 2007 1
9492 3596 1
9492 3864 1
9492 7259 1
9493 4415 1
9493 6088 1
9493 6221 1
9493 7325 1
9494 264 1
9494 6428 1
9494 8435 1
9494 8680 1
9495 79 1
9495 1309 1
9495 3091 1
9495 3275 1
9496 139 1
9496 989 1
9496 1499 1
9496 9237 1
9497 49 1
9497 3083 1
9497 6567 1
9497 8159 1
9497 9662 1
9498 16 1
9498 295 1
9498 2992 1
9498 7412 1
9498 9854 1
9499 181 1
9499 190 1
9499 1872 1
9499 5095 1
9500 869 1
9500 2276 1
9500 2925 1
9500 6286 1
9500 9740 1
9501 166 1
9501 373 1
9501 1661 1
9501 8465 1
9502 700 1
9502 1438 1
9502 4578 1
9502 7309 1
9503 1416 1
9503 5479 1
9503 6609 1
9503 8589 1
9504 651 1
9504 1564 1
9504 3687 1
9504 3782 1
9505 153 1
9505 254 1
9505 298 1
9505 5470 1
9506 265 1
9506 1707 1
9506 3828 1
9506 5298 1
9507 106 1
9507 848 1
9507 4261 1
9507 6456 1
9508 97 1
9508 137 1
9508 188 1
9508 4969 1
9509 17 1
9509 63 1
9509 1648 1
9509 8060 1
9510 199 1
9510 1799 1
9510 6700 1
9510 9317 1
9511 45 1
9511 2936 1
9511 5579 1
9511 6510 1
9512 1207 1
9512 3163 1
9512 7009 1
9512 8910 1
9513 30 1
9513 2772 1
9513 5467 1
9513 7428 1
9514 4254 1
9514 5375 1
9514 7225 1
9514 7468 1
9515 368 1
9515 555 1
9515 963 1
9515 7735 1
9516 2 1
9516 2031 1
9516 2116 1
9516 4149 1
9517 790 1
9517 1444 1
9517 2727 1
9517 6127 1
9517 9575 1
9518 321 1
9518 1172 1
9518 3857 1
9518 5299 1
9519 26 1
9519 160 1
9519 2407 1
9519 9465 1
9520 571 1
9520 828 1
9520 3555 1
9520 5924 1
9521 73 1
9521 368 1
9521 3305 1
9521 4431 1
9522 375 1
9522 515 1
9522 554 1
9522 597 1
9523 477 1
9523 790 1
9523 3297 1
9523 8375 1
9524 21 1
9524 27 1
9524 2621 1
9524 3587 1
9525 796 1
9525 3032 1
9525 4503 1
9525 6797 1
9526 1 1
9526 137 1
9526 608 1
9526 923 1
9527 314 1
9527 1494 1
9527 2469 1
9527 3651 1
9528 50 1
9528 1292 1
9528 2732 1
9528 6684 1
9528 9637 1
9529 355 1
9529 1476 1
9529 2835 1
9529 7281 1
9530 1657 1
9530 3123 1
9530 8092 1
9530 8517 1
9531 1414 1
9531 1616 1
9531 5430 1
9531 5498 1
9532 32 1
9532 83 1
9532 2475 1
9532 3354 1
9533 222 1
9533 1205 1
9533 6021 1
9533 6564 1
9534 91 1
9534 568 1
9534 1391 1
9534 3087 1
9535 377 1
9535 705 1
9535 3947 1
9535 4614 1
9536 409 1
9536 1557 1
9536 3857 1
9536 8573 1
9537 251 1
9537 2210 1
9537 6834 1
9537 9129 1
9538 282 1
9538 432 1
9538 4844 1
9538 9016 1
9539 1 1
9539 4103 1
9539 8044 1
9539 9065 1
9540 1715 1
9540 2418 1
9540 4060 1
9540 5298 1
9541 68 1
9541 766 1
9541 2577 1
9541 3714 1
9542 106 1
9542 976 1
9542 2629 1
9542 3028 1
9543 433 1
9543 460 1
9543 4940 1
9543 8430 1
9544 91 1
9544 282 1
9544 1070 1
9544 7234 1
9545 1545 1
9545 6541 1
9545 7648 1
9545 9196 1
9546 328 1
9546 1134 1
9546 4063 1
9546 9385 1
9546 9899 1
9547 107 1
9547 1600 1
9547 2782 1
9547 4526 1
9548 457 1
9548 1717 1
9548 2350 1
9548 4639 1
9549 5816 1
9549 6917 1
9549 7233 1
9549 8263 1
9550 832 1
9550 1311 1
9550 2444 1
9550 7628 1
9551 2420 1
9551 2978 1
9551 5313 1
9551 7863 1
9552 1573 1
9552 4609 1
9552 7015 1
9552 8818 1
9552 9842 1
9553 101 1
9553 1768 1
9553 3731 1
9553 4689 1
9554 3862 1
9554 6747 1
9554 8868 1
9554 8911 1
9555 407 1
9555 4747 1
9555 5625 1
9555 7336 1
9556 85 1
9556 1381 1
9556 2733 1
9556 8333 1
9557 256 1
9557 1816 1
9557 2520 1
9557 4235 1
9558 1193 1
9558 1474 1
9558 6559 1
9558 7871 1
9559 33 1
9559 115 1
9559 3954 1
9559 8241 1
9560 3190 1
9560 4171 1
9560 4237 1
9560 7540 1
9561 381 1
9561 1526 1
9561 2650 1
9561 5101 1
9562 735 1
9562 989 1
9562 1108 1
9562 9260 1
9562 9874 1
9563 581 1
9563 933 1
9563 1509 1
9563 1775 1
9564 268 1
9564 361 1
9564 584 1
9564 4115 1
9565 319 1
9565 2061 1
9565 3559 1
9565 5094 1
9566 36 1
9566 1369 1
9566 6791 1
9566 7613 1
9566 9576 1
9567 516 1
9567 667 1
9567 3391 1
9567 3421 1
9568 155 1
9568 294 1
9568 389 1
9568 691 1
9569 1246 1
9569 3125 1
9569 6522 1
9569 8664 1
9570 1270 1
9570 2282 1
9570 5413 1
9570 9371 1
9571 1887 1
9571 2733 1
9571 5268 1
9571 6532 1
9571 9839 1
9572 68 1
9572 2475 1
9572 4055 1
9572 4209 1
9573 521 1
9573 4146 1
9573 4772 1
9573 7955 1
9574 198 1
9574 1541 1
9574 3530 1
9574 6495 1
9575 640 1
9575 1020 1
9575 3889 1
9575 9517 1
9576 3452 1
9576 4721 1
9576 7013 1
9576 9566 1
9577 149 1
9577 4326 1
9577 4504 1
9577 8639 1
9578 8 1
9578 363 1
9578 1426 1
9578 8230 1
9579 993 1
9579 1478 1
9579 5154 1
9579 7440 1
9580 877 1
9580 2690 1
9580 6763 1
9580 7221 1
9581 120 1
9581 387 1
9581 590 1
9581 6653 1
9582 272 1
9582 762 1
9582 3021 1
9582 7126 1
9583 12 1
9583 45 1
9583 5051 1
9583 7388 1
9584 65 1
9584 505 1
9584 535 1
9584 699 1
9585 962 1
9585 1539 1
9585 5098 1
9585 6209 1
9586 1453 1
9586 2633 1
9586 3378 1
9586 8487 1
9587 605 1
9587 2602 1
9587 4719 1
9587 8525 1
9588 112 1
9588 632 1
9588 6605 1
9588 8576 1
9589 1757 1
9589 3359 1
9589 4785 1
9589 8723 1
9590 92 1
9590 664 1
9590 4108 1
9590 6487 1
9591 699 1
9591 821 1
9591 3169 1
9591 8867 1
9592 57 1
9592 644 1
9592 949 1
9592 2632 1
9593 1332 1
9593 1561 1
9593 6431 1
9593 7820 1
9594 79 1
9594 945 1
9594 3307 1
9594 3648 1
9595 651 1
9595 1042 1
9595 1134 1
9595 4830 1
9596 68 1
9596 2367 1
9596 4324 1
9596 6139 1
9597 134 1
9597 1425 1
9597 3153 1
9597 3550 1
9598 580 1
9598 1183 1
9598 2344 1
9598 2564 1
9599 167 1
9599 3141 1
9599 3783 1
9599 3969 1
9600 31 1
9600 342 1
9600 7335 1
9600 9417 1
9601 5 1
9601 3392 1
9601 4441 1
9601 8984 1
9602 8 1
9602 40 1
9602 499 1
9602 6706 1
9603 590 1
9603 1336 1
9603 1591 1
9603 7677 1
9604 270 1
9604 297 1
9604 580 1
9604 4421 1
9605 3562 1
9605 5615 1
9605 5973 1
9605 8742 1
9606 2796 1
9606 4303 1
9606 4704 1
9606 7153 1
9607 415 1
9607 920 1
9607 1231 1
9607 8623 1
9608 254 1
9608 414 1
9608 2795 1
9608 4128 1
9609 549 1
9609 2407 1
9609 5988 1
9609 8472 1
9610 412 1
9610 4344 1
9610 5270 1
9610 6745 1
9611 149 1
9611 2253 1
9611 2442 1
9611 3801 1
9612 31 1
9612 1769 1
9612 2763 1
9612 4337 1
9613 271 1
9613 636 1
9613 4230 1
9613 4796 1
9614 19 1
9614 23 1
9614 2148 1
9614 3305 1
9615 90 1
9615 1743 1
9615 2105 1
9615 5249 1
9616 365 1
9616 719 1
9616 955 1
9616 3949 1
9617 341 1
9617 7321 1
9617 7475 1
9617 8556 1
9618 1376 1
9618 1442 1
9618 2732 1
9618 7245 1
9619 229 1
9619 466 1
9619 1049 1
9619 1440 1
9620 536 1
9620 983 1
9620 4701 1
9620 6680 1
9621 4 1
9621 104 1
9621 145 1
9621 1946 1
9622 841 1
9622 1917 1
9622 3091 1
9622 9362 1
9623 233 1
9623 398 1
9623 5811 1
9623 7177 1
9624 587 1
9624 3065 1
9624 5211 1
9624 8518 1
9625 636 1
9625 1077 1
9625 8084 1
9625 8273 1
9626 1248 1
9626 4828 1
9626 5634 1
9626 6225 1
9626 9656 1
9627 7 1
9627 300 1
9627 980 1
9627 1233 1
9628 95 1
9628 102 1
9628 1876 1
9628 4502 1
9629 1328 1
9629 1596 1
9629 3027 1
9629 4612 1
9630 442 1
9630 1354 1
9630 3498 1
9630 6182 1
9631 8 1
9631 28 1
9631 879 1
9631 6340 1
9632 36 1
9632 1557 1
9632 3725 1
9632 5126 1
9633 1530 1
9633 2111 1
9633 4610 1
9633 7299 1
9634 130 1
9634 909 1
9634 2667 1
9634 7968 1
9635 86 1
9635 4323 1
9635 5190 1
9635 6309 1
9636 2659 1
9636 3081 1
9636 5252 1
9636 7459 1
9637 47 1
9637 1453 1
9637 8572 1
9637 9528 1
9638 8 1
9638 2034 1
9638 6171 1
9638 7162 1
9639 523 1
9639 1319 1
9639 3723 1
9639 5565 1
9640 274 1
9640 3416 1
9640 3800 1
9640 5491 1
9641 13 1
9641 339 1
9641 886 1
9641 5733 1
9642 785 1
9642 6704 1
9642 8841 1
9642 9417 1
9643 3 1
9643 2732 1
9643 3804 1
9643 5380 1
9644 850 1
9644 1484 1
9644 3521 1
9644 6319 1
9645 164 1
9645 559 1
9645 1315 1
9645 7130 1
9646 1487 1
9646 2149 1
9646 2376 1
9646 3364 1
9647 55 1
9647 910 1
9647 1580 1
9647 5127 1
9648 80 1
9648 1527 1
9648 2596 1
9648 6173 1
9649 6 1
9649 64 1
9649 502 1
9649 5835 1
9650 43 1
9650 1071 1
9650 1319 1
9650 6416 1
9651 61 1
9651 498 1
9651 1381 1
9651 7701 1
9652 385 1
9652 4649 1
9652 5812 1
9652 5925 1
9653 596 1
9653 4658 1
9653 6317 1
9653 7513 1
9654 1 1
9654 286 1
9654 2417 1
9654 4690 1
9655 402 1
9655 671 1
9655 4956 1
9655 9322 1
9656 2060 1
9656 3345 1
9656 4141 1
9656 9626 1
9657 258 1
9657 1077 1
9657 1693 1
9657 5440 1
9658 421 1
9658 927 1
9658 1975 1
9658 6285 1
9659 263 1
9659 6356 1
9659 7123 1
9659 7534 1
9660 992 1
9660 3261 1
9660 4637 1
9660 8647 1
9661 1626 1
9661 2530 1
9661 4107 1
9661 8310 1
9662 19 1
9662 1156 1
9662 5000 1
9662 9497 1
9663 703 1
9663 1976 1
9663 5224 1
9663 6261 1
9664 1055 1
9664 3392 1
9664 3899 1
9664 5247 1
9665 9 1
9665 1406 1
9665 1544 1
9665 9131 1
9666 14 1
9666 2107 1
9666 3640 1
9666 8206 1
9667 285 1
9667 1997 1
9667 2444 1
9667 9232 1
9668 1 1
9668 2046 1
9668 2240 1
9668 9329 1
9669 119 1
9669 1036 1
9669 5239 1
9669 9268 1
9670 368 1
9670 2772 1
9670 3949 1
9670 7071 1
9671 202 1
9671 551 1
9671 4613 1
9671 5548 1
9672 200 1
9672 491 1
9672 891 1
9672 1625 1
9673 32 1
9673 36 1
9673 182 1
9673 7766 1
9674 43 1
9674 95 1
9674 308 1
9674 2210 1
9674 9956 1
9675 28 1
9675 578 1
9675 1968 1
9675 8114 1
9676 2067 1
9676 2627 1
9676 4168 1
9676 6935 1
9677 463 1
9677 2289 1
9677 5524 1
9677 7231 1
9678 264 1
9678 606 1
9678 5541 1
9678 8244 1
9679 2685 1
9679 4294 1
9679 4325 1
9679 4389 1
9680 1941 1
9680 3723 1
9680 5391 1
9680 8776 1
9681 134 1
9681 515 1
9681 1416 1
9681 2528 1
9682 584 1
9682 794 1
9682 5987 1
9682 8956 1
9683 256 1
9683 283 1
9683 557 1
9683 1142 1
9684 2752 1
9684 9013 1
9684 9335 1
9684 9437 1
9685 373 1
9685 455 1
9685 2825 1
9685 6139 1
9686 138 1
9686 1030 1
9686 5595 1
9686 7065 1
9687 17 1
9687 97 1
9687 1454 1
9687 9331 1
9688 550 1
9688 859 1
9688 7960 1
9688 8302 1
9689 218 1
9689 1458 1
9689 3171 1
9689 4231 1
9690 281 1
9690 3286 1
9690 4156 1
9690 6403 1
9691 339 1
9691 1028 1
9691 6639 1
9691 8712 1
9692 794 1
9692 2276 1
9692 3790 1
9692 8367 1
9693 2996 1
9693 3275 1
9693 3609 1
9693 6914 1
9694 2302 1
9694 2944 1
9694 3386 1
9694 7105 1
9695 31 1
9695 34 1
9695 198 1
9695 6784 1
9696 372 1
9696 2681 1
9696 5446 1
9696 6805 1
9697 81 1
9697 669 1
9697 1948 1
9697 2075 1
9698 1142 1
9698 1270 1
9698 3150 1
9698 7224 1
9699 965 1
9699 1171 1
9699 6511 1
9699 9041 1
9700 31 1
9700 336 1
9700 3400 1
9700 9328 1
9701 149 1
9701 289 1
9701 1393 1
9701 1710 1
9702 11 1
9702 1222 1
9702 2718 1
9702 4556 1
9703 987 1
9703 3315 1
9703 7330 1
9703 8183 1
9704 213 1
9704 832 1
9704 985 1
9704 4331 1
9705 2094 1
9705 2909 1
9705 4832 1
9705 7521 1
9706 384 1
9706 662 1
9706 1839 1
9706 8282 1
9707 73 1
9707 1160 1
9707 4112 1
9707 9468 1
9708 71 1
9708 943 1
9708 3862 1
9708 7613 1
9709 3014 1
9709 3745 1
9709 4090 1
9709 6821 1
9710 2765 1
9710 5463 1
9710 6305 1
9710 7207 1
9711 3 1
9711 40 1
9711 907 1
9711 3817 1
9712 3724 1
9712 4050 1
9712 6997 1
9712 7260 1
9713 1866 1
9713 1967 1
9713 2475 1
9713 7885 1
9714 425 1
9714 2826 1
9714 6598 1
9714 6802 1
9715 1253 1
9715 2053 1
9715 2325 1
9715 6166 1
9715 9837 1
9716 2865 1
9716 5620 1
9716 7776 1
9716 8162 1
9717 305 1
9717 696 1
9717 3932 1
9717 5797 1
9718 6 1
9718 147 1
9718 2944 1
9718 5740 1
9719 119 1
9719 2065 1
9719 4417 1
9719 6766 1
9720 24 1
9720 384 1
9720 1340 1
9720 4891 1
9720 9850 1
9721 260 1
9721 1166 1
9721 3378 1
9721 4426 1
9722 318 1
9722 515 1
9722 819 1
9722 2132 1
9723 13 1
9723 134 1
9723 259 1
9723 759 1
9724 142 1
9724 240 1
9724 2216 1
9724 2473 1
9725 168 1
9725 1364 1
9725 1601 1
9725 3217 1
9726 143 1
9726 1797 1
9726 3546 1
9726 7449 1
9727 181 1
9727 2426 1
9727 3490 1
9727 8150 1
9728 2616 1
9728 6739 1
9728 8317 1
9728 9021 1
9729 487 1
9729 850 1
9729 6598 1
9729 6958 1
9730 33 1
9730 655 1
9730 1554 1
9730 9385 1
9731 702 1
9731 6574 1
9731 6613 1
9731 6619 1
9732 118 1
9732 868 1
9732 1827 1
9732 2731 1
9733 1779 1
9733 3238 1
9733 3589 1
9733 5037 1
9734 22 1
9734 4493 1
9734 4723 1
9734 9481 1
9735 2032 1
9735 3506 1
9735 3622 1
9735 7262 1
9736 5297 1
9736 6902 1
9736 7900 1
9736 8095 1
9737 67 1
9737 1824 1
9737 2272 1
9737 3872 1
9738 1430 1
9738 1846 1
9738 4471 1
9738 6004 1
9739 845 1
9739 1111 1
9739 5168 1
9739 5936 1
9740 14 1
9740 353 1
9740 5997 1
9740 9500 1
9741 150 1
9741 1812 1
9741 1839 1
9741 6230 1
9742 330 1
9742 728 1
9742 1125 1
9742 3156 1
9743 428 1
9743 3402 1
9743 5786 1
9743 7677 1
9744 162 1
9744 185 1
9744 484 1
9744 1376 1
9745 6 1
9745 30 1
9745 3595 1
9745 6989 1
9746 33 1
9746 66 1
9746 78 1
9746 6353 1
9747 898 1
9747 1758 1
9747 1915 1
9747 7731 1
9748 212 1
9748 423 1
9748 503 1
9748 9275 1
9749 364 1
9749 961 1
9749 1207 1
9749 7812 1
9750 39 1
9750 3609 1
9750 3933 1
9750 7941 1
9751 390 1
9751 3679 1
9751 6622 1
9751 6854 1
9752 31 1
9752 970 1
9752 1107 1
9752 4020 1
9753 769 1
9753 793 1
9753 1173 1
9753 2781 1
9754 17 1
9754 228 1
9754 5433 1
9754 6029 1
9755 63 1
9755 1041 1
9755 1286 1
9755 7886 1
9756 6 1
9756 690 1
9756 3071 1
9756 8254 1
9757 64 1
9757 2009 1
9757 3662 1
9757 8332 1
9758 430 1
9758 3039 1
9758 4090 1
9758 5638 1
9759 2 1
9759 1444 1
9759 5984 1
9759 6910 1
9760 835 1
9760 4274 1
9760 7393 1
9760 7904 1
9761 998 1
9761 1485 1
9761 7030 1
9761 7931 1
9762 2694 1
9762 3264 1
9762 5059 1
9762 6099 1
9763 139 1
9763 763 1
9763 1193 1
9763 4459 1
9764 557 1
9764 1474 1
9764 7422 1
9764 7878 1
9765 188 1
9765 1582 1
9765 6152 1
9765 6642 1
9766 1051 1
9766 1639 1
9766 3162 1
9766 4167 1
9767 14 1
9767 251 1
9767 4292 1
9767 4727 1
9768 117 1
9768 481 1
9768 1248 1
9768 4623 1
9769 399 1
9769 557 1
9769 6654 1
9769 9337 1
9770 87 1
9770 1825 1
9770 4564 1
9770 5226 1
9771 14 1
9771 66 1
9771 256 1
9771 3139 1
9772 159 1
9772 199 1
9772 1941 1
9772 9409 1
9773 2838 1
9773 3334 1
9773 4169 1
9773 7368 1
9774 17 1
9774 2304 1
9774 4540 1
9774 9127 1
9775 17 1
9775 1238 1
9775 3315 1
9775 6347 1
9776 70 1
9776 141 1
9776 254 1
9776 1539 1
9777 106 1
9777 575 1
9777 2354 1
9777 8022 1
9778 193 1
9778 245 1
9778 256 1
9778 8488 1
9779 167 1
9779 2113 1
9779 6179 1
9779 8223 1
9780 4391 1
9780 4487 1
9780 4915 1
9780 5100 1
9781 1797 1
9781 3803 1
9781 4015 1
9781 6844 1
9782 13 1
9782 3567 1
9782 4459 1
9782 7069 1
9783 60 1
9783 1912 1
9783 5984 1
9783 6421 1
9784 56 1
9784 3441 1
9784 4325 1
9784 5905 1
9785 250 1
9785 865 1
9785 916 1
9785 1529 1
9786 891 1
9786 907 1
9786 2107 1
9786 6086 1
9787 105 1
9787 145 1
9787 4667 1
9787 6922 1
9788 549 1
9788 5198 1
9788 6470 1
9788 7280 1
9789 382 1
9789 577 1
9789 2473 1
9789 6485 1
9789 9909 1
9790 43 1
9790 1872 1
9790 2482 1
9790 3245 1
9791 16 1
9791 243 1
9791 3954 1
9791 4566 1
9792 62 1
9792 1132 1
9792 3967 1
9792 7969 1
9793 78 1
9793 826 1
9793 2501 1
9793 4071 1
9794 730 1
9794 2417 1
9794 4130 1
9794 7026 1
9795 509 1
9795 2490 1
9795 4624 1
9795 6816 1
9796 196 1
9796 1000 1
9796 1167 1
9796 3183 1
9797 2556 1
9797 7504 1
9797 8305 1
9797 8525 1
9798 1211 1
9798 1716 1
9798 2209 1
9798 3281 1
9799 3 1
9799 2184 1
9799 4648 1
9799 5012 1
9800 275 1
9800 4744 1
9800 7282 1
9800 8858 1
9801 8 1
9801 488 1
9801 3223 1
9801 5279 1
9802 22 1
9802 2231 1
9802 2569 1
9802 7876 1
9803 376 1
9803 3836 1
9803 3896 1
9803 7782 1
9804 683 1
9804 1753 1
9804 2354 1
9804 5460 1
9805 63 1
9805 2086 1
9805 6591 1
9805 6769 1
9806 1518 1
9806 1576 1
9806 4550 1
9806 6749 1
9807 28 1
9807 36 1
9807 2992 1
9807 6712 1
9808 903 1
9808 1742 1
9808 2846 1
9808 6752 1
9809 411 1
9809 493 1
9809 3548 1
9809 6816 1
9810 1438 1
9810 5446 1
9810 5581 1
9810 7728 1
9811 4 1
9811 39 1
9811 1217 1
9811 2445 1
9812 499 1
9812 1958 1
9812 3378 1
9812 9339 1
9813 3115 1
9813 3614 1
9813 7344 1
9813 7407 1
9814 1811 1
9814 3208 1
9814 5283 1
9814 7896 1
9814 9982 1
9815 24 1
9815 2638 1
9815 4515 1
9815 5285 1
9816 785 1
9816 2046 1
9816 3433 1
9816 6719 1
9817 994 1
9817 3741 1
9817 6228 1
9817 8587 1
9818 209 1
9818 1425 1
9818 2401 1
9818 5196 1
9819 135 1
9819 722 1
9819 4849 1
9819 7339 1
9820 1030 1
9820 1970 1
9820 2905 1
9820 7327 1
9821 35 1
9821 45 1
9821 426 1
9821 3234 1
9822 1 1
9822 1183 1
9822 4971 1
9822 6572 1
9823 177 1
9823 987 1
9823 1607 1
9823 7816 1
9824 118 1
9824 2140 1
9824 2602 1
9824 7353 1
9825 37 1
9825 1826 1
9825 2387 1
9825 2471 1
9825 9834 1
9826 1970 1
9826 2576 1
9826 2853 1
9826 5179 1
9827 290 1
9827 1037 1
9827 1544 1
9827 8014 1
9828 122 1
9828 1675 1
9828 1724 1
9828 6231 1
9829 5 1
9829 516 1
9829 790 1
9829 1008 1
9830 436 1
9830 3234 1
9830 7208 1
9830 8229 1
9831 3 1
9831 1534 1
9831 2747 1
9831 6732 1
9832 67 1
9832 4245 1
9832 4247 1
9832 7512 1
9833 549 1
9833 885 1
9833 1193 1
9833 2045 1
9834 515 1
9834 1160 1
9834 2825 1
9834 9825 1
9835 47 1
9835 351 1
9835 3451 1
9835 4408 1
9836 5 1
9836 212 1
9836 230 1
9836 2504 1
9837 253 1
9837 1751 1
9837 7159 1
9837 9715 1
9838 1671 1
9838 3498 1
9838 5679 1
9838 9425 1
9839 477 1
9839 797 1
9839 7504 1
9839 9571 1
9840 838 1
9840 1088 1
9840 3244 1
9840 5693 1
9841 200 1
9841 3681 1
9841 4416 1
9841 6017 1
9842 240 1
9842 754 1
9842 3187 1
9842 9552 1
9843 360 1
9843 502 1
9843 4453 1
9843 6948 1
9844 120 1
9844 426 1
9844 2069 1
9844 6434 1
9845 6 1
9845 993 1
9845 2236 1
9845 4102 1
9846 20 1
9846 783 1
9846 1253 1
9846 6672 1
9847 61 1
9847 4413 1
9847 6864 1
9847 8692 1
9848 2064 1
9848 3383 1
9848 6523 1
9848 7215 1
9849 42 1
9849 1706 1
9849 5052 1
9849 7158 1
9850 316 1
9850 1032 1
9850 8087 1
9850 9720 1
9851 46 1
9851 301 1
9851 340 1
9851 534 1
9852 24 1
9852 4195 1
9852 6289 1
9852 8703 1
9853 66 1
9853 2984 1
9853 6956 1
9853 7026 1
9854 134 1
9854 3320 1
9854 8595 1
9854 9498 1
9855 3028 1
9855 6166 1
9855 8095 1
9855 8574 1
9856 36 1
9856 138 1
9856 1477 1
9856 1990 1
9857 312 1
9857 2365 1
9857 2683 1
9857 6124 1
9858 10 1
9858 1261 1
9858 4343 1
9858 8121 1
9859 301 1
9859 1387 1
9859 4852 1
9859 5835 1
9860 2335 1
9860 2856 1
9860 3127 1
9860 4953 1
9861 98 1
9861 1380 1
9861 1382 1
9861 6233 1
9862 286 1
9862 340 1
9862 4090 1
9862 8413 1
9863 10 1
9863 131 1
9863 6429 1
9863 9043 1
9864 3648 1
9864 4296 1
9864 5347 1
9864 8931 1
9865 362 1
9865 2775 1
9865 3657 1
9865 4419 1
9866 72 1
9866 188 1
9866 1699 1
9866 5766 1
9867 14 1
9867 89 1
9867 1403 1
9867 5391 1
9868 13 1
9868 5509 1
9868 7520 1
9868 9047 1
9869 190 1
9869 632 1
9869 641 1
9869 4790 1
9870 2950 1
9870 2978 1
9870 5423 1
9870 5519 1
9871 71 1
9871 1798 1
9871 5507 1
9871 6992 1
9872 17 1
9872 240 1
9872 5603 1
9872 5904 1
9873 1261 1
9873 1791 1
9873 2029 1
9873 2629 1
9874 58 1
9874 2881 1
9874 4867 1
9874 9562 1
9875 31 1
9875 86 1
9875 273 1
9875 6807 1
9876 6 1
9876 74 1
9876 1242 1
9876 5678 1
9877 1839 1
9877 2069 1
9877 7345 1
9877 9320 1
9878 891 1
9878 1449 1
9878 5284 1
9878 6074 1
9879 328 1
9879 3433 1
9879 4294 1
9879 8872 1
9880 306 1
9880 1873 1
9880 3728 1
9880 4142 1
9881 10 1
9881 1783 1
9881 5458 1
9881 8384 1
9882 78 1
9882 602 1
9882 4113 1
9882 6033 1
9883 41 1
9883 83 1
9883 5557 1
9883 6819 1
9884 2628 1
9884 4456 1
9884 5761 1
9884 6249 1
9885 2409 1
9885 2944 1
9885 4224 1
9885 4330 1
9886 918 1
9886 938 1
9886 2165 1
9886 6978 1
9887 6 1
9887 917 1
9887 3059 1
9887 9040 1
9888 1163 1
9888 6709 1
9888 6885 1
9888 7886 1
9889 455 1
9889 2834 1
9889 3752 1
9889 8034 1
9890 1911 1
9890 4269 1
9890 7724 1
9890 9296 1
9891 921 1
9891 1772 1
9891 3206 1
9891 3943 1
9892 15 1
9892 468 1
9892 1175 1
9892 2015 1
9893 13 1
9893 2831 1
9893 4692 1
9893 8532 1
9894 133 1
9894 335 1
9894 2821 1
9894 8806 1
9895 667 1
9895 1905 1
9895 2503 1
9895 4925 1
9895 9968 1
9896 840 1
9896 1079 1
9896 4858 1
9896 5998 1
9897 571 1
9897 842 1
9897 2489 1
9897 3670 1
9898 117 1
9898 1306 1
9898 3989 1
9898 4147 1
9899 3164 1
9899 8067 1
9899 8670 1
9899 9546 1
9900 1198 1
9900 1232 1
9900 3766 1
9900 4040 1
9901 105 1
9901 241 1
9901 2786 1
9901 3577 1
9902 199 1
9902 5395 1
9902 5919 1
9902 6365 1
9903 9 1
9903 2160 1
9903 6007 1
9903 6367 1
9904 431 1
9904 1435 1
9904 5103 1
9904 7152 1
9905 120 1
9905 606 1
9905 1090 1
9905 6183 1
9906 671 1
9906 2948 1
9906 4343 1
9906 6772 1
9907 2614 1
9907 3623 1
9907 4251 1
9907 4448 1
9908 10 1
9908 2382 1
9908 3364 1
9908 8970 1
9909 1407 1
9909 1677 1
9909 5874 1
9909 9789 1
9910 694 1
9910 761 1
9910 8159 1
9910 8403 1
9911 566 1
9911 924 1
9911 1773 1
9911 3018 1
9912 1569 1
9912 1860 1
9912 2363 1
9912 6922 1
9913 814 1
9913 1555 1
9913 4338 1
9913 5548 1
9914 11 1
9914 539 1
9914 5267 1
9914 7454 1
9915 145 1
9915 351 1
9915 759 1
9915 3513 1
9916 16 1
9916 97 1
9916 7177 1
9916 8600 1
9917 3 1
9917 401 1
9917 2409 1
9917 8644 1
9918 1725 1
9918 3059 1
9918 3420 1
9918 6704 1
9919 1 1
9919 1041 1
9919 3378 1
9919 4939 1
9920 52 1
9920 1792 1
9920 1858 1
9920 2236 1
9921 75 1
9921 514 1
9921 4726 1
9921 4969 1
9922 638 1
9922 853 1
9922 3580 1
9922 8526 1
9923 1161 1
9923 5581 1
9923 7590 1
9923 9487 1
9924 869 1
9924 1366 1
9924 5020 1
9924 6763 1
9925 2249 1
9925 3319 1
9925 5764 1
9925 5944 1
9926 514 1
9926 850 1
9926 2126 1
9926 2561 1
9927 148 1
9927 1175 1
9927 1490 1
9927 5575 1
9928 390 1
9928 836 1
9928 3575 1
9928 8798 1
9929 193 1
9929 1271 1
9929 3214 1
9929 9407 1
9930 826 1
9930 3391 1
9930 3587 1
9930 8256 1
9931 42 1
9931 984 1
9931 3804 1
9931 6349 1
9932 21 1
9932 891 1
9932 3307 1
9932 5998 1
9933 1379 1
9933 3043 1
9933 7156 1
9933 9331 1
9934 18 1
9934 227 1
9934 580 1
9934 4014 1
9935 23 1
9935 1481 1
9935 2144 1
9935 3872 1
9936 1487 1
9936 4307 1
9936 4821 1
9936 8770 1
9937 179 1
9937 271 1
9937 3441 1
9937 3786 1
9938 1133 1
9938 1472 1
9938 4236 1
9938 4699 1
9939 100 1
9939 427 1
9939 1847 1
9939 6302 1
9940 46 1
9940 52 1
9940 1723 1
9940 1896 1
9941 37 1
9941 869 1
9941 1535 1
9941 2693 1
9942 529 1
9942 2780 1
9942 3061 1
9942 3613 1
9943 17 1
9943 200 1
9943 6131 1
9943 9464 1
9944 265 1
9944 375 1
9944 2797 1
9944 3309 1
9945 843 1
9945 4709 1
9945 5261 1
9945 5717 1
9946 13 1
9946 19 1
9946 139 1
9946 3553 1
9947 246 1
9947 3663 1
9947 7217 1
9947 8750 1
9948 279 1
9948 1608 1
9948 3451 1
9948 7346 1
9949 1260 1
9949 1729 1
9949 2982 1
9949 6411 1
9950 20 1
9950 139 1
9950 7445 1
9950 8447 1
9951 116 1
9951 3126 1
9951 5861 1
9951 7179 1
9952 214 1
9952 2809 1
9952 4711 1
9952 5663 1
9953 104 1
9953 149 1
9953 930 1
9953 8868 1
9954 13 1
9954 40 1
9954 1715 1
9954 1833 1
9955 523 1
9955 3148 1
9955 4466 1
9955 6026 1
9956 78 1
9956 2778 1
9956 7329 1
9956 9674 1
9957 1231 1
9957 1399 1
9957 2685 1
9957 3200 1
9958 14 1
9958 271 1
9958 303 1
9958 9287 1
9959 19 1
9959 4230 1
9959 6523 1
9959 8923 1
9960 1223 1
9960 3903 1
9960 4129 1
9960 8128 1
9961 21 1
9961 182 1
9961 1058 1
9961 9464 1
9962 98 1
9962 2381 1
9962 3852 1
9962 6121 1
9963 468 1
9963 1792 1
9963 3148 1
9963 7067 1
9964 491 1
9964 633 1
9964 3815 1
9964 7298 1
9965 13 1
9965 305 1
9965 3572 1
9965 8143 1
9966 259 1
9966 280 1
9966 1020 1
9966 3845 1
9967 16 1
9967 1343 1
9967 3337 1
9967 3628 1
9968 210 1
9968 759 1
9968 2983 1
9968 9895 1
9969 1621 1
9969 2086 1
9969 3196 1
9969 5677 1
9970 156 1
9970 373 1
9970 2516 1
9970 6647 1
9971 813 1
9971 1233 1
9971 4707 1
9971 6307 1
9972 796 1
9972 2903 1
9972 4416 1
9972 7071 1
9973 147 1
9973 1545 1
9973 1815 1
9973 3362 1
9974 1479 1
9974 2835 1
9974 4386 1
9974 9201 1
9975 732 1
9975 6119 1
9975 7164 1
9975 7763 1
9976 3272 1
9976 4197 1
9976 5923 1
9976 7130 1
9977 330 1
9977 4375 1
9977 7431 1
9977 8594 1
9978 1357 1
9978 2524 1
9978 7143 1
9978 7729 1
9979 595 1
9979 978 1
9979 7505 1
9979 8143 1
9980 37 1
9980 2636 1
9980 2645 1
9980 5102 1
9981 1637 1
9981 3073 1
9981 3183 1
9981 9083 1
9982 2470 1
9982 3798 1
9982 7507 1
9982 9814 1
9983 732 1
9983 1250 1
9983 5386 1
9983 6429 1
9984 306 1
9984 518 1
9984 1092 1
9984 6158 1
9985 361 1
9985 775 1
9985 1396 1
9985 3548 1
9986 405 1
9986 2141 1
9986 2715 1
9986 5902 1
9987 219 1
9987 341 1
9987 1633 1
9987 3288 1
9988 600 1
9988 6564 1
9988 8909 1
9988 8924 1
9989 194 1
9989 969 1
9989 5194 1
9989 6948 1
9990 36 1
9990 1253 1
9990 2714 1
9990 6540 1
9991 67 1
9991 1395 1
9991 2270 1
9991 6891 1
9992 95 1
9992 314 1
9992 1849 1
9992 4024 1
9993 185 1
9993 335 1
9993 616 1
9993 733 1
9994 398 1
9994 1197 1
9994 7828 1
9994 9130 1
9995 74 1
9995 124 1
9995 8349 1
9995 8610 1
9996 11 1
9996 13 1
9996 378 1
9996 2005 1
9997 86 1
9997 386 1
9997 739 1
9997 1710 1
9998 22 1
9998 140 1
9998 4295 1
9998 5446 1
9999 102 1
9999 483 1
9999 1726 1
9999 6360 1
10000 625 1
10000 900 1
10000 1286 1
10000 4090 1
