%%MatrixMarket matrix coordinate integer general
%
1000 1000 7968
1 2 1
1 3 1
1 4 1
1 5 1
1 6 1
1 7 1
1 8 1
1 9 1
1 10 1
1 19 1
1 20 1
1 25 1
1 26 1
1 29 1
1 30 1
1 31 1
1 33 1
1 35 1
1 42 1
1 53 1
1 58 1
1 63 1
1 88 1
1 103 1
1 121 1
1 126 1
1 137 1
1 151 1
1 164 1
1 166 1
1 168 1
1 177 1
1 184 1
1 206 1
1 227 1
1 233 1
1 238 1
1 248 1
1 252 1
1 253 1
1 260 1
1 266 1
1 271 1
1 273 1
1 274 1
1 276 1
1 294 1
1 296 1
1 298 1
1 302 1
1 305 1
1 311 1
1 328 1
1 331 1
1 336 1
1 354 1
1 355 1
1 371 1
1 374 1
1 378 1
1 381 1
1 388 1
1 395 1
1 403 1
1 430 1
1 439 1
1 494 1
1 501 1
1 509 1
1 542 1
1 543 1
1 549 1
1 552 1
1 576 1
1 647 1
1 659 1
1 677 1
1 689 1
1 691 1
1 708 1
1 769 1
1 770 1
1 814 1
1 816 1
1 840 1
1 870 1
1 872 1
1 887 1
1 921 1
1 931 1
1 945 1
1 959 1
1 975 1
1 982 1
2 1 1
2 6 1
2 9 1
2 13 1
2 16 1
2 26 1
2 27 1
2 43 1
2 96 1
2 125 1
2 133 1
2 145 1
2 155 1
2 258 1
2 311 1
2 419 1
2 431 1
2 455 1
2 631 1
2 673 1
2 679 1
2 742 1
2 774 1
2 915 1
2 938 1
2 971 1
3 1 1
3 6 1
3 7 1
3 10 1
3 12 1
3 15 1
3 16 1
3 20 1
3 25 1
3 27 1
3 30 1
3 37 1
3 39 1
3 40 1
3 41 1
3 44 1
3 47 1
3 51 1
3 56 1
3 61 1
3 65 1
3 68 1
3 92 1
3 94 1
3 97 1
3 99 1
3 100 1
3 103 1
3 109 1
3 114 1
3 148 1
3 157 1
3 158 1
3 167 1
3 172 1
3 173 1
3 188 1
3 189 1
3 197 1
3 200 1
3 222 1
3 225 1
3 237 1
3 250 1
3 257 1
3 258 1
3 297 1
3 299 1
3 317 1
3 335 1
3 391 1
3 392 1
3 421 1
3 468 1
3 513 1
3 549 1
3 555 1
3 563 1
3 587 1
3 603 1
3 615 1
3 628 1
3 667 1
3 704 1
3 715 1
3 752 1
3 782 1
3 840 1
3 866 1
3 930 1
3 946 1
3 996 1
4 1 1
4 6 1
4 8 1
4 10 1
4 12 1
4 13 1
4 55 1
4 59 1
4 82 1
4 105 1
4 148 1
4 193 1
4 249 1
4 254 1
4 262 1
4 292 1
4 332 1
4 398 1
4 431 1
4 433 1
4 436 1
4 442 1
4 444 1
4 460 1
4 493 1
4 534 1
4 582 1
4 625 1
4 663 1
4 877 1
4 912 1
5 1 1
5 7 1
5 8 1
5 11 1
5 12 1
5 14 1
5 17 1
5 22 1
5 23 1
5 31 1
5 45 1
5 50 1
5 61 1
5 68 1
5 72 1
5 75 1
5 81 1
5 90 1
5 97 1
5 102 1
5 116 1
5 117 1
5 124 1
5 131 1
5 132 1
5 137 1
5 140 1
5 151 1
5 172 1
5 174 1
5 198 1
5 203 1
5 210 1
5 229 1
5 260 1
5 270 1
5 286 1
5 290 1
5 300 1
5 323 1
5 356 1
5 358 1
5 380 1
5 423 1
5 425 1
5 483 1
5 498 1
5 509 1
5 513 1
5 515 1
5 519 1
5 548 1
5 564 1
5 569 1
5 570 1
5 572 1
5 598 1
5 621 1
5 631 1
5 670 1
5 674 1
5 678 1
5 691 1
5 707 1
5 733 1
5 777 1
5 793 1
5 805 1
5 831 1
5 856 1
5 868 1
5 904 1
5 932 1
5 947 1
5 960 1
5 969 1
5 983 1
6 1 1
6 2 1
6 3 1
6 4 1
6 7 1
6 8 1
6 9 1
6 11 1
6 14 1
6 15 1
6 17 1
6 18 1
6 22 1
6 26 1
6 27 1
6 30 1
6 31 1
6 32 1
6 33 1
6 34 1
6 36 1
6 47 1
6 48 1
6 53 1
6 54 1
6 56 1
6 57 1
6 62 1
6 63 1
6 65 1
6 69 1
6 72 1
6 73 1
6 76 1
6 81 1
6 82 1
6 93 1
6 97 1
6 98 1
6 103 1
6 109 1
6 129 1
6 141 1
6 143 1
6 159 1
6 171 1
6 173 1
6 201 1
6 231 1
6 240 1
6 242 1
6 247 1
6 249 1
6 254 1
6 257 1
6 259 1
6 261 1
6 263 1
6 275 1
6 276 1
6 279 1
6 282 1
6 283 1
6 306 1
6 318 1
6 337 1
6 343 1
6 345 1
6 346 1
6 351 1
6 352 1
6 371 1
6 375 1
6 380 1
6 385 1
6 394 1
6 403 1
6 410 1
6 414 1
6 415 1
6 435 1
6 463 1
6 464 1
6 473 1
6 485 1
6 487 1
6 489 1
6 492 1
6 499 1
6 508 1
6 509 1
6 527 1
6 570 1
6 575 1
6 605 1
6 609 1
6 612 1
6 624 1
6 633 1
6 635 1
6 641 1
6 649 1
6 652 1
6 681 1
6 692 1
6 714 1
6 718 1
6 724 1
6 740 1
6 751 1
6 776 1
6 779 1
6 798 1
6 799 1
6 817 1
6 862 1
6 863 1
6 880 1
6 888 1
6 893 1
6 902 1
6 915 1
6 922 1
6 948 1
6 956 1
6 970 1
6 979 1
7 1 1
7 3 1
7 5 1
7 6 1
7 11 1
7 13 1
7 14 1
7 15 1
7 17 1
7 23 1
7 30 1
7 32 1
7 33 1
7 48 1
7 49 1
7 50 1
7 58 1
7 70 1
7 78 1
7 86 1
7 87 1
7 104 1
7 108 1
7 133 1
7 139 1
7 140 1
7 154 1
7 158 1
7 165 1
7 183 1
7 186 1
7 187 1
7 194 1
7 198 1
7 200 1
7 212 1
7 213 1
7 240 1
7 275 1
7 317 1
7 330 1
7 339 1
7 414 1
7 418 1
7 447 1
7 460 1
7 461 1
7 525 1
7 544 1
7 551 1
7 571 1
7 583 1
7 592 1
7 646 1
7 715 1
7 828 1
7 847 1
7 860 1
7 918 1
7 928 1
7 937 1
7 939 1
7 956 1
7 988 1
8 1 1
8 4 1
8 5 1
8 6 1
8 9 1
8 10 1
8 12 1
8 19 1
8 24 1
8 26 1
8 27 1
8 29 1
8 40 1
8 45 1
8 50 1
8 57 1
8 60 1
8 65 1
8 66 1
8 70 1
8 72 1
8 79 1
8 83 1
8 89 1
8 91 1
8 98 1
8 100 1
8 104 1
8 115 1
8 118 1
8 126 1
8 143 1
8 145 1
8 149 1
8 169 1
8 192 1
8 194 1
8 195 1
8 207 1
8 209 1
8 212 1
8 215 1
8 226 1
8 235 1
8 238 1
8 247 1
8 250 1
8 256 1
8 272 1
8 281 1
8 290 1
8 295 1
8 305 1
8 343 1
8 344 1
8 360 1
8 394 1
8 399 1
8 413 1
8 417 1
8 426 1
8 428 1
8 438 1
8 449 1
8 452 1
8 454 1
8 456 1
8 459 1
8 494 1
8 497 1
8 525 1
8 561 1
8 562 1
8 569 1
8 571 1
8 649 1
8 655 1
8 708 1
8 732 1
8 737 1
8 747 1
8 806 1
8 807 1
8 808 1
8 813 1
8 816 1
8 832 1
8 850 1
8 940 1
8 969 1
8 995 1
9 1 1
9 2 1
9 6 1
9 8 1
9 13 1
9 15 1
9 16 1
9 21 1
9 22 1
9 28 1
9 35 1
9 36 1
9 49 1
9 51 1
9 52 1
9 67 1
9 73 1
9 90 1
9 113 1
9 122 1
9 124 1
9 134 1
9 136 1
9 152 1
9 166 1
9 186 1
9 208 1
9 214 1
9 218 1
9 227 1
9 267 1
9 319 1
9 321 1
9 357 1
9 358 1
9 365 1
9 376 1
9 387 1
9 409 1
9 460 1
9 461 1
9 467 1
9 484 1
9 491 1
9 520 1
9 552 1
9 612 1
9 628 1
9 673 1
9 710 1
9 719 1
9 737 1
9 740 1
9 750 1
9 824 1
9 873 1
9 883 1
9 893 1
9 950 1
9 964 1
10 1 1
10 3 1
10 4 1
10 8 1
10 11 1
10 14 1
10 17 1
10 18 1
10 20 1
10 21 1
10 22 1
10 28 1
10 29 1
10 32 1
10 36 1
10 42 1
10 44 1
10 66 1
10 69 1
10 71 1
10 74 1
10 81 1
10 87 1
10 92 1
10 105 1
10 107 1
10 121 1
10 146 1
10 147 1
10 149 1
10 159 1
10 162 1
10 167 1
10 171 1
10 176 1
10 191 1
10 206 1
10 213 1
10 219 1
10 229 1
10 265 1
10 273 1
10 287 1
10 290 1
10 298 1
10 311 1
10 322 1
10 326 1
10 331 1
10 374 1
10 393 1
10 397 1
10 401 1
10 411 1
10 426 1
10 428 1
10 449 1
10 538 1
10 550 1
10 555 1
10 564 1
10 577 1
10 581 1
10 589 1
10 597 1
10 634 1
10 711 1
10 713 1
10 715 1
10 734 1
10 758 1
10 793 1
10 826 1
10 839 1
10 853 1
11 5 1
11 6 1
11 7 1
11 10 1
11 16 1
11 23 1
11 24 1
11 28 1
11 34 1
11 41 1
11 51 1
11 52 1
11 64 1
11 76 1
11 79 1
11 89 1
11 92 1
11 94 1
11 102 1
11 106 1
11 115 1
11 144 1
11 163 1
11 196 1
11 226 1
11 229 1
11 268 1
11 300 1
11 304 1
11 368 1
11 373 1
11 406 1
11 417 1
11 484 1
11 493 1
11 504 1
11 529 1
11 531 1
11 534 1
11 596 1
11 619 1
11 624 1
11 638 1
11 680 1
11 684 1
11 686 1
11 793 1
11 814 1
11 844 1
11 891 1
11 901 1
11 903 1
11 975 1
11 976 1
12 3 1
12 4 1
12 5 1
12 8 1
12 18 1
12 19 1
12 38 1
12 83 1
12 117 1
12 172 1
12 309 1
12 320 1
12 329 1
12 336 1
12 349 1
12 486 1
12 601 1
12 682 1
12 741 1
12 854 1
12 983 1
13 2 1
13 4 1
13 7 1
13 9 1
13 31 1
13 43 1
13 45 1
13 59 1
13 80 1
13 102 1
13 120 1
13 131 1
13 145 1
13 262 1
13 302 1
13 305 1
13 346 1
13 360 1
13 363 1
13 378 1
13 555 1
13 651 1
13 662 1
13 709 1
13 908 1
13 971 1
14 5 1
14 6 1
14 7 1
14 10 1
14 129 1
14 467 1
14 470 1
14 507 1
14 568 1
14 578 1
14 624 1
14 791 1
14 807 1
14 944 1
14 999 1
15 3 1
15 6 1
15 7 1
15 9 1
15 18 1
15 23 1
15 24 1
15 42 1
15 43 1
15 46 1
15 64 1
15 67 1
15 76 1
15 85 1
15 87 1
15 113 1
15 117 1
15 136 1
15 138 1
15 147 1
15 152 1
15 164 1
15 185 1
15 196 1
15 208 1
15 214 1
15 217 1
15 248 1
15 265 1
15 271 1
15 284 1
15 401 1
15 403 1
15 442 1
15 463 1
15 476 1
15 489 1
15 513 1
15 533 1
15 558 1
15 583 1
15 587 1
15 603 1
15 649 1
15 684 1
15 701 1
15 721 1
15 727 1
15 764 1
15 809 1
15 822 1
15 834 1
15 838 1
15 906 1
15 918 1
15 947 1
15 961 1
15 972 1
15 978 1
15 992 1
16 2 1
16 3 1
16 9 1
16 11 1
16 19 1
16 21 1
16 37 1
16 46 1
16 53 1
16 98 1
16 104 1
16 110 1
16 130 1
16 135 1
16 172 1
16 197 1
16 244 1
16 277 1
16 283 1
16 308 1
16 352 1
16 407 1
16 462 1
16 484 1
16 594 1
16 610 1
16 636 1
16 644 1
16 647 1
16 771 1
16 786 1
16 885 1
16 939 1
16 943 1
17 5 1
17 6 1
17 7 1
17 10 1
17 24 1
17 25 1
17 34 1
17 35 1
17 44 1
17 46 1
17 49 1
17 88 1
17 158 1
17 181 1
17 198 1
17 228 1
17 242 1
17 287 1
17 398 1
17 427 1
17 524 1
17 540 1
17 542 1
17 547 1
17 568 1
17 584 1
17 625 1
17 888 1
17 941 1
17 945 1
18 6 1
18 10 1
18 12 1
18 15 1
18 34 1
18 55 1
18 78 1
18 80 1
18 83 1
18 88 1
18 97 1
18 129 1
18 170 1
18 180 1
18 183 1
18 213 1
18 224 1
18 230 1
18 232 1
18 237 1
18 238 1
18 247 1
18 252 1
18 300 1
18 303 1
18 397 1
18 492 1
18 506 1
18 589 1
18 597 1
18 688 1
18 697 1
18 734 1
18 843 1
18 863 1
18 951 1
18 954 1
19 1 1
19 8 1
19 12 1
19 16 1
19 20 1
19 63 1
19 77 1
19 95 1
19 112 1
19 162 1
19 357 1
19 359 1
19 383 1
19 389 1
19 465 1
19 554 1
19 766 1
19 893 1
19 942 1
20 1 1
20 3 1
20 10 1
20 19 1
20 21 1
20 104 1
20 122 1
20 141 1
20 217 1
20 353 1
20 378 1
20 426 1
20 863 1
21 9 1
21 10 1
21 16 1
21 20 1
21 25 1
21 72 1
21 184 1
21 267 1
21 281 1
21 337 1
21 974 1
21 986 1
22 5 1
22 6 1
22 9 1
22 10 1
22 59 1
22 75 1
22 77 1
22 82 1
22 91 1
22 109 1
22 137 1
22 188 1
22 223 1
22 278 1
22 286 1
22 293 1
22 313 1
22 326 1
22 339 1
22 363 1
22 419 1
22 429 1
22 432 1
22 453 1
22 462 1
22 479 1
22 555 1
22 567 1
22 575 1
22 591 1
22 614 1
22 686 1
22 710 1
22 762 1
22 801 1
22 818 1
22 853 1
23 5 1
23 7 1
23 11 1
23 15 1
23 29 1
23 32 1
23 54 1
23 57 1
23 66 1
23 74 1
23 229 1
23 262 1
23 315 1
23 321 1
23 401 1
23 415 1
23 475 1
23 478 1
23 506 1
23 573 1
23 616 1
23 727 1
23 802 1
23 898 1
23 920 1
23 973 1
24 8 1
24 11 1
24 15 1
24 17 1
24 28 1
24 38 1
24 41 1
24 47 1
24 93 1
24 94 1
24 99 1
24 114 1
24 136 1
24 180 1
24 213 1
24 216 1
24 241 1
24 272 1
24 305 1
24 359 1
24 394 1
24 399 1
24 409 1
24 410 1
24 416 1
24 482 1
24 485 1
24 505 1
24 696 1
24 738 1
24 798 1
24 828 1
24 839 1
24 872 1
24 902 1
24 914 1
24 933 1
24 943 1
24 974 1
24 977 1
25 1 1
25 3 1
25 17 1
25 21 1
25 36 1
25 45 1
25 48 1
25 56 1
25 61 1
25 67 1
25 88 1
25 110 1
25 177 1
25 207 1
25 216 1
25 218 1
25 249 1
25 252 1
25 255 1
25 291 1
25 407 1
25 486 1
25 665 1
25 666 1
25 680 1
25 696 1
25 700 1
25 726 1
25 923 1
26 1 1
26 2 1
26 6 1
26 8 1
26 50 1
26 58 1
26 77 1
26 78 1
26 85 1
26 161 1
26 191 1
26 227 1
26 308 1
26 436 1
26 440 1
26 475 1
26 502 1
26 540 1
26 563 1
26 616 1
26 682 1
26 688 1
26 703 1
26 791 1
26 931 1
26 949 1
26 953 1
27 2 1
27 3 1
27 6 1
27 8 1
27 37 1
27 38 1
27 52 1
27 54 1
27 112 1
27 127 1
27 182 1
27 221 1
27 301 1
27 446 1
27 482 1
27 873 1
27 947 1
27 988 1
28 9 1
28 10 1
28 11 1
28 24 1
28 75 1
28 90 1
28 105 1
28 146 1
28 154 1
28 189 1
28 239 1
28 277 1
28 413 1
28 424 1
28 453 1
28 573 1
28 632 1
28 643 1
28 744 1
28 764 1
28 802 1
29 1 1
29 8 1
29 10 1
29 23 1
29 39 1
29 40 1
29 47 1
29 170 1
29 220 1
29 296 1
29 367 1
29 372 1
29 438 1
29 621 1
29 713 1
29 955 1
29 981 1
30 1 1
30 3 1
30 6 1
30 7 1
30 33 1
30 48 1
30 49 1
30 86 1
30 95 1
30 111 1
30 113 1
30 147 1
30 149 1
30 230 1
30 288 1
30 299 1
30 316 1
30 345 1
30 370 1
30 403 1
30 421 1
30 487 1
30 554 1
30 592 1
30 645 1
30 769 1
30 817 1
30 876 1
31 1 1
31 5 1
31 6 1
31 13 1
31 35 1
31 38 1
31 134 1
31 140 1
31 211 1
31 442 1
31 452 1
31 675 1
31 729 1
31 742 1
31 751 1
31 825 1
32 6 1
32 7 1
32 10 1
32 23 1
32 37 1
32 116 1
32 242 1
32 274 1
32 334 1
32 431 1
32 474 1
32 501 1
32 552 1
32 717 1
32 821 1
32 866 1
32 881 1
32 908 1
32 913 1
32 934 1
33 1 1
33 6 1
33 7 1
33 30 1
33 39 1
33 91 1
33 100 1
33 119 1
33 122 1
33 139 1
33 152 1
33 160 1
33 178 1
33 217 1
33 261 1
33 282 1
33 301 1
33 370 1
33 376 1
33 420 1
33 434 1
33 490 1
33 512 1
33 594 1
33 626 1
33 644 1
33 686 1
33 717 1
33 743 1
34 6 1
34 11 1
34 17 1
34 18 1
34 42 1
34 55 1
34 119 1
34 121 1
34 134 1
34 251 1
34 257 1
34 273 1
34 409 1
34 418 1
34 453 1
34 463 1
34 556 1
34 612 1
34 745 1
34 759 1
34 795 1
34 980 1
35 1 1
35 9 1
35 17 1
35 31 1
35 39 1
35 43 1
35 62 1
35 65 1
35 66 1
35 70 1
35 95 1
35 106 1
35 114 1
35 207 1
35 210 1
35 215 1
35 221 1
35 228 1
35 236 1
35 244 1
35 267 1
35 282 1
35 313 1
35 350 1
35 455 1
35 476 1
35 498 1
35 521 1
35 553 1
35 642 1
35 738 1
35 771 1
35 818 1
35 899 1
35 933 1
36 6 1
36 9 1
36 10 1
36 25 1
36 55 1
36 208 1
36 258 1
36 269 1
36 307 1
36 669 1
36 749 1
36 857 1
36 879 1
36 912 1
36 926 1
37 3 1
37 16 1
37 27 1
37 32 1
37 40 1
37 41 1
37 51 1
37 96 1
37 106 1
37 115 1
37 160 1
37 314 1
37 347 1
37 436 1
37 445 1
37 480 1
37 497 1
37 576 1
37 609 1
37 675 1
37 799 1
37 800 1
37 845 1
38 12 1
38 24 1
38 27 1
38 31 1
38 64 1
38 176 1
38 178 1
38 186 1
38 258 1
38 297 1
38 308 1
38 342 1
38 405 1
38 458 1
38 602 1
38 619 1
38 642 1
38 716 1
38 965 1
38 991 1
39 3 1
39 29 1
39 33 1
39 35 1
39 64 1
39 68 1
39 112 1
39 118 1
39 190 1
39 208 1
39 266 1
39 271 1
39 272 1
39 274 1
39 310 1
39 366 1
39 388 1
39 395 1
39 398 1
39 481 1
39 560 1
39 663 1
39 678 1
39 806 1
39 828 1
39 890 1
40 3 1
40 8 1
40 29 1
40 37 1
40 44 1
40 62 1
40 96 1
40 109 1
40 149 1
40 171 1
40 455 1
40 864 1
40 885 1
40 925 1
41 3 1
41 11 1
41 24 1
41 37 1
41 46 1
41 54 1
41 63 1
41 82 1
41 86 1
41 128 1
41 132 1
41 157 1
41 202 1
41 212 1
41 291 1
41 296 1
41 328 1
41 366 1
41 394 1
41 404 1
41 412 1
41 424 1
41 461 1
41 464 1
41 465 1
41 508 1
41 653 1
41 690 1
41 693 1
41 769 1
41 784 1
41 795 1
41 820 1
41 882 1
41 927 1
41 941 1
42 1 1
42 10 1
42 15 1
42 34 1
42 101 1
42 117 1
42 193 1
42 204 1
42 209 1
42 224 1
42 531 1
42 668 1
42 675 1
42 690 1
42 765 1
43 2 1
43 13 1
43 15 1
43 35 1
43 90 1
43 123 1
43 185 1
43 239 1
43 251 1
43 349 1
43 724 1
43 822 1
43 857 1
44 3 1
44 10 1
44 17 1
44 40 1
44 52 1
44 79 1
44 87 1
44 92 1
44 106 1
44 132 1
44 138 1
44 187 1
44 192 1
44 249 1
44 255 1
44 362 1
44 412 1
44 425 1
44 495 1
44 533 1
44 557 1
44 572 1
44 702 1
44 706 1
44 745 1
44 783 1
44 812 1
44 830 1
44 940 1
45 5 1
45 8 1
45 13 1
45 25 1
45 62 1
45 69 1
45 75 1
45 93 1
45 103 1
45 118 1
45 119 1
45 185 1
45 209 1
45 217 1
45 285 1
45 307 1
45 314 1
45 325 1
45 333 1
45 382 1
45 437 1
45 547 1
45 590 1
45 614 1
45 620 1
45 669 1
45 687 1
45 771 1
45 781 1
45 783 1
45 844 1
45 906 1
46 15 1
46 16 1
46 17 1
46 41 1
46 60 1
46 70 1
46 85 1
46 111 1
46 123 1
46 134 1
46 155 1
46 223 1
46 329 1
46 336 1
46 658 1
46 661 1
46 683 1
46 687 1
46 725 1
46 745 1
46 746 1
46 758 1
47 3 1
47 6 1
47 24 1
47 29 1
47 60 1
47 153 1
47 637 1
47 681 1
48 6 1
48 7 1
48 25 1
48 30 1
48 57 1
48 60 1
48 84 1
48 94 1
48 99 1
48 120 1
48 125 1
48 130 1
48 132 1
48 139 1
48 155 1
48 157 1
48 174 1
48 180 1
48 193 1
48 218 1
48 219 1
48 233 1
48 234 1
48 247 1
48 289 1
48 299 1
48 303 1
48 327 1
48 379 1
48 389 1
48 410 1
48 411 1
48 438 1
48 474 1
48 482 1
48 507 1
48 579 1
48 588 1
48 636 1
48 708 1
48 711 1
48 723 1
48 844 1
49 7 1
49 9 1
49 17 1
49 30 1
49 53 1
49 59 1
49 74 1
49 80 1
49 95 1
49 136 1
49 152 1
49 159 1
49 199 1
49 200 1
49 225 1
49 228 1
49 235 1
49 253 1
49 269 1
49 294 1
49 304 1
49 504 1
49 524 1
49 564 1
49 634 1
49 671 1
49 768 1
49 784 1
49 810 1
49 859 1
49 940 1
49 986 1
50 5 1
50 7 1
50 8 1
50 26 1
50 56 1
50 67 1
50 69 1
50 71 1
50 123 1
50 142 1
50 154 1
50 169 1
50 202 1
50 228 1
50 241 1
50 259 1
50 268 1
50 344 1
50 400 1
50 467 1
50 491 1
51 3 1
51 9 1
51 11 1
51 37 1
51 356 1
52 9 1
52 11 1
52 27 1
52 44 1
52 240 1
52 278 1
52 283 1
52 337 1
52 579 1
53 1 1
53 6 1
53 16 1
53 49 1
53 58 1
53 79 1
53 80 1
53 83 1
53 113 1
53 124 1
53 127 1
53 169 1
53 210 1
53 231 1
53 279 1
53 343 1
53 384 1
53 385 1
53 404 1
53 527 1
53 528 1
53 643 1
53 700 1
53 930 1
53 978 1
54 6 1
54 23 1
54 27 1
54 41 1
54 352 1
55 4 1
55 18 1
55 34 1
55 36 1
55 71 1
55 85 1
55 111 1
55 121 1
55 195 1
55 316 1
55 321 1
55 434 1
55 695 1
55 749 1
56 3 1
56 6 1
56 25 1
56 50 1
56 107 1
56 167 1
56 220 1
56 232 1
56 284 1
56 400 1
56 525 1
56 577 1
56 698 1
56 867 1
56 909 1
57 6 1
57 8 1
57 23 1
57 48 1
57 84 1
57 429 1
57 444 1
57 450 1
57 583 1
57 633 1
57 657 1
57 673 1
57 937 1
57 951 1
58 1 1
58 7 1
58 26 1
58 53 1
58 76 1
58 445 1
58 500 1
58 544 1
58 640 1
59 4 1
59 13 1
59 22 1
59 49 1
59 98 1
59 127 1
59 128 1
59 168 1
59 352 1
59 485 1
59 706 1
60 8 1
60 46 1
60 47 1
60 48 1
60 61 1
60 84 1
60 204 1
60 307 1
60 428 1
60 497 1
60 499 1
60 709 1
61 3 1
61 5 1
61 25 1
61 60 1
61 99 1
61 184 1
61 207 1
61 231 1
61 353 1
61 395 1
61 478 1
61 525 1
61 569 1
61 677 1
61 702 1
61 778 1
61 989 1
62 6 1
62 35 1
62 40 1
62 45 1
62 68 1
62 168 1
62 215 1
62 268 1
62 414 1
62 541 1
62 562 1
62 586 1
62 725 1
62 821 1
62 922 1
63 1 1
63 6 1
63 19 1
63 41 1
63 78 1
63 143 1
63 212 1
63 322 1
63 340 1
63 341 1
63 444 1
63 487 1
63 524 1
63 529 1
63 543 1
63 597 1
63 712 1
63 862 1
63 868 1
63 920 1
63 950 1
63 953 1
64 11 1
64 15 1
64 38 1
64 39 1
64 74 1
64 367 1
64 657 1
64 859 1
64 890 1
65 3 1
65 6 1
65 8 1
65 35 1
65 84 1
65 102 1
65 129 1
65 138 1
65 280 1
65 377 1
65 465 1
65 606 1
65 775 1
66 8 1
66 10 1
66 23 1
66 35 1
66 105 1
66 166 1
66 176 1
66 219 1
66 254 1
66 284 1
66 349 1
66 372 1
66 373 1
66 405 1
66 419 1
66 448 1
66 474 1
66 578 1
66 644 1
66 673 1
66 717 1
66 730 1
66 756 1
66 777 1
66 841 1
67 9 1
67 15 1
67 25 1
67 50 1
67 71 1
67 144 1
67 173 1
67 197 1
67 234 1
67 289 1
67 415 1
67 548 1
67 549 1
67 585 1
68 3 1
68 5 1
68 39 1
68 62 1
68 260 1
68 324 1
68 360 1
68 520 1
68 646 1
68 733 1
68 743 1
68 910 1
68 962 1
69 6 1
69 10 1
69 45 1
69 50 1
69 73 1
69 81 1
69 101 1
69 107 1
69 111 1
69 170 1
69 177 1
69 189 1
69 233 1
69 236 1
69 279 1
69 292 1
69 337 1
69 410 1
69 413 1
69 447 1
69 454 1
69 457 1
69 483 1
69 556 1
69 566 1
69 650 1
69 757 1
69 770 1
69 789 1
69 813 1
69 865 1
69 991 1
70 7 1
70 8 1
70 35 1
70 46 1
70 112 1
70 361 1
70 369 1
70 421 1
70 445 1
70 763 1
70 896 1
71 10 1
71 50 1
71 55 1
71 67 1
71 148 1
71 161 1
71 309 1
71 338 1
71 347 1
71 521 1
71 574 1
71 623 1
71 833 1
71 933 1
72 5 1
72 6 1
72 8 1
72 21 1
72 73 1
72 116 1
72 153 1
72 175 1
72 198 1
72 326 1
72 342 1
72 422 1
72 507 1
72 522 1
72 526 1
72 539 1
72 598 1
72 614 1
72 655 1
72 669 1
73 6 1
73 9 1
73 69 1
73 72 1
73 139 1
73 260 1
73 398 1
73 593 1
73 850 1
74 10 1
74 23 1
74 49 1
74 64 1
74 101 1
74 142 1
74 159 1
74 176 1
74 179 1
74 188 1
74 225 1
74 318 1
74 456 1
74 474 1
74 960 1
75 5 1
75 22 1
75 28 1
75 45 1
75 89 1
75 218 1
75 351 1
75 366 1
75 443 1
75 489 1
75 678 1
75 737 1
75 833 1
75 935 1
75 945 1
76 6 1
76 11 1
76 15 1
76 58 1
76 77 1
76 91 1
76 243 1
76 282 1
76 383 1
76 427 1
76 821 1
76 847 1
76 855 1
76 907 1
77 19 1
77 22 1
77 26 1
77 76 1
77 86 1
77 108 1
77 204 1
77 244 1
77 368 1
77 423 1
77 545 1
77 600 1
77 615 1
77 632 1
77 760 1
77 768 1
77 894 1
78 7 1
78 18 1
78 26 1
78 63 1
78 100 1
78 200 1
78 250 1
78 556 1
78 630 1
78 685 1
78 826 1
78 993 1
79 8 1
79 11 1
79 44 1
79 53 1
79 107 1
79 115 1
79 161 1
79 166 1
79 171 1
79 304 1
79 329 1
79 377 1
79 388 1
79 404 1
79 415 1
79 429 1
79 433 1
79 608 1
79 645 1
79 701 1
79 719 1
79 727 1
79 853 1
80 13 1
80 18 1
80 49 1
80 53 1
80 488 1
80 666 1
80 810 1
80 900 1
81 5 1
81 6 1
81 10 1
81 69 1
81 89 1
81 130 1
81 144 1
81 156 1
81 181 1
81 546 1
81 580 1
81 667 1
81 782 1
82 4 1
82 6 1
82 22 1
82 41 1
82 195 1
82 231 1
82 236 1
82 246 1
82 455 1
82 590 1
82 600 1
82 662 1
82 936 1
83 8 1
83 12 1
83 18 1
83 53 1
83 96 1
83 108 1
83 142 1
83 143 1
83 153 1
83 175 1
83 209 1
83 264 1
83 291 1
83 302 1
83 331 1
83 338 1
83 428 1
83 514 1
83 586 1
83 588 1
83 685 1
83 691 1
83 799 1
83 843 1
84 48 1
84 57 1
84 60 1
84 65 1
84 156 1
84 206 1
84 221 1
84 551 1
84 898 1
84 961 1
84 982 1
85 15 1
85 26 1
85 46 1
85 55 1
85 141 1
85 160 1
85 183 1
85 216 1
85 238 1
85 263 1
85 439 1
85 916 1
85 979 1
86 7 1
86 30 1
86 41 1
86 77 1
86 125 1
86 325 1
86 659 1
86 743 1
87 7 1
87 10 1
87 15 1
87 44 1
87 114 1
87 116 1
87 148 1
87 154 1
87 177 1
87 201 1
87 251 1
87 396 1
87 609 1
87 741 1
87 744 1
88 1 1
88 17 1
88 18 1
88 25 1
88 101 1
88 110 1
88 124 1
88 126 1
88 179 1
88 182 1
88 196 1
88 199 1
88 201 1
88 269 1
88 303 1
88 375 1
88 451 1
88 462 1
88 468 1
88 488 1
88 531 1
88 595 1
88 597 1
88 650 1
88 699 1
88 735 1
88 779 1
88 804 1
88 829 1
88 846 1
89 8 1
89 11 1
89 75 1
89 81 1
89 93 1
89 126 1
89 156 1
89 165 1
89 181 1
89 194 1
89 226 1
89 245 1
89 246 1
89 265 1
89 292 1
89 319 1
89 382 1
89 576 1
89 611 1
89 825 1
89 841 1
89 865 1
89 915 1
90 5 1
90 9 1
90 28 1
90 43 1
90 165 1
90 379 1
90 559 1
90 595 1
90 881 1
90 896 1
90 929 1
90 985 1
91 8 1
91 22 1
91 33 1
91 76 1
91 108 1
91 118 1
91 128 1
91 319 1
91 324 1
91 344 1
91 574 1
91 672 1
91 714 1
91 783 1
91 814 1
91 883 1
92 3 1
92 10 1
92 11 1
92 44 1
92 186 1
92 187 1
92 243 1
92 248 1
92 256 1
92 261 1
92 364 1
92 434 1
92 447 1
92 510 1
92 518 1
92 587 1
92 609 1
92 659 1
92 669 1
92 859 1
92 921 1
92 929 1
93 6 1
93 24 1
93 45 1
93 89 1
93 122 1
93 192 1
93 202 1
93 230 1
93 264 1
93 490 1
93 599 1
93 693 1
93 748 1
93 756 1
93 871 1
93 967 1
94 3 1
94 11 1
94 24 1
94 48 1
94 133 1
94 178 1
94 199 1
94 457 1
94 799 1
95 19 1
95 30 1
95 35 1
95 49 1
95 425 1
95 716 1
96 2 1
96 37 1
96 40 1
96 83 1
96 334 1
96 366 1
96 477 1
96 480 1
96 899 1
97 3 1
97 5 1
97 6 1
97 18 1
97 291 1
97 444 1
97 787 1
97 983 1
98 6 1
98 8 1
98 16 1
98 59 1
98 161 1
98 174 1
98 294 1
98 526 1
98 534 1
98 611 1
99 3 1
99 24 1
99 48 1
99 61 1
99 120 1
99 197 1
99 280 1
99 858 1
99 903 1
100 3 1
100 8 1
100 33 1
100 78 1
100 120 1
100 138 1
100 140 1
100 325 1
100 364 1
100 451 1
100 471 1
100 472 1
100 640 1
100 816 1
100 827 1
100 836 1
101 42 1
101 69 1
101 74 1
101 88 1
101 690 1
101 763 1
102 5 1
102 11 1
102 13 1
102 65 1
102 157 1
102 295 1
102 320 1
102 746 1
103 1 1
103 3 1
103 6 1
103 45 1
103 146 1
103 179 1
103 214 1
103 369 1
103 537 1
103 707 1
103 824 1
103 869 1
103 912 1
103 966 1
104 7 1
104 8 1
104 16 1
104 20 1
104 110 1
104 123 1
104 144 1
104 182 1
104 243 1
104 273 1
104 340 1
104 380 1
104 469 1
104 496 1
104 541 1
104 608 1
104 622 1
104 635 1
104 722 1
104 762 1
104 838 1
104 905 1
105 4 1
105 10 1
105 28 1
105 66 1
105 333 1
105 560 1
106 11 1
106 35 1
106 37 1
106 44 1
106 141 1
106 169 1
106 182 1
106 263 1
106 547 1
106 820 1
106 823 1
106 832 1
107 10 1
107 56 1
107 69 1
107 79 1
107 705 1
108 7 1
108 77 1
108 83 1
108 91 1
108 274 1
108 320 1
108 573 1
108 600 1
108 781 1
108 823 1
109 3 1
109 6 1
109 22 1
109 40 1
109 255 1
109 293 1
109 348 1
109 375 1
109 497 1
109 689 1
109 783 1
109 880 1
110 16 1
110 25 1
110 88 1
110 104 1
110 253 1
110 290 1
110 351 1
110 357 1
110 629 1
110 642 1
110 757 1
110 858 1
110 917 1
111 30 1
111 46 1
111 55 1
111 69 1
111 125 1
111 155 1
111 174 1
111 181 1
111 347 1
111 496 1
111 498 1
111 585 1
111 664 1
111 927 1
112 19 1
112 27 1
112 39 1
112 70 1
112 137 1
112 167 1
112 343 1
112 359 1
112 579 1
112 617 1
113 9 1
113 15 1
113 30 1
113 53 1
113 150 1
113 185 1
113 203 1
113 396 1
113 405 1
113 418 1
113 471 1
113 526 1
113 759 1
113 781 1
113 800 1
113 964 1
114 3 1
114 24 1
114 35 1
114 87 1
114 190 1
114 191 1
114 276 1
114 449 1
114 623 1
114 663 1
114 815 1
114 850 1
115 8 1
115 11 1
115 37 1
115 79 1
115 135 1
115 199 1
115 408 1
116 5 1
116 32 1
116 72 1
116 87 1
116 158 1
116 350 1
116 477 1
117 5 1
117 12 1
117 15 1
117 42 1
117 119 1
117 153 1
117 201 1
117 480 1
117 502 1
117 515 1
117 580 1
117 737 1
117 852 1
117 888 1
117 950 1
118 8 1
118 39 1
118 45 1
118 91 1
118 164 1
118 175 1
118 194 1
118 195 1
118 285 1
118 293 1
118 312 1
118 316 1
118 409 1
118 450 1
118 664 1
118 750 1
118 773 1
118 780 1
118 792 1
118 856 1
118 871 1
118 930 1
118 995 1
119 33 1
119 34 1
119 45 1
119 117 1
119 688 1
119 907 1
119 988 1
120 13 1
120 48 1
120 99 1
120 100 1
120 142 1
120 151 1
120 203 1
120 318 1
120 451 1
120 481 1
120 485 1
120 545 1
121 1 1
121 10 1
121 34 1
121 55 1
121 127 1
121 150 1
121 164 1
121 539 1
121 621 1
121 664 1
121 720 1
121 952 1
122 9 1
122 20 1
122 33 1
122 93 1
122 146 1
122 205 1
122 211 1
122 232 1
122 314 1
122 335 1
122 830 1
122 866 1
122 964 1
123 43 1
123 46 1
123 50 1
123 104 1
123 128 1
123 130 1
123 135 1
123 145 1
123 150 1
123 162 1
123 178 1
123 280 1
123 293 1
123 511 1
123 756 1
124 5 1
124 9 1
124 53 1
124 88 1
124 133 1
124 202 1
124 205 1
124 234 1
124 253 1
124 277 1
124 284 1
124 300 1
124 387 1
124 488 1
124 523 1
124 699 1
124 705 1
124 790 1
124 809 1
124 857 1
124 895 1
125 2 1
125 48 1
125 86 1
125 111 1
125 219 1
125 246 1
125 511 1
125 565 1
125 774 1
125 974 1
125 994 1
126 1 1
126 8 1
126 88 1
126 89 1
126 254 1
127 27 1
127 53 1
127 59 1
127 121 1
127 269 1
127 275 1
127 619 1
127 754 1
127 829 1
127 864 1
127 874 1
128 41 1
128 59 1
128 91 1
128 123 1
128 131 1
128 192 1
128 297 1
128 335 1
128 411 1
128 435 1
128 636 1
128 698 1
128 762 1
128 989 1
129 6 1
129 14 1
129 18 1
129 65 1
129 151 1
129 252 1
129 363 1
129 483 1
129 571 1
129 618 1
129 639 1
129 640 1
129 733 1
129 819 1
129 914 1
130 16 1
130 48 1
130 81 1
130 123 1
130 131 1
130 175 1
130 245 1
130 979 1
131 5 1
131 13 1
131 128 1
131 130 1
131 135 1
131 211 1
131 225 1
131 340 1
131 370 1
131 371 1
131 378 1
131 420 1
131 468 1
131 469 1
131 519 1
131 546 1
131 630 1
131 682 1
131 686 1
131 756 1
131 813 1
132 5 1
132 41 1
132 44 1
132 48 1
132 204 1
132 402 1
132 467 1
132 482 1
132 607 1
132 653 1
132 742 1
133 2 1
133 7 1
133 94 1
133 124 1
133 558 1
133 568 1
134 9 1
134 31 1
134 34 1
134 46 1
134 187 1
134 221 1
134 288 1
134 438 1
134 617 1
135 16 1
135 115 1
135 123 1
135 131 1
135 147 1
135 776 1
136 9 1
136 15 1
136 24 1
136 49 1
136 160 1
136 426 1
136 431 1
136 457 1
136 531 1
136 689 1
136 708 1
136 761 1
136 923 1
137 1 1
137 5 1
137 22 1
137 112 1
137 654 1
138 15 1
138 44 1
138 65 1
138 100 1
138 163 1
138 170 1
138 193 1
138 220 1
138 395 1
138 456 1
138 844 1
138 914 1
138 955 1
138 981 1
139 7 1
139 33 1
139 48 1
139 73 1
139 156 1
139 220 1
139 239 1
139 256 1
139 365 1
139 373 1
139 418 1
139 594 1
139 601 1
139 700 1
139 912 1
139 999 1
140 5 1
140 7 1
140 31 1
140 100 1
140 163 1
140 267 1
140 672 1
140 802 1
140 964 1
141 6 1
141 20 1
141 85 1
141 106 1
141 417 1
141 447 1
142 50 1
142 74 1
142 83 1
142 120 1
142 264 1
142 393 1
142 443 1
142 508 1
142 530 1
143 6 1
143 8 1
143 63 1
143 83 1
143 150 1
143 211 1
143 237 1
143 327 1
143 500 1
143 590 1
143 768 1
143 845 1
144 11 1
144 67 1
144 81 1
144 104 1
144 224 1
144 350 1
144 368 1
144 417 1
144 517 1
144 749 1
144 785 1
144 786 1
144 936 1
145 2 1
145 8 1
145 13 1
145 123 1
145 206 1
145 433 1
145 434 1
146 10 1
146 28 1
146 103 1
146 122 1
146 729 1
147 10 1
147 15 1
147 30 1
147 135 1
147 342 1
147 520 1
147 819 1
148 3 1
148 4 1
148 71 1
148 87 1
148 239 1
148 355 1
148 437 1
148 465 1
148 670 1
148 707 1
148 790 1
149 8 1
149 10 1
149 30 1
149 40 1
149 250 1
149 320 1
149 425 1
149 613 1
149 657 1
149 723 1
149 832 1
149 867 1
149 917 1
150 113 1
150 121 1
150 123 1
150 143 1
150 165 1
150 301 1
150 332 1
150 339 1
150 379 1
150 385 1
150 601 1
150 865 1
150 870 1
150 909 1
150 973 1
150 985 1
151 1 1
151 5 1
151 120 1
151 129 1
151 163 1
151 168 1
151 222 1
151 348 1
151 643 1
151 767 1
152 9 1
152 15 1
152 33 1
152 49 1
152 288 1
152 356 1
153 47 1
153 72 1
153 83 1
153 117 1
153 797 1
153 895 1
154 7 1
154 28 1
154 50 1
154 87 1
154 232 1
154 535 1
154 593 1
154 603 1
154 894 1
155 2 1
155 46 1
155 48 1
155 111 1
155 223 1
155 317 1
155 396 1
155 739 1
155 765 1
156 81 1
156 84 1
156 89 1
156 139 1
156 338 1
156 725 1
156 984 1
156 995 1
157 3 1
157 41 1
157 48 1
157 102 1
157 173 1
157 241 1
157 607 1
157 610 1
157 639 1
157 671 1
157 861 1
158 3 1
158 7 1
158 17 1
158 116 1
158 235 1
158 309 1
158 322 1
158 392 1
158 408 1
158 422 1
158 446 1
158 605 1
158 746 1
159 6 1
159 10 1
159 49 1
159 74 1
159 183 1
159 285 1
159 303 1
159 402 1
159 445 1
159 508 1
159 561 1
159 678 1
159 815 1
159 879 1
159 911 1
160 33 1
160 37 1
160 85 1
160 136 1
160 162 1
160 191 1
160 400 1
160 689 1
161 26 1
161 71 1
161 79 1
161 98 1
161 188 1
161 307 1
161 316 1
161 436 1
161 451 1
162 10 1
162 19 1
162 123 1
162 160 1
162 288 1
162 299 1
162 475 1
162 575 1
162 774 1
162 962 1
163 11 1
163 138 1
163 140 1
163 151 1
163 190 1
163 248 1
163 416 1
163 493 1
163 591 1
163 661 1
163 777 1
164 1 1
164 15 1
164 118 1
164 121 1
164 766 1
164 892 1
165 7 1
165 89 1
165 90 1
165 150 1
165 315 1
165 328 1
165 481 1
165 492 1
165 532 1
165 668 1
165 684 1
165 720 1
165 996 1
166 1 1
166 9 1
166 66 1
166 79 1
166 230 1
166 306 1
166 318 1
166 837 1
166 852 1
166 924 1
167 3 1
167 10 1
167 56 1
167 112 1
167 236 1
167 257 1
167 280 1
167 287 1
167 443 1
167 454 1
167 855 1
167 928 1
168 1 1
168 59 1
168 62 1
168 151 1
168 205 1
168 298 1
168 432 1
168 470 1
168 518 1
168 548 1
168 718 1
169 8 1
169 50 1
169 53 1
169 106 1
169 179 1
169 222 1
169 411 1
169 617 1
169 884 1
170 18 1
170 29 1
170 69 1
170 138 1
170 189 1
170 528 1
170 538 1
170 870 1
171 6 1
171 10 1
171 40 1
171 79 1
171 421 1
171 650 1
171 911 1
172 3 1
172 5 1
172 12 1
172 16 1
172 214 1
172 906 1
173 3 1
173 6 1
173 67 1
173 157 1
173 301 1
173 387 1
173 391 1
173 495 1
173 612 1
173 781 1
173 927 1
173 939 1
174 5 1
174 48 1
174 98 1
174 111 1
175 72 1
175 83 1
175 118 1
175 130 1
175 271 1
175 344 1
175 464 1
175 657 1
175 755 1
175 995 1
175 1000 1
176 10 1
176 38 1
176 66 1
176 74 1
176 205 1
176 256 1
176 327 1
176 353 1
176 424 1
176 572 1
176 683 1
176 890 1
176 988 1
177 1 1
177 25 1
177 69 1
177 87 1
177 399 1
177 997 1
178 33 1
178 38 1
178 94 1
178 123 1
178 184 1
178 297 1
178 449 1
178 594 1
178 625 1
178 771 1
178 794 1
178 827 1
178 905 1
178 932 1
179 74 1
179 88 1
179 103 1
179 169 1
179 180 1
179 382 1
179 529 1
179 763 1
179 798 1
179 919 1
180 18 1
180 24 1
180 48 1
180 179 1
180 519 1
181 17 1
181 81 1
181 89 1
181 111 1
181 652 1
181 656 1
182 27 1
182 88 1
182 104 1
182 106 1
182 335 1
182 360 1
182 504 1
182 595 1
182 623 1
183 7 1
183 18 1
183 85 1
183 159 1
183 235 1
183 382 1
183 413 1
183 459 1
183 598 1
183 618 1
183 998 1
184 1 1
184 21 1
184 61 1
184 178 1
184 384 1
184 452 1
184 591 1
184 695 1
184 818 1
185 15 1
185 43 1
185 45 1
185 113 1
185 240 1
185 427 1
185 430 1
185 731 1
185 818 1
185 969 1
186 7 1
186 9 1
186 38 1
186 92 1
186 858 1
186 992 1
187 7 1
187 44 1
187 92 1
187 134 1
187 263 1
187 266 1
187 476 1
187 627 1
187 690 1
187 798 1
187 813 1
187 833 1
187 850 1
188 3 1
188 22 1
188 74 1
188 161 1
188 241 1
188 373 1
188 598 1
189 3 1
189 28 1
189 69 1
189 170 1
189 190 1
189 216 1
189 457 1
189 550 1
189 569 1
189 629 1
190 39 1
190 114 1
190 163 1
190 189 1
190 278 1
190 846 1
191 10 1
191 26 1
191 114 1
191 160 1
191 251 1
191 354 1
191 489 1
191 608 1
191 898 1
192 8 1
192 44 1
192 93 1
192 128 1
192 203 1
192 237 1
192 321 1
192 391 1
192 581 1
192 891 1
192 904 1
193 4 1
193 42 1
193 48 1
193 138 1
193 222 1
193 245 1
193 327 1
193 331 1
193 396 1
193 622 1
193 636 1
193 833 1
193 887 1
193 957 1
194 7 1
194 8 1
194 89 1
194 118 1
194 196 1
194 259 1
194 285 1
194 323 1
194 326 1
194 390 1
194 401 1
194 416 1
194 836 1
195 8 1
195 55 1
195 82 1
195 118 1
195 223 1
195 233 1
195 309 1
195 315 1
195 347 1
195 376 1
195 377 1
195 422 1
195 459 1
195 578 1
195 635 1
195 662 1
196 11 1
196 15 1
196 88 1
196 194 1
196 660 1
196 712 1
196 765 1
196 865 1
197 3 1
197 16 1
197 67 1
197 99 1
197 268 1
197 350 1
197 429 1
197 443 1
197 492 1
197 514 1
197 648 1
197 723 1
197 806 1
197 846 1
197 848 1
197 976 1
198 5 1
198 7 1
198 17 1
198 72 1
198 226 1
198 227 1
198 272 1
198 536 1
198 537 1
198 560 1
198 610 1
198 691 1
198 789 1
199 49 1
199 88 1
199 94 1
199 115 1
200 3 1
200 7 1
200 49 1
200 78 1
200 510 1
200 866 1
201 6 1
201 87 1
201 88 1
201 117 1
201 243 1
201 313 1
201 456 1
201 824 1
202 41 1
202 50 1
202 93 1
202 124 1
202 215 1
202 306 1
202 365 1
202 424 1
202 916 1
203 5 1
203 113 1
203 120 1
203 192 1
203 295 1
203 336 1
203 356 1
203 441 1
203 505 1
203 524 1
203 607 1
203 820 1
203 918 1
203 944 1
204 42 1
204 60 1
204 77 1
204 132 1
204 210 1
204 358 1
204 694 1
205 122 1
205 124 1
205 168 1
205 176 1
205 362 1
205 958 1
206 1 1
206 10 1
206 84 1
206 145 1
206 296 1
207 8 1
207 25 1
207 35 1
207 61 1
207 281 1
207 312 1
207 365 1
207 433 1
207 464 1
207 834 1
207 837 1
207 921 1
207 963 1
208 9 1
208 15 1
208 36 1
208 39 1
208 388 1
209 8 1
209 42 1
209 45 1
209 83 1
209 244 1
209 788 1
210 5 1
210 35 1
210 53 1
210 204 1
210 224 1
210 264 1
210 275 1
210 276 1
210 278 1
210 310 1
210 470 1
210 517 1
210 534 1
210 697 1
210 862 1
211 31 1
211 122 1
211 131 1
211 143 1
211 582 1
211 599 1
211 819 1
211 891 1
212 7 1
212 8 1
212 41 1
212 63 1
212 361 1
212 459 1
212 495 1
212 554 1
212 574 1
212 575 1
212 654 1
212 879 1
212 963 1
213 7 1
213 10 1
213 18 1
213 24 1
213 292 1
213 330 1
213 346 1
213 577 1
213 695 1
214 9 1
214 15 1
214 103 1
214 172 1
214 440 1
214 509 1
214 667 1
215 8 1
215 35 1
215 62 1
215 202 1
215 308 1
215 377 1
215 479 1
215 722 1
215 784 1
215 910 1
215 953 1
215 1000 1
216 24 1
216 25 1
216 85 1
216 189 1
216 270 1
216 535 1
216 622 1
216 917 1
217 15 1
217 20 1
217 33 1
217 45 1
217 277 1
217 311 1
217 345 1
217 491 1
217 512 1
217 523 1
217 792 1
217 809 1
218 9 1
218 25 1
218 48 1
218 75 1
218 286 1
218 362 1
218 437 1
218 563 1
219 10 1
219 48 1
219 66 1
219 125 1
219 392 1
219 536 1
219 589 1
220 29 1
220 56 1
220 138 1
220 139 1
220 294 1
221 27 1
221 35 1
221 84 1
221 134 1
221 304 1
221 306 1
221 928 1
221 962 1
222 3 1
222 151 1
222 169 1
222 193 1
222 287 1
222 419 1
222 527 1
222 637 1
222 671 1
222 889 1
223 22 1
223 46 1
223 155 1
223 195 1
223 234 1
223 519 1
223 632 1
223 728 1
223 970 1
224 18 1
224 42 1
224 144 1
224 210 1
224 338 1
224 399 1
224 458 1
224 745 1
224 801 1
224 854 1
224 885 1
225 3 1
225 49 1
225 74 1
225 131 1
225 767 1
226 8 1
226 11 1
226 89 1
226 198 1
226 332 1
226 349 1
226 501 1
226 527 1
226 622 1
227 1 1
227 9 1
227 26 1
227 198 1
228 17 1
228 35 1
228 49 1
228 50 1
228 270 1
228 295 1
228 840 1
229 5 1
229 10 1
229 11 1
229 23 1
229 543 1
230 18 1
230 30 1
230 93 1
230 166 1
230 242 1
230 549 1
230 584 1
231 6 1
231 53 1
231 61 1
231 82 1
231 246 1
231 473 1
232 18 1
232 56 1
232 122 1
232 154 1
232 245 1
232 370 1
232 632 1
232 738 1
232 934 1
232 960 1
233 1 1
233 48 1
233 69 1
233 195 1
233 477 1
233 957 1
234 48 1
234 67 1
234 124 1
234 223 1
234 592 1
234 994 1
235 8 1
235 49 1
235 158 1
235 183 1
235 390 1
235 463 1
235 736 1
235 810 1
235 919 1
235 967 1
236 35 1
236 69 1
236 82 1
236 167 1
236 261 1
236 315 1
236 333 1
236 346 1
236 364 1
236 548 1
236 567 1
236 717 1
236 825 1
237 3 1
237 18 1
237 143 1
237 192 1
237 333 1
237 440 1
237 551 1
237 617 1
237 892 1
238 1 1
238 8 1
238 18 1
238 85 1
238 265 1
238 354 1
238 957 1
238 958 1
239 28 1
239 43 1
239 139 1
239 148 1
239 712 1
239 772 1
239 880 1
240 6 1
240 7 1
240 52 1
240 185 1
240 283 1
240 705 1
240 849 1
240 860 1
241 24 1
241 50 1
241 157 1
241 188 1
241 469 1
241 561 1
241 935 1
241 952 1
242 6 1
242 17 1
242 32 1
242 230 1
242 266 1
242 430 1
242 432 1
242 665 1
242 842 1
242 883 1
242 925 1
242 972 1
243 76 1
243 92 1
243 104 1
243 201 1
243 255 1
243 462 1
243 478 1
243 943 1
244 16 1
244 35 1
244 77 1
244 209 1
245 89 1
245 130 1
245 193 1
245 232 1
245 314 1
245 596 1
245 629 1
245 641 1
245 807 1
245 855 1
245 983 1
246 82 1
246 89 1
246 125 1
246 231 1
246 286 1
246 312 1
246 319 1
246 970 1
247 6 1
247 8 1
247 18 1
247 48 1
247 281 1
247 405 1
247 734 1
247 773 1
247 873 1
248 1 1
248 15 1
248 92 1
248 163 1
248 332 1
249 4 1
249 6 1
249 25 1
249 44 1
249 259 1
249 848 1
250 3 1
250 8 1
250 78 1
250 149 1
250 279 1
250 542 1
250 607 1
250 654 1
250 700 1
250 902 1
250 921 1
251 34 1
251 43 1
251 87 1
251 191 1
251 348 1
251 574 1
251 701 1
251 838 1
251 849 1
252 1 1
252 18 1
252 25 1
252 129 1
252 423 1
252 553 1
252 876 1
253 1 1
253 49 1
253 110 1
253 124 1
253 367 1
253 521 1
253 543 1
253 544 1
253 804 1
254 4 1
254 6 1
254 66 1
254 126 1
254 322 1
254 361 1
254 381 1
254 496 1
254 504 1
254 554 1
254 674 1
254 736 1
254 936 1
254 973 1
255 25 1
255 44 1
255 109 1
255 243 1
255 325 1
255 703 1
255 776 1
255 836 1
256 8 1
256 92 1
256 139 1
256 176 1
256 262 1
256 397 1
256 905 1
257 3 1
257 6 1
257 34 1
257 167 1
258 2 1
258 3 1
258 36 1
258 38 1
258 420 1
258 446 1
258 494 1
258 503 1
258 530 1
258 595 1
258 662 1
258 697 1
258 744 1
258 748 1
258 754 1
258 931 1
259 6 1
259 50 1
259 194 1
259 249 1
259 384 1
259 435 1
259 925 1
260 1 1
260 5 1
260 68 1
260 73 1
260 289 1
260 452 1
260 556 1
260 707 1
260 907 1
261 6 1
261 33 1
261 92 1
261 236 1
261 355 1
261 383 1
262 4 1
262 13 1
262 23 1
262 256 1
262 372 1
262 563 1
262 892 1
262 998 1
263 6 1
263 85 1
263 106 1
263 187 1
263 705 1
263 996 1
264 83 1
264 93 1
264 142 1
264 210 1
264 383 1
264 530 1
264 562 1
264 712 1
265 10 1
265 15 1
265 89 1
265 238 1
265 270 1
265 368 1
265 384 1
265 400 1
265 606 1
265 635 1
265 819 1
265 869 1
266 1 1
266 39 1
266 187 1
266 242 1
266 478 1
267 9 1
267 21 1
267 35 1
267 140 1
267 345 1
267 441 1
267 620 1
267 638 1
268 11 1
268 50 1
268 62 1
268 197 1
268 894 1
268 994 1
269 36 1
269 49 1
269 88 1
269 127 1
269 313 1
269 323 1
269 330 1
269 363 1
269 441 1
269 454 1
269 611 1
270 5 1
270 216 1
270 228 1
270 265 1
270 289 1
270 355 1
270 546 1
270 792 1
270 959 1
271 1 1
271 15 1
271 39 1
271 175 1
271 310 1
271 324 1
271 718 1
271 723 1
271 754 1
271 772 1
271 809 1
271 834 1
272 8 1
272 24 1
272 39 1
272 198 1
272 505 1
272 656 1
272 897 1
273 1 1
273 10 1
273 34 1
273 104 1
274 1 1
274 32 1
274 39 1
274 108 1
274 475 1
274 749 1
275 6 1
275 7 1
275 127 1
275 210 1
275 441 1
276 1 1
276 6 1
276 114 1
276 210 1
276 416 1
276 470 1
276 487 1
276 741 1
277 16 1
277 28 1
277 124 1
277 217 1
277 389 1
278 22 1
278 52 1
278 190 1
278 210 1
278 422 1
278 494 1
278 558 1
278 601 1
278 602 1
278 620 1
278 794 1
279 6 1
279 53 1
279 69 1
279 250 1
279 724 1
280 65 1
280 99 1
280 123 1
280 167 1
280 903 1
280 981 1
281 8 1
281 21 1
281 207 1
281 247 1
281 733 1
282 6 1
282 33 1
282 35 1
282 76 1
282 624 1
282 937 1
282 944 1
283 6 1
283 16 1
283 52 1
283 240 1
283 351 1
283 526 1
284 15 1
284 56 1
284 66 1
284 124 1
284 334 1
284 362 1
284 385 1
284 500 1
284 512 1
284 731 1
284 767 1
284 859 1
284 905 1
285 45 1
285 118 1
285 159 1
285 194 1
285 379 1
285 613 1
285 806 1
285 997 1
286 5 1
286 22 1
286 218 1
286 246 1
287 10 1
287 17 1
287 167 1
287 222 1
287 389 1
287 541 1
287 578 1
287 739 1
287 782 1
287 848 1
288 30 1
288 134 1
288 152 1
288 162 1
288 302 1
288 505 1
288 631 1
289 48 1
289 67 1
289 260 1
289 270 1
289 381 1
289 805 1
289 996 1
290 5 1
290 8 1
290 10 1
290 110 1
290 523 1
290 811 1
290 917 1
291 25 1
291 41 1
291 83 1
291 97 1
291 453 1
291 605 1
292 4 1
292 69 1
292 89 1
292 213 1
292 298 1
292 367 1
292 502 1
292 676 1
292 711 1
292 722 1
292 852 1
292 993 1
293 22 1
293 109 1
293 118 1
293 123 1
293 369 1
293 576 1
293 877 1
294 1 1
294 49 1
294 98 1
294 220 1
294 328 1
294 329 1
294 831 1
294 841 1
294 977 1
295 8 1
295 102 1
295 203 1
295 228 1
295 886 1
296 1 1
296 29 1
296 41 1
296 206 1
296 334 1
296 559 1
296 742 1
296 776 1
297 3 1
297 38 1
297 128 1
297 178 1
297 390 1
297 579 1
297 903 1
297 929 1
298 1 1
298 10 1
298 168 1
298 292 1
298 310 1
298 564 1
298 702 1
298 764 1
299 3 1
299 30 1
299 48 1
299 162 1
299 780 1
299 864 1
300 5 1
300 11 1
300 18 1
300 124 1
300 341 1
300 439 1
300 670 1
300 869 1
301 27 1
301 33 1
301 150 1
301 173 1
301 353 1
301 506 1
301 571 1
301 952 1
302 1 1
302 13 1
302 83 1
302 288 1
303 18 1
303 48 1
303 88 1
303 159 1
304 11 1
304 49 1
304 79 1
304 221 1
304 339 1
304 381 1
305 1 1
305 8 1
305 13 1
305 24 1
305 324 1
306 6 1
306 166 1
306 202 1
306 221 1
306 341 1
306 392 1
306 642 1
306 910 1
306 991 1
307 36 1
307 45 1
307 60 1
307 161 1
307 323 1
307 499 1
307 532 1
307 541 1
307 550 1
307 619 1
307 666 1
307 989 1
308 16 1
308 26 1
308 38 1
308 215 1
308 340 1
309 12 1
309 71 1
309 158 1
309 195 1
309 312 1
309 317 1
309 358 1
309 361 1
309 479 1
309 644 1
309 692 1
310 39 1
310 210 1
310 271 1
310 298 1
310 372 1
310 544 1
311 1 1
311 2 1
311 10 1
311 217 1
311 468 1
311 926 1
312 118 1
312 207 1
312 246 1
312 309 1
312 420 1
312 493 1
312 572 1
312 854 1
313 22 1
313 35 1
313 201 1
313 269 1
313 330 1
313 458 1
313 874 1
314 37 1
314 45 1
314 122 1
314 245 1
314 348 1
314 466 1
314 694 1
314 808 1
314 985 1
315 23 1
315 165 1
315 195 1
315 236 1
315 484 1
315 858 1
316 30 1
316 55 1
316 118 1
316 161 1
316 402 1
316 479 1
316 518 1
316 796 1
317 3 1
317 7 1
317 155 1
317 309 1
317 472 1
318 6 1
318 74 1
318 120 1
318 166 1
318 515 1
319 9 1
319 89 1
319 91 1
319 246 1
319 402 1
319 584 1
319 772 1
320 12 1
320 102 1
320 108 1
320 149 1
320 938 1
321 9 1
321 23 1
321 55 1
321 192 1
321 414 1
321 432 1
321 488 1
321 490 1
321 946 1
322 10 1
322 63 1
322 158 1
322 254 1
322 342 1
322 354 1
322 376 1
322 507 1
322 533 1
322 719 1
323 5 1
323 194 1
323 269 1
323 307 1
323 718 1
324 68 1
324 91 1
324 271 1
324 305 1
324 386 1
324 406 1
324 448 1
324 495 1
324 585 1
324 588 1
324 893 1
324 974 1
324 992 1
325 45 1
325 86 1
325 100 1
325 255 1
325 789 1
325 790 1
326 10 1
326 22 1
326 72 1
326 194 1
326 920 1
327 48 1
327 143 1
327 176 1
327 193 1
327 460 1
327 656 1
327 713 1
328 1 1
328 41 1
328 165 1
328 294 1
328 387 1
328 450 1
328 568 1
328 623 1
328 664 1
328 697 1
328 773 1
329 12 1
329 46 1
329 79 1
329 294 1
329 536 1
329 631 1
329 710 1
329 738 1
329 761 1
330 7 1
330 213 1
330 269 1
330 313 1
330 566 1
330 627 1
330 702 1
331 1 1
331 10 1
331 83 1
331 193 1
331 390 1
331 604 1
332 4 1
332 150 1
332 226 1
332 248 1
332 450 1
332 491 1
332 637 1
332 694 1
332 760 1
332 902 1
332 956 1
332 960 1
333 45 1
333 105 1
333 236 1
333 237 1
333 566 1
334 32 1
334 96 1
334 284 1
334 296 1
334 483 1
334 567 1
335 3 1
335 122 1
335 128 1
335 182 1
335 375 1
335 586 1
335 836 1
336 1 1
336 12 1
336 46 1
336 203 1
336 386 1
336 435 1
336 510 1
336 512 1
336 539 1
337 6 1
337 21 1
337 52 1
337 69 1
337 341 1
337 545 1
337 604 1
337 898 1
338 71 1
338 83 1
338 156 1
338 224 1
338 759 1
338 820 1
339 7 1
339 22 1
339 150 1
339 304 1
339 667 1
339 709 1
339 721 1
339 726 1
339 740 1
339 785 1
339 807 1
339 808 1
339 827 1
339 886 1
339 923 1
339 937 1
340 63 1
340 104 1
340 131 1
340 308 1
340 430 1
340 521 1
340 628 1
340 639 1
340 726 1
340 778 1
341 63 1
341 300 1
341 306 1
341 337 1
341 698 1
341 861 1
341 889 1
341 954 1
342 38 1
342 72 1
342 147 1
342 322 1
342 371 1
342 693 1
343 6 1
343 8 1
343 53 1
343 112 1
343 469 1
343 522 1
343 651 1
343 757 1
343 861 1
343 875 1
344 8 1
344 50 1
344 91 1
344 175 1
344 513 1
344 606 1
344 692 1
345 6 1
345 30 1
345 217 1
345 267 1
345 770 1
345 839 1
346 6 1
346 13 1
346 213 1
346 236 1
346 380 1
346 407 1
346 729 1
347 37 1
347 71 1
347 111 1
347 195 1
347 357 1
347 565 1
347 698 1
348 109 1
348 151 1
348 251 1
348 314 1
348 477 1
348 510 1
349 12 1
349 43 1
349 66 1
349 226 1
349 538 1
349 620 1
349 857 1
349 875 1
350 35 1
350 116 1
350 144 1
350 197 1
350 359 1
350 364 1
350 423 1
350 486 1
350 516 1
350 560 1
350 605 1
350 615 1
350 668 1
350 677 1
350 846 1
350 871 1
350 878 1
351 6 1
351 75 1
351 110 1
351 283 1
351 528 1
351 852 1
351 979 1
352 6 1
352 16 1
352 54 1
352 59 1
352 863 1
352 990 1
353 20 1
353 61 1
353 176 1
353 301 1
353 500 1
354 1 1
354 191 1
354 238 1
354 322 1
355 1 1
355 148 1
355 261 1
355 270 1
355 391 1
355 393 1
355 602 1
355 649 1
355 688 1
356 5 1
356 51 1
356 152 1
356 203 1
356 758 1
356 942 1
357 9 1
357 19 1
357 110 1
357 347 1
357 502 1
357 602 1
357 638 1
358 5 1
358 9 1
358 204 1
358 309 1
358 374 1
358 461 1
358 831 1
359 19 1
359 24 1
359 112 1
359 350 1
359 442 1
359 778 1
360 8 1
360 13 1
360 68 1
360 182 1
360 808 1
361 70 1
361 212 1
361 254 1
361 309 1
362 44 1
362 205 1
362 218 1
362 284 1
363 13 1
363 22 1
363 129 1
363 269 1
363 393 1
363 584 1
363 630 1
363 658 1
364 92 1
364 100 1
364 236 1
364 350 1
364 565 1
364 735 1
365 9 1
365 139 1
365 202 1
365 207 1
365 369 1
366 39 1
366 41 1
366 75 1
366 96 1
366 386 1
366 412 1
366 498 1
366 660 1
367 29 1
367 64 1
367 253 1
367 292 1
367 743 1
367 932 1
368 11 1
368 77 1
368 144 1
368 265 1
368 787 1
369 70 1
369 103 1
369 293 1
369 365 1
369 374 1
369 472 1
369 648 1
369 665 1
369 841 1
370 30 1
370 33 1
370 131 1
370 232 1
370 668 1
371 1 1
371 6 1
371 131 1
371 342 1
371 481 1
371 580 1
372 29 1
372 66 1
372 262 1
372 310 1
372 439 1
372 699 1
372 734 1
373 11 1
373 66 1
373 139 1
373 188 1
373 658 1
374 1 1
374 10 1
374 358 1
374 369 1
374 406 1
374 448 1
374 516 1
374 703 1
374 740 1
375 6 1
375 88 1
375 109 1
375 335 1
376 9 1
376 33 1
376 195 1
376 322 1
377 65 1
377 79 1
377 195 1
377 215 1
377 446 1
377 585 1
377 659 1
377 993 1
378 1 1
378 13 1
378 20 1
378 131 1
378 427 1
378 437 1
378 545 1
378 641 1
379 48 1
379 90 1
379 150 1
379 285 1
379 412 1
379 476 1
379 536 1
379 618 1
379 767 1
380 5 1
380 6 1
380 104 1
380 346 1
380 440 1
381 1 1
381 254 1
381 289 1
381 304 1
381 386 1
381 643 1
381 923 1
382 45 1
382 89 1
382 179 1
382 183 1
382 872 1
382 928 1
382 957 1
383 19 1
383 76 1
383 261 1
383 264 1
383 683 1
384 53 1
384 184 1
384 259 1
384 265 1
384 406 1
384 581 1
384 720 1
384 919 1
384 966 1
385 6 1
385 53 1
385 150 1
385 284 1
385 711 1
386 324 1
386 336 1
386 366 1
386 381 1
386 407 1
386 567 1
387 9 1
387 124 1
387 173 1
387 328 1
387 757 1
387 954 1
388 1 1
388 39 1
388 79 1
388 208 1
388 590 1
388 847 1
389 19 1
389 48 1
389 277 1
389 287 1
389 466 1
389 588 1
390 194 1
390 235 1
390 297 1
390 331 1
390 681 1
391 3 1
391 173 1
391 192 1
391 355 1
391 408 1
391 835 1
391 878 1
391 949 1
392 3 1
392 158 1
392 219 1
392 306 1
392 397 1
392 760 1
393 10 1
393 142 1
393 355 1
393 363 1
393 587 1
394 6 1
394 8 1
394 24 1
394 41 1
394 557 1
394 566 1
394 637 1
394 753 1
395 1 1
395 39 1
395 61 1
395 138 1
395 676 1
396 87 1
396 113 1
396 155 1
396 193 1
397 10 1
397 18 1
397 256 1
397 392 1
397 408 1
397 952 1
397 980 1
398 4 1
398 17 1
398 39 1
398 73 1
398 501 1
398 627 1
398 856 1
398 925 1
399 8 1
399 24 1
399 177 1
399 224 1
399 404 1
399 458 1
399 719 1
399 878 1
400 50 1
400 56 1
400 160 1
400 265 1
400 517 1
400 735 1
401 10 1
401 15 1
401 23 1
401 194 1
401 975 1
402 132 1
402 159 1
402 316 1
402 319 1
402 559 1
403 1 1
403 6 1
403 15 1
403 30 1
404 41 1
404 53 1
404 79 1
404 399 1
404 626 1
404 665 1
405 38 1
405 66 1
405 113 1
405 247 1
405 539 1
405 542 1
405 592 1
405 716 1
405 823 1
406 11 1
406 324 1
406 374 1
406 384 1
406 511 1
406 540 1
406 577 1
407 16 1
407 25 1
407 346 1
407 386 1
407 522 1
407 753 1
407 838 1
408 115 1
408 158 1
408 391 1
408 397 1
408 679 1
409 9 1
409 24 1
409 34 1
409 118 1
409 466 1
409 944 1
410 6 1
410 24 1
410 48 1
410 69 1
410 822 1
411 10 1
411 48 1
411 128 1
411 169 1
411 900 1
411 968 1
412 41 1
412 44 1
412 366 1
412 379 1
412 651 1
412 955 1
413 8 1
413 28 1
413 69 1
413 183 1
413 889 1
414 6 1
414 7 1
414 62 1
414 321 1
414 551 1
415 6 1
415 23 1
415 67 1
415 79 1
415 730 1
415 794 1
415 887 1
416 24 1
416 163 1
416 194 1
416 276 1
416 473 1
417 8 1
417 11 1
417 141 1
417 144 1
417 496 1
418 7 1
418 34 1
418 113 1
418 139 1
418 466 1
419 2 1
419 22 1
419 66 1
419 222 1
419 503 1
419 722 1
419 968 1
420 33 1
420 131 1
420 258 1
420 312 1
420 516 1
421 3 1
421 30 1
421 70 1
421 171 1
421 523 1
421 754 1
421 926 1
422 72 1
422 158 1
422 195 1
422 278 1
422 473 1
422 633 1
422 805 1
423 5 1
423 77 1
423 252 1
423 350 1
423 511 1
423 650 1
423 817 1
423 878 1
424 28 1
424 41 1
424 176 1
424 202 1
424 514 1
424 537 1
424 709 1
424 775 1
425 5 1
425 44 1
425 95 1
425 149 1
425 499 1
425 904 1
425 932 1
426 8 1
426 10 1
426 20 1
426 136 1
426 517 1
426 604 1
426 748 1
426 759 1
427 17 1
427 76 1
427 185 1
427 378 1
427 716 1
428 8 1
428 10 1
428 60 1
428 83 1
428 535 1
429 22 1
429 57 1
429 79 1
429 197 1
429 472 1
429 546 1
430 1 1
430 185 1
430 242 1
430 340 1
430 770 1
431 2 1
431 4 1
431 32 1
431 136 1
431 537 1
431 867 1
431 890 1
432 22 1
432 168 1
432 242 1
432 321 1
433 4 1
433 79 1
433 145 1
433 207 1
434 33 1
434 55 1
434 92 1
434 145 1
434 843 1
435 6 1
435 128 1
435 259 1
435 336 1
435 471 1
435 914 1
436 4 1
436 26 1
436 37 1
436 161 1
436 687 1
437 45 1
437 148 1
437 218 1
437 378 1
437 522 1
438 8 1
438 29 1
438 48 1
438 134 1
438 515 1
439 1 1
439 85 1
439 300 1
439 372 1
439 752 1
440 26 1
440 214 1
440 237 1
440 380 1
440 976 1
440 992 1
441 203 1
441 267 1
441 269 1
441 275 1
441 503 1
442 4 1
442 15 1
442 31 1
442 359 1
442 611 1
442 706 1
443 75 1
443 142 1
443 167 1
443 197 1
443 506 1
444 4 1
444 57 1
444 63 1
444 97 1
444 486 1
444 559 1
444 868 1
444 935 1
444 965 1
445 37 1
445 58 1
445 70 1
445 159 1
445 448 1
445 989 1
446 27 1
446 158 1
446 258 1
446 377 1
446 599 1
446 803 1
446 835 1
447 7 1
447 69 1
447 92 1
447 141 1
447 471 1
447 593 1
447 706 1
447 755 1
448 66 1
448 324 1
448 374 1
448 445 1
448 532 1
448 796 1
449 8 1
449 10 1
449 114 1
449 178 1
449 721 1
450 57 1
450 118 1
450 328 1
450 332 1
451 88 1
451 100 1
451 120 1
451 161 1
451 652 1
451 687 1
452 8 1
452 31 1
452 184 1
452 260 1
452 980 1
453 22 1
453 28 1
453 34 1
453 291 1
453 516 1
454 8 1
454 69 1
454 167 1
454 269 1
454 503 1
454 842 1
454 946 1
455 2 1
455 35 1
455 40 1
455 82 1
455 480 1
455 959 1
456 8 1
456 74 1
456 138 1
456 201 1
456 656 1
456 672 1
456 986 1
457 69 1
457 94 1
457 136 1
457 189 1
457 940 1
458 38 1
458 224 1
458 313 1
458 399 1
458 765 1
458 845 1
459 8 1
459 183 1
459 195 1
459 212 1
459 849 1
460 4 1
460 7 1
460 9 1
460 327 1
460 520 1
460 676 1
461 7 1
461 9 1
461 41 1
461 358 1
462 16 1
462 22 1
462 88 1
462 243 1
462 586 1
463 6 1
463 15 1
463 34 1
463 235 1
463 762 1
463 823 1
464 6 1
464 41 1
464 175 1
464 207 1
464 582 1
464 874 1
465 19 1
465 41 1
465 65 1
465 148 1
465 900 1
466 314 1
466 389 1
466 409 1
466 418 1
466 724 1
466 791 1
466 900 1
467 9 1
467 14 1
467 50 1
467 132 1
467 533 1
467 913 1
468 3 1
468 88 1
468 131 1
468 311 1
469 104 1
469 131 1
469 241 1
469 343 1
470 14 1
470 168 1
470 210 1
470 276 1
470 528 1
471 100 1
471 113 1
471 435 1
471 447 1
471 779 1
471 785 1
471 884 1
472 100 1
472 317 1
472 369 1
472 429 1
472 490 1
472 529 1
472 552 1
472 615 1
472 648 1
472 851 1
473 6 1
473 231 1
473 416 1
473 422 1
474 32 1
474 48 1
474 66 1
474 74 1
475 23 1
475 26 1
475 162 1
475 274 1
475 606 1
475 805 1
475 815 1
475 985 1
476 15 1
476 35 1
476 187 1
476 379 1
476 922 1
476 949 1
477 96 1
477 116 1
477 233 1
477 348 1
477 789 1
477 975 1
478 23 1
478 61 1
478 243 1
478 266 1
478 753 1
479 22 1
479 215 1
479 309 1
479 316 1
479 596 1
479 647 1
480 37 1
480 96 1
480 117 1
480 455 1
481 39 1
481 120 1
481 165 1
481 371 1
482 24 1
482 27 1
482 48 1
482 132 1
482 827 1
482 941 1
483 5 1
483 69 1
483 129 1
483 334 1
484 9 1
484 11 1
484 16 1
484 315 1
485 6 1
485 24 1
485 59 1
485 120 1
485 530 1
486 12 1
486 25 1
486 350 1
486 444 1
486 849 1
486 906 1
487 6 1
487 30 1
487 63 1
487 276 1
487 725 1
488 80 1
488 88 1
488 124 1
488 321 1
488 732 1
488 766 1
489 6 1
489 15 1
489 75 1
489 191 1
489 825 1
490 33 1
490 93 1
490 321 1
490 472 1
490 593 1
490 714 1
490 945 1
490 965 1
490 967 1
491 9 1
491 50 1
491 217 1
491 332 1
491 728 1
492 6 1
492 18 1
492 165 1
492 197 1
492 603 1
493 4 1
493 11 1
493 163 1
493 312 1
493 647 1
493 661 1
493 735 1
493 867 1
494 1 1
494 8 1
494 258 1
494 278 1
494 535 1
494 553 1
494 695 1
495 44 1
495 173 1
495 212 1
495 324 1
495 532 1
495 630 1
495 638 1
495 739 1
495 938 1
496 104 1
496 111 1
496 254 1
496 417 1
496 684 1
497 8 1
497 37 1
497 60 1
497 109 1
497 679 1
497 803 1
497 812 1
498 5 1
498 35 1
498 111 1
498 366 1
498 557 1
498 786 1
498 984 1
499 6 1
499 60 1
499 307 1
499 425 1
499 570 1
499 895 1
500 58 1
500 143 1
500 284 1
500 353 1
500 538 1
500 751 1
501 1 1
501 32 1
501 226 1
501 398 1
502 26 1
502 117 1
502 292 1
502 357 1
502 557 1
502 674 1
502 682 1
502 710 1
503 258 1
503 419 1
503 441 1
503 454 1
503 715 1
503 728 1
504 11 1
504 49 1
504 182 1
504 254 1
504 514 1
504 591 1
504 773 1
505 24 1
505 203 1
505 272 1
505 288 1
505 795 1
505 797 1
505 828 1
506 18 1
506 23 1
506 301 1
506 443 1
507 14 1
507 48 1
507 72 1
507 322 1
507 793 1
508 6 1
508 41 1
508 142 1
508 159 1
508 518 1
508 973 1
509 1 1
509 5 1
509 6 1
509 214 1
509 931 1
510 92 1
510 200 1
510 336 1
510 348 1
511 123 1
511 125 1
511 406 1
511 423 1
511 561 1
512 33 1
512 217 1
512 284 1
512 336 1
513 3 1
513 5 1
513 15 1
513 344 1
513 750 1
513 884 1
514 83 1
514 197 1
514 424 1
514 504 1
514 802 1
515 5 1
515 117 1
515 318 1
515 438 1
516 350 1
516 374 1
516 420 1
516 453 1
516 864 1
517 144 1
517 210 1
517 400 1
517 426 1
518 92 1
518 168 1
518 316 1
518 508 1
518 547 1
518 653 1
519 5 1
519 131 1
519 180 1
519 223 1
519 573 1
519 613 1
519 655 1
520 9 1
520 68 1
520 147 1
520 460 1
521 35 1
521 71 1
521 253 1
521 340 1
522 72 1
522 343 1
522 407 1
522 437 1
522 755 1
522 889 1
522 934 1
523 124 1
523 217 1
523 290 1
523 421 1
523 977 1
524 17 1
524 49 1
524 63 1
524 203 1
524 582 1
524 760 1
524 788 1
524 811 1
524 913 1
524 950 1
525 7 1
525 8 1
525 56 1
525 61 1
526 72 1
526 98 1
526 113 1
526 283 1
526 956 1
527 6 1
527 53 1
527 222 1
527 226 1
527 660 1
528 53 1
528 170 1
528 351 1
528 470 1
528 621 1
529 11 1
529 63 1
529 179 1
529 472 1
530 142 1
530 258 1
530 264 1
530 485 1
530 727 1
530 797 1
530 830 1
531 11 1
531 42 1
531 88 1
531 136 1
531 570 1
532 165 1
532 307 1
532 448 1
532 495 1
533 15 1
533 44 1
533 322 1
533 467 1
533 553 1
533 784 1
534 4 1
534 11 1
534 98 1
534 210 1
534 618 1
534 680 1
534 744 1
535 154 1
535 216 1
535 428 1
535 494 1
536 198 1
536 219 1
536 329 1
536 379 1
536 714 1
536 748 1
537 103 1
537 198 1
537 424 1
537 431 1
537 645 1
538 10 1
538 170 1
538 349 1
538 500 1
538 670 1
538 831 1
539 72 1
539 121 1
539 336 1
539 405 1
539 540 1
539 886 1
540 17 1
540 26 1
540 406 1
540 539 1
540 562 1
541 62 1
541 104 1
541 287 1
541 307 1
541 801 1
542 1 1
542 17 1
542 250 1
542 405 1
542 583 1
543 1 1
543 63 1
543 229 1
543 253 1
543 675 1
544 7 1
544 58 1
544 253 1
544 310 1
544 911 1
545 77 1
545 120 1
545 337 1
545 378 1
545 720 1
545 982 1
546 81 1
546 131 1
546 270 1
546 429 1
546 550 1
546 565 1
546 580 1
546 626 1
546 942 1
547 17 1
547 45 1
547 106 1
547 518 1
547 604 1
548 5 1
548 67 1
548 168 1
548 236 1
548 608 1
548 752 1
548 788 1
548 938 1
549 1 1
549 3 1
549 67 1
549 230 1
550 10 1
550 189 1
550 307 1
550 546 1
550 613 1
550 958 1
551 7 1
551 84 1
551 237 1
551 414 1
552 1 1
552 9 1
552 32 1
552 472 1
552 651 1
553 35 1
553 252 1
553 494 1
553 533 1
554 19 1
554 30 1
554 212 1
554 254 1
554 732 1
555 3 1
555 10 1
555 13 1
555 22 1
556 34 1
556 69 1
556 78 1
556 260 1
556 558 1
557 44 1
557 394 1
557 498 1
557 502 1
557 679 1
557 768 1
557 954 1
557 991 1
557 997 1
558 15 1
558 133 1
558 278 1
558 556 1
559 90 1
559 296 1
559 402 1
559 444 1
559 589 1
559 787 1
560 39 1
560 105 1
560 198 1
560 350 1
561 8 1
561 159 1
561 241 1
561 511 1
562 8 1
562 62 1
562 264 1
562 540 1
562 683 1
563 3 1
563 26 1
563 218 1
563 262 1
563 596 1
563 926 1
564 5 1
564 10 1
564 49 1
564 298 1
565 125 1
565 347 1
565 364 1
565 546 1
565 646 1
565 648 1
565 674 1
565 810 1
566 69 1
566 330 1
566 333 1
566 394 1
566 641 1
566 660 1
566 663 1
566 870 1
566 924 1
566 943 1
567 22 1
567 236 1
567 334 1
567 386 1
567 625 1
567 676 1
568 14 1
568 17 1
568 133 1
568 328 1
568 835 1
569 5 1
569 8 1
569 61 1
569 189 1
569 610 1
569 785 1
569 990 1
570 5 1
570 6 1
570 499 1
570 531 1
571 7 1
571 8 1
571 129 1
571 301 1
571 747 1
572 5 1
572 44 1
572 176 1
572 312 1
572 876 1
573 23 1
573 28 1
573 108 1
573 519 1
574 71 1
574 91 1
574 212 1
574 251 1
574 614 1
574 897 1
574 978 1
575 6 1
575 22 1
575 162 1
575 212 1
576 1 1
576 37 1
576 89 1
576 293 1
577 10 1
577 56 1
577 213 1
577 406 1
577 677 1
577 713 1
578 14 1
578 66 1
578 195 1
578 287 1
579 48 1
579 52 1
579 112 1
579 297 1
579 581 1
579 599 1
579 851 1
580 81 1
580 117 1
580 371 1
580 546 1
580 628 1
581 10 1
581 192 1
581 384 1
581 579 1
582 4 1
582 211 1
582 464 1
582 524 1
582 948 1
583 7 1
583 15 1
583 57 1
583 542 1
584 17 1
584 230 1
584 319 1
584 363 1
585 67 1
585 111 1
585 324 1
585 377 1
586 62 1
586 83 1
586 335 1
586 462 1
586 911 1
587 3 1
587 15 1
587 92 1
587 393 1
587 600 1
587 982 1
588 48 1
588 83 1
588 324 1
588 389 1
588 786 1
588 927 1
589 10 1
589 18 1
589 219 1
589 559 1
590 45 1
590 82 1
590 143 1
590 388 1
590 704 1
590 948 1
591 22 1
591 163 1
591 184 1
591 504 1
592 7 1
592 30 1
592 234 1
592 405 1
593 73 1
593 154 1
593 447 1
593 490 1
594 16 1
594 33 1
594 139 1
594 178 1
594 633 1
594 693 1
595 88 1
595 90 1
595 182 1
595 258 1
596 11 1
596 245 1
596 479 1
596 563 1
596 896 1
597 10 1
597 18 1
597 63 1
597 88 1
597 696 1
597 899 1
598 5 1
598 72 1
598 183 1
598 188 1
598 616 1
598 666 1
598 732 1
599 93 1
599 211 1
599 446 1
599 579 1
599 840 1
600 77 1
600 82 1
600 108 1
600 587 1
600 634 1
601 12 1
601 139 1
601 150 1
601 278 1
601 634 1
601 681 1
602 38 1
602 278 1
602 355 1
602 357 1
602 652 1
602 696 1
602 868 1
602 901 1
602 972 1
603 3 1
603 15 1
603 154 1
603 492 1
603 886 1
604 331 1
604 337 1
604 426 1
604 547 1
604 800 1
605 6 1
605 158 1
605 291 1
605 350 1
605 721 1
606 65 1
606 265 1
606 344 1
606 475 1
606 653 1
606 777 1
606 796 1
606 924 1
607 132 1
607 157 1
607 203 1
607 250 1
607 728 1
607 811 1
607 897 1
608 79 1
608 104 1
608 191 1
608 548 1
608 616 1
608 753 1
609 6 1
609 37 1
609 87 1
609 92 1
609 764 1
610 16 1
610 157 1
610 198 1
610 569 1
610 629 1
610 851 1
611 89 1
611 98 1
611 269 1
611 442 1
611 874 1
612 6 1
612 9 1
612 34 1
612 173 1
612 729 1
612 796 1
613 149 1
613 285 1
613 519 1
613 550 1
614 22 1
614 45 1
614 72 1
614 574 1
614 880 1
614 946 1
615 3 1
615 77 1
615 350 1
615 472 1
615 645 1
615 746 1
615 775 1
615 966 1
616 23 1
616 26 1
616 598 1
616 608 1
616 661 1
616 763 1
616 800 1
616 812 1
616 961 1
617 112 1
617 134 1
617 169 1
617 237 1
617 627 1
617 997 1
618 129 1
618 183 1
618 379 1
618 534 1
619 11 1
619 38 1
619 127 1
619 307 1
619 639 1
619 672 1
620 45 1
620 267 1
620 278 1
620 349 1
620 856 1
620 916 1
621 5 1
621 29 1
621 121 1
621 528 1
621 730 1
622 104 1
622 193 1
622 216 1
622 226 1
623 71 1
623 114 1
623 182 1
623 328 1
623 671 1
623 862 1
623 948 1
624 6 1
624 11 1
624 14 1
624 282 1
624 626 1
625 4 1
625 17 1
625 178 1
625 567 1
625 731 1
626 33 1
626 404 1
626 546 1
626 624 1
626 826 1
626 830 1
626 869 1
627 187 1
627 330 1
627 398 1
627 617 1
627 646 1
627 860 1
627 901 1
628 3 1
628 9 1
628 340 1
628 580 1
628 654 1
628 814 1
629 110 1
629 189 1
629 245 1
629 610 1
630 78 1
630 131 1
630 363 1
630 495 1
631 2 1
631 5 1
631 288 1
631 329 1
631 977 1
632 28 1
632 77 1
632 223 1
632 232 1
633 6 1
633 57 1
633 422 1
633 594 1
633 837 1
634 10 1
634 49 1
634 600 1
634 601 1
635 6 1
635 104 1
635 195 1
635 265 1
636 16 1
636 48 1
636 128 1
636 193 1
636 640 1
636 780 1
637 47 1
637 222 1
637 332 1
637 394 1
638 11 1
638 267 1
638 357 1
638 495 1
639 129 1
639 157 1
639 340 1
639 619 1
639 701 1
639 751 1
640 58 1
640 100 1
640 129 1
640 636 1
640 747 1
640 894 1
641 6 1
641 245 1
641 378 1
641 566 1
641 774 1
642 35 1
642 38 1
642 110 1
642 306 1
643 28 1
643 53 1
643 151 1
643 381 1
643 655 1
644 16 1
644 33 1
644 66 1
644 309 1
645 30 1
645 79 1
645 537 1
645 615 1
645 915 1
646 7 1
646 68 1
646 565 1
646 627 1
647 1 1
647 16 1
647 479 1
647 493 1
647 685 1
648 197 1
648 369 1
648 472 1
648 565 1
648 780 1
649 6 1
649 8 1
649 15 1
649 355 1
650 69 1
650 88 1
650 171 1
650 423 1
651 13 1
651 343 1
651 412 1
651 552 1
652 6 1
652 181 1
652 451 1
652 602 1
652 797 1
653 41 1
653 132 1
653 518 1
653 606 1
653 704 1
653 817 1
653 883 1
654 137 1
654 212 1
654 250 1
654 628 1
654 658 1
654 775 1
654 842 1
654 922 1
654 978 1
655 8 1
655 72 1
655 519 1
655 643 1
655 958 1
656 181 1
656 272 1
656 327 1
656 456 1
657 57 1
657 64 1
657 149 1
657 175 1
658 46 1
658 363 1
658 373 1
658 654 1
658 881 1
659 1 1
659 86 1
659 92 1
659 377 1
659 892 1
659 947 1
660 196 1
660 366 1
660 527 1
660 566 1
661 46 1
661 163 1
661 493 1
661 616 1
662 13 1
662 82 1
662 195 1
662 258 1
663 4 1
663 39 1
663 114 1
663 566 1
663 692 1
664 111 1
664 118 1
664 121 1
664 328 1
664 685 1
664 895 1
665 25 1
665 242 1
665 369 1
665 404 1
666 25 1
666 80 1
666 307 1
666 598 1
666 699 1
666 801 1
667 3 1
667 81 1
667 214 1
667 339 1
667 704 1
667 794 1
667 854 1
668 42 1
668 165 1
668 350 1
668 370 1
668 790 1
668 834 1
668 853 1
669 36 1
669 45 1
669 72 1
669 92 1
669 826 1
670 5 1
670 148 1
670 300 1
670 538 1
670 936 1
671 49 1
671 157 1
671 222 1
671 623 1
672 91 1
672 140 1
672 456 1
672 619 1
672 703 1
673 2 1
673 9 1
673 57 1
673 66 1
673 736 1
674 5 1
674 254 1
674 502 1
674 565 1
674 832 1
674 987 1
675 31 1
675 37 1
675 42 1
675 543 1
675 680 1
675 694 1
675 835 1
675 872 1
676 292 1
676 395 1
676 460 1
676 567 1
676 741 1
677 1 1
677 61 1
677 350 1
677 577 1
678 5 1
678 39 1
678 75 1
678 159 1
679 2 1
679 408 1
679 497 1
679 557 1
679 961 1
680 11 1
680 25 1
680 534 1
680 675 1
681 6 1
681 47 1
681 390 1
681 601 1
681 839 1
681 882 1
682 12 1
682 26 1
682 131 1
682 502 1
683 46 1
683 176 1
683 383 1
683 562 1
683 968 1
684 11 1
684 15 1
684 165 1
684 496 1
685 78 1
685 83 1
685 647 1
685 664 1
685 845 1
686 11 1
686 22 1
686 33 1
686 131 1
687 45 1
687 46 1
687 436 1
687 451 1
687 888 1
688 18 1
688 26 1
688 119 1
688 355 1
688 766 1
688 842 1
688 939 1
689 1 1
689 109 1
689 136 1
689 160 1
689 731 1
689 739 1
690 41 1
690 42 1
690 101 1
690 187 1
690 942 1
691 1 1
691 5 1
691 83 1
691 198 1
691 837 1
692 6 1
692 309 1
692 344 1
692 663 1
693 41 1
693 93 1
693 342 1
693 594 1
694 204 1
694 314 1
694 332 1
694 675 1
695 55 1
695 184 1
695 213 1
695 494 1
696 24 1
696 25 1
696 597 1
696 602 1
697 18 1
697 210 1
697 258 1
697 328 1
698 56 1
698 128 1
698 341 1
698 347 1
699 88 1
699 124 1
699 372 1
699 666 1
699 884 1
700 25 1
700 53 1
700 139 1
700 250 1
700 861 1
701 15 1
701 79 1
701 251 1
701 639 1
701 791 1
702 44 1
702 61 1
702 298 1
702 330 1
702 750 1
703 26 1
703 255 1
703 374 1
703 672 1
703 804 1
703 847 1
703 999 1
704 3 1
704 590 1
704 653 1
704 667 1
705 107 1
705 124 1
705 240 1
705 263 1
706 44 1
706 59 1
706 442 1
706 447 1
706 860 1
706 887 1
706 908 1
707 5 1
707 103 1
707 148 1
707 260 1
707 726 1
707 904 1
708 1 1
708 8 1
708 48 1
708 136 1
709 13 1
709 60 1
709 339 1
709 424 1
710 9 1
710 22 1
710 329 1
710 502 1
711 10 1
711 48 1
711 292 1
711 385 1
712 63 1
712 196 1
712 239 1
712 264 1
712 882 1
712 929 1
712 935 1
713 10 1
713 29 1
713 327 1
713 577 1
714 6 1
714 91 1
714 490 1
714 536 1
715 3 1
715 7 1
715 10 1
715 503 1
716 38 1
716 95 1
716 405 1
716 427 1
717 32 1
717 33 1
717 66 1
717 236 1
717 730 1
717 908 1
717 967 1
718 6 1
718 168 1
718 271 1
718 323 1
719 9 1
719 79 1
719 322 1
719 399 1
720 121 1
720 165 1
720 384 1
720 545 1
720 755 1
720 795 1
721 15 1
721 339 1
721 449 1
721 605 1
721 919 1
722 104 1
722 215 1
722 292 1
722 419 1
722 736 1
722 778 1
722 815 1
723 48 1
723 149 1
723 197 1
723 271 1
723 779 1
724 6 1
724 43 1
724 279 1
724 466 1
724 787 1
724 981 1
725 46 1
725 62 1
725 156 1
725 487 1
726 25 1
726 339 1
726 340 1
726 707 1
727 15 1
727 23 1
727 79 1
727 530 1
728 223 1
728 491 1
728 503 1
728 607 1
729 31 1
729 146 1
729 346 1
729 612 1
729 772 1
729 788 1
729 792 1
729 829 1
730 66 1
730 415 1
730 621 1
730 717 1
731 185 1
731 284 1
731 625 1
731 689 1
732 8 1
732 488 1
732 554 1
732 598 1
732 782 1
732 962 1
733 5 1
733 68 1
733 129 1
733 281 1
734 10 1
734 18 1
734 247 1
734 372 1
735 88 1
735 364 1
735 400 1
735 493 1
735 752 1
735 885 1
736 235 1
736 254 1
736 673 1
736 722 1
737 8 1
737 9 1
737 75 1
737 117 1
737 871 1
737 970 1
738 24 1
738 35 1
738 232 1
738 329 1
739 155 1
739 287 1
739 495 1
739 689 1
739 747 1
739 873 1
740 6 1
740 9 1
740 339 1
740 374 1
741 12 1
741 87 1
741 276 1
741 676 1
741 959 1
741 1000 1
742 2 1
742 31 1
742 132 1
742 296 1
743 33 1
743 68 1
743 86 1
743 367 1
743 811 1
744 28 1
744 87 1
744 258 1
744 534 1
745 34 1
745 44 1
745 46 1
745 224 1
746 46 1
746 102 1
746 158 1
746 615 1
746 971 1
747 8 1
747 571 1
747 640 1
747 739 1
748 93 1
748 258 1
748 426 1
748 536 1
749 36 1
749 55 1
749 144 1
749 274 1
749 761 1
750 9 1
750 118 1
750 513 1
750 702 1
750 804 1
750 812 1
751 6 1
751 31 1
751 500 1
751 639 1
752 3 1
752 439 1
752 548 1
752 735 1
752 761 1
752 897 1
753 394 1
753 407 1
753 478 1
753 608 1
754 127 1
754 258 1
754 271 1
754 421 1
755 175 1
755 447 1
755 522 1
755 720 1
755 803 1
755 971 1
756 66 1
756 93 1
756 123 1
756 131 1
757 69 1
757 110 1
757 343 1
757 387 1
757 758 1
757 769 1
758 10 1
758 46 1
758 356 1
758 757 1
759 34 1
759 113 1
759 338 1
759 426 1
760 77 1
760 332 1
760 392 1
760 524 1
761 136 1
761 329 1
761 749 1
761 752 1
762 22 1
762 104 1
762 128 1
762 463 1
762 951 1
763 70 1
763 101 1
763 179 1
763 616 1
764 15 1
764 28 1
764 298 1
764 609 1
764 875 1
765 42 1
765 155 1
765 196 1
765 458 1
766 19 1
766 164 1
766 488 1
766 688 1
766 913 1
767 151 1
767 225 1
767 284 1
767 379 1
767 968 1
768 49 1
768 77 1
768 143 1
768 557 1
769 1 1
769 30 1
769 41 1
769 757 1
769 891 1
770 1 1
770 69 1
770 345 1
770 430 1
771 16 1
771 35 1
771 45 1
771 178 1
772 239 1
772 271 1
772 319 1
772 729 1
773 118 1
773 247 1
773 328 1
773 504 1
774 2 1
774 125 1
774 162 1
774 641 1
775 65 1
775 424 1
775 615 1
775 654 1
776 6 1
776 135 1
776 255 1
776 296 1
777 5 1
777 66 1
777 163 1
777 606 1
778 61 1
778 340 1
778 359 1
778 722 1
779 6 1
779 88 1
779 471 1
779 723 1
779 843 1
779 951 1
780 118 1
780 299 1
780 636 1
780 648 1
781 45 1
781 108 1
781 113 1
781 173 1
781 998 1
782 3 1
782 81 1
782 287 1
782 732 1
783 44 1
783 45 1
783 91 1
783 109 1
783 816 1
783 899 1
784 41 1
784 49 1
784 215 1
784 533 1
784 896 1
784 941 1
785 144 1
785 339 1
785 471 1
785 569 1
786 16 1
786 144 1
786 498 1
786 588 1
786 918 1
786 972 1
787 97 1
787 368 1
787 559 1
787 724 1
788 209 1
788 524 1
788 548 1
788 729 1
788 934 1
789 69 1
789 198 1
789 325 1
789 477 1
789 910 1
790 124 1
790 148 1
790 325 1
790 668 1
791 14 1
791 26 1
791 466 1
791 701 1
792 118 1
792 217 1
792 270 1
792 729 1
792 966 1
793 5 1
793 10 1
793 11 1
793 507 1
793 822 1
793 987 1
794 178 1
794 278 1
794 415 1
794 667 1
795 34 1
795 41 1
795 505 1
795 720 1
795 924 1
796 316 1
796 448 1
796 606 1
796 612 1
796 803 1
796 916 1
797 153 1
797 505 1
797 530 1
797 652 1
798 6 1
798 24 1
798 179 1
798 187 1
799 6 1
799 37 1
799 83 1
799 94 1
800 37 1
800 113 1
800 604 1
800 616 1
801 22 1
801 224 1
801 541 1
801 666 1
802 23 1
802 28 1
802 140 1
802 514 1
802 984 1
803 446 1
803 497 1
803 755 1
803 796 1
804 88 1
804 253 1
804 703 1
804 750 1
805 5 1
805 289 1
805 422 1
805 475 1
805 907 1
806 8 1
806 39 1
806 197 1
806 285 1
806 953 1
807 8 1
807 14 1
807 245 1
807 339 1
807 829 1
808 8 1
808 314 1
808 339 1
808 360 1
809 15 1
809 124 1
809 217 1
809 271 1
809 855 1
810 49 1
810 80 1
810 235 1
810 565 1
811 290 1
811 524 1
811 607 1
811 743 1
812 44 1
812 497 1
812 616 1
812 750 1
812 963 1
813 8 1
813 69 1
813 131 1
813 187 1
813 877 1
814 1 1
814 11 1
814 91 1
814 628 1
815 114 1
815 159 1
815 475 1
815 722 1
815 824 1
815 876 1
816 1 1
816 8 1
816 100 1
816 783 1
816 901 1
817 6 1
817 30 1
817 423 1
817 653 1
817 980 1
818 22 1
818 35 1
818 184 1
818 185 1
819 129 1
819 147 1
819 211 1
819 265 1
819 821 1
820 41 1
820 106 1
820 203 1
820 338 1
821 32 1
821 62 1
821 76 1
821 819 1
822 15 1
822 43 1
822 410 1
822 793 1
822 848 1
823 106 1
823 108 1
823 405 1
823 463 1
824 9 1
824 103 1
824 201 1
824 815 1
825 31 1
825 89 1
825 236 1
825 489 1
826 10 1
826 78 1
826 626 1
826 669 1
826 999 1
827 100 1
827 178 1
827 339 1
827 482 1
827 998 1
828 7 1
828 24 1
828 39 1
828 505 1
829 88 1
829 127 1
829 729 1
829 807 1
829 881 1
830 44 1
830 122 1
830 530 1
830 626 1
831 5 1
831 294 1
831 358 1
831 538 1
832 8 1
832 106 1
832 149 1
832 674 1
832 875 1
833 71 1
833 75 1
833 187 1
833 193 1
833 851 1
834 15 1
834 207 1
834 271 1
834 668 1
835 391 1
835 446 1
835 568 1
835 675 1
836 100 1
836 194 1
836 255 1
836 335 1
836 994 1
837 166 1
837 207 1
837 633 1
837 691 1
838 15 1
838 104 1
838 251 1
838 407 1
839 10 1
839 24 1
839 345 1
839 681 1
840 1 1
840 3 1
840 228 1
840 599 1
841 66 1
841 89 1
841 294 1
841 369 1
842 242 1
842 454 1
842 654 1
842 688 1
843 18 1
843 83 1
843 434 1
843 779 1
844 11 1
844 45 1
844 48 1
844 138 1
845 37 1
845 143 1
845 458 1
845 685 1
845 930 1
846 88 1
846 190 1
846 197 1
846 350 1
847 7 1
847 76 1
847 388 1
847 703 1
847 987 1
848 197 1
848 249 1
848 287 1
848 822 1
848 920 1
849 240 1
849 251 1
849 459 1
849 486 1
850 8 1
850 73 1
850 114 1
850 187 1
851 472 1
851 579 1
851 610 1
851 833 1
852 117 1
852 166 1
852 292 1
852 351 1
852 879 1
853 10 1
853 22 1
853 79 1
853 668 1
854 12 1
854 224 1
854 312 1
854 667 1
855 76 1
855 167 1
855 245 1
855 809 1
856 5 1
856 118 1
856 398 1
856 620 1
857 36 1
857 43 1
857 124 1
857 349 1
858 99 1
858 110 1
858 186 1
858 315 1
859 49 1
859 64 1
859 92 1
859 284 1
860 7 1
860 240 1
860 627 1
860 706 1
861 157 1
861 341 1
861 343 1
861 700 1
861 909 1
862 6 1
862 63 1
862 210 1
862 623 1
862 877 1
863 6 1
863 18 1
863 20 1
863 352 1
863 882 1
864 40 1
864 127 1
864 299 1
864 516 1
865 69 1
865 89 1
865 150 1
865 196 1
866 3 1
866 32 1
866 122 1
866 200 1
867 56 1
867 149 1
867 431 1
867 493 1
868 5 1
868 63 1
868 444 1
868 602 1
869 103 1
869 265 1
869 300 1
869 626 1
870 1 1
870 150 1
870 170 1
870 566 1
871 93 1
871 118 1
871 350 1
871 737 1
872 1 1
872 24 1
872 382 1
872 675 1
873 9 1
873 27 1
873 247 1
873 739 1
874 127 1
874 313 1
874 464 1
874 611 1
875 343 1
875 349 1
875 764 1
875 832 1
876 30 1
876 252 1
876 572 1
876 815 1
877 4 1
877 293 1
877 813 1
877 862 1
878 350 1
878 391 1
878 399 1
878 423 1
879 36 1
879 159 1
879 212 1
879 852 1
880 6 1
880 109 1
880 239 1
880 614 1
880 933 1
881 32 1
881 90 1
881 658 1
881 829 1
882 41 1
882 681 1
882 712 1
882 863 1
883 9 1
883 91 1
883 242 1
883 653 1
884 169 1
884 471 1
884 513 1
884 699 1
885 16 1
885 40 1
885 224 1
885 735 1
886 295 1
886 339 1
886 539 1
886 603 1
887 1 1
887 193 1
887 415 1
887 706 1
888 6 1
888 17 1
888 117 1
888 687 1
889 222 1
889 341 1
889 413 1
889 522 1
890 39 1
890 64 1
890 176 1
890 431 1
891 11 1
891 192 1
891 211 1
891 769 1
892 164 1
892 237 1
892 262 1
892 659 1
893 6 1
893 9 1
893 19 1
893 324 1
894 77 1
894 154 1
894 268 1
894 640 1
895 124 1
895 153 1
895 499 1
895 664 1
895 987 1
896 70 1
896 90 1
896 596 1
896 784 1
897 272 1
897 574 1
897 607 1
897 752 1
898 23 1
898 84 1
898 191 1
898 337 1
899 35 1
899 96 1
899 597 1
899 783 1
900 80 1
900 411 1
900 465 1
900 466 1
901 11 1
901 602 1
901 627 1
901 816 1
902 6 1
902 24 1
902 250 1
902 332 1
902 963 1
903 11 1
903 99 1
903 280 1
903 297 1
904 5 1
904 192 1
904 425 1
904 707 1
905 104 1
905 178 1
905 256 1
905 284 1
905 984 1
906 15 1
906 45 1
906 172 1
906 486 1
907 76 1
907 119 1
907 260 1
907 805 1
907 909 1
908 13 1
908 32 1
908 706 1
908 717 1
909 56 1
909 150 1
909 861 1
909 907 1
909 949 1
910 68 1
910 215 1
910 306 1
910 789 1
911 159 1
911 171 1
911 544 1
911 586 1
912 4 1
912 36 1
912 103 1
912 139 1
913 32 1
913 467 1
913 524 1
913 766 1
914 24 1
914 129 1
914 138 1
914 435 1
915 2 1
915 6 1
915 89 1
915 645 1
916 85 1
916 202 1
916 620 1
916 796 1
917 110 1
917 149 1
917 216 1
917 290 1
918 7 1
918 15 1
918 203 1
918 786 1
919 179 1
919 235 1
919 384 1
919 721 1
920 23 1
920 63 1
920 326 1
920 848 1
921 1 1
921 92 1
921 207 1
921 250 1
922 6 1
922 62 1
922 476 1
922 654 1
923 25 1
923 136 1
923 339 1
923 381 1
924 166 1
924 566 1
924 606 1
924 795 1
925 40 1
925 242 1
925 259 1
925 398 1
926 36 1
926 311 1
926 421 1
926 563 1
927 41 1
927 111 1
927 173 1
927 588 1
928 7 1
928 167 1
928 221 1
928 382 1
929 90 1
929 92 1
929 297 1
929 712 1
930 3 1
930 53 1
930 118 1
930 845 1
931 1 1
931 26 1
931 258 1
931 509 1
932 5 1
932 178 1
932 367 1
932 425 1
933 24 1
933 35 1
933 71 1
933 880 1
934 32 1
934 232 1
934 522 1
934 788 1
935 75 1
935 241 1
935 444 1
935 712 1
936 82 1
936 144 1
936 254 1
936 670 1
937 7 1
937 57 1
937 282 1
937 339 1
938 2 1
938 320 1
938 495 1
938 548 1
939 7 1
939 16 1
939 173 1
939 688 1
940 8 1
940 44 1
940 49 1
940 457 1
941 17 1
941 41 1
941 482 1
941 784 1
941 955 1
942 19 1
942 356 1
942 546 1
942 690 1
943 16 1
943 24 1
943 243 1
943 566 1
944 14 1
944 203 1
944 282 1
944 409 1
945 1 1
945 17 1
945 75 1
945 490 1
946 3 1
946 321 1
946 454 1
946 614 1
947 5 1
947 15 1
947 27 1
947 659 1
948 6 1
948 582 1
948 590 1
948 623 1
949 26 1
949 391 1
949 476 1
949 909 1
950 9 1
950 63 1
950 117 1
950 524 1
951 18 1
951 57 1
951 762 1
951 779 1
952 121 1
952 241 1
952 301 1
952 397 1
953 26 1
953 63 1
953 215 1
953 806 1
954 18 1
954 341 1
954 387 1
954 557 1
955 29 1
955 138 1
955 412 1
955 941 1
956 6 1
956 7 1
956 332 1
956 526 1
957 193 1
957 233 1
957 238 1
957 382 1
957 986 1
957 990 1
958 205 1
958 238 1
958 550 1
958 655 1
958 965 1
959 1 1
959 270 1
959 455 1
959 741 1
960 5 1
960 74 1
960 232 1
960 332 1
961 15 1
961 84 1
961 616 1
961 679 1
962 68 1
962 162 1
962 221 1
962 732 1
962 976 1
963 207 1
963 212 1
963 812 1
963 902 1
964 9 1
964 113 1
964 122 1
964 140 1
965 38 1
965 444 1
965 490 1
965 958 1
965 993 1
966 103 1
966 384 1
966 615 1
966 792 1
967 93 1
967 235 1
967 490 1
967 717 1
967 969 1
968 411 1
968 419 1
968 683 1
968 767 1
969 5 1
969 8 1
969 185 1
969 967 1
970 6 1
970 223 1
970 246 1
970 737 1
971 2 1
971 13 1
971 746 1
971 755 1
972 15 1
972 242 1
972 602 1
972 786 1
973 23 1
973 150 1
973 254 1
973 508 1
974 21 1
974 24 1
974 125 1
974 324 1
975 1 1
975 11 1
975 401 1
975 477 1
976 11 1
976 197 1
976 440 1
976 962 1
977 24 1
977 294 1
977 523 1
977 631 1
978 15 1
978 53 1
978 574 1
978 654 1
979 6 1
979 85 1
979 130 1
979 351 1
979 1000 1
980 34 1
980 397 1
980 452 1
980 817 1
981 29 1
981 138 1
981 280 1
981 724 1
981 990 1
982 1 1
982 84 1
982 545 1
982 587 1
983 5 1
983 12 1
983 97 1
983 245 1
984 156 1
984 498 1
984 802 1
984 905 1
985 90 1
985 150 1
985 314 1
985 475 1
986 21 1
986 49 1
986 456 1
986 957 1
987 674 1
987 793 1
987 847 1
987 895 1
988 7 1
988 27 1
988 119 1
988 176 1
989 61 1
989 128 1
989 307 1
989 445 1
990 352 1
990 569 1
990 957 1
990 981 1
991 38 1
991 69 1
991 306 1
991 557 1
992 15 1
992 186 1
992 324 1
992 440 1
993 78 1
993 292 1
993 377 1
993 965 1
994 125 1
994 234 1
994 268 1
994 836 1
995 8 1
995 118 1
995 156 1
995 175 1
996 3 1
996 165 1
996 263 1
996 289 1
997 177 1
997 285 1
997 557 1
997 617 1
998 183 1
998 262 1
998 781 1
998 827 1
999 14 1
999 139 1
999 703 1
999 826 1
1000 175 1
1000 215 1
1000 741 1
1000 979 1
