%%MatrixMarket matrix coordinate integer general
%
3000 3000 23968
1 2 1
1 3 1
1 4 1
1 5 1
1 6 1
1 8 1
1 11 1
1 13 1
1 14 1
1 16 1
1 19 1
1 21 1
1 22 1
1 25 1
1 27 1
1 28 1
1 29 1
1 34 1
1 36 1
1 40 1
1 42 1
1 43 1
1 45 1
1 46 1
1 56 1
1 57 1
1 72 1
1 73 1
1 75 1
1 76 1
1 78 1
1 80 1
1 83 1
1 92 1
1 93 1
1 94 1
1 95 1
1 107 1
1 120 1
1 128 1
1 132 1
1 139 1
1 146 1
1 162 1
1 171 1
1 177 1
1 180 1
1 196 1
1 201 1
1 205 1
1 209 1
1 227 1
1 236 1
1 270 1
1 276 1
1 290 1
1 294 1
1 295 1
1 306 1
1 339 1
1 353 1
1 387 1
1 388 1
1 450 1
1 451 1
1 469 1
1 477 1
1 487 1
1 492 1
1 583 1
1 585 1
1 641 1
1 642 1
1 648 1
1 691 1
1 715 1
1 734 1
1 738 1
1 758 1
1 765 1
1 766 1
1 786 1
1 817 1
1 857 1
1 859 1
1 861 1
1 875 1
1 884 1
1 907 1
1 970 1
1 977 1
1 992 1
1 1022 1
1 1034 1
1 1037 1
1 1042 1
1 1050 1
1 1069 1
1 1086 1
1 1096 1
1 1107 1
1 1133 1
1 1169 1
1 1200 1
1 1206 1
1 1241 1
1 1307 1
1 1312 1
1 1338 1
1 1342 1
1 1384 1
1 1412 1
1 1452 1
1 1474 1
1 1504 1
1 1506 1
1 1686 1
1 1753 1
1 1790 1
1 1798 1
1 1836 1
1 1839 1
1 1874 1
1 1923 1
1 1939 1
1 1948 1
1 1957 1
1 1976 1
1 1979 1
1 1989 1
1 1992 1
1 2030 1
1 2046 1
1 2068 1
1 2131 1
1 2136 1
1 2145 1
1 2153 1
1 2169 1
1 2187 1
1 2236 1
1 2311 1
1 2333 1
1 2415 1
1 2431 1
1 2474 1
1 2475 1
1 2502 1
1 2547 1
1 2578 1
1 2626 1
1 2706 1
1 2717 1
1 2719 1
1 2843 1
1 2874 1
1 2909 1
1 2916 1
1 2925 1
1 2970 1
1 2990 1
2 1 1
2 6 1
2 7 1
2 16 1
2 41 1
2 62 1
2 103 1
2 140 1
2 162 1
2 169 1
2 170 1
2 175 1
2 180 1
2 190 1
2 263 1
2 329 1
2 357 1
2 404 1
2 410 1
2 425 1
2 447 1
2 456 1
2 458 1
2 533 1
2 627 1
2 768 1
2 839 1
2 903 1
2 940 1
2 958 1
2 1008 1
2 1021 1
2 1067 1
2 1169 1
2 1302 1
2 1675 1
2 1717 1
2 1735 1
2 1742 1
2 1748 1
2 1749 1
2 1891 1
2 1911 1
2 1935 1
2 1952 1
2 1955 1
2 1979 1
2 2097 1
2 2421 1
2 2427 1
2 2637 1
2 2668 1
2 2750 1
2 2837 1
2 2995 1
3 1 1
3 7 1
3 8 1
3 9 1
3 12 1
3 16 1
3 17 1
3 20 1
3 26 1
3 33 1
3 58 1
3 62 1
3 101 1
3 108 1
3 117 1
3 149 1
3 167 1
3 168 1
3 170 1
3 185 1
3 188 1
3 221 1
3 232 1
3 319 1
3 328 1
3 342 1
3 394 1
3 471 1
3 474 1
3 524 1
3 556 1
3 597 1
3 604 1
3 673 1
3 677 1
3 684 1
3 699 1
3 716 1
3 723 1
3 741 1
3 754 1
3 762 1
3 765 1
3 785 1
3 846 1
3 848 1
3 849 1
3 950 1
3 981 1
3 1022 1
3 1076 1
3 1134 1
3 1259 1
3 1341 1
3 1343 1
3 1363 1
3 1368 1
3 1457 1
3 1529 1
3 1577 1
3 1683 1
3 1690 1
3 1693 1
3 1923 1
3 1961 1
3 2003 1
3 2121 1
3 2244 1
3 2348 1
3 2471 1
3 2484 1
3 2544 1
3 2557 1
3 2641 1
3 2657 1
3 2660 1
3 2744 1
3 2808 1
3 2827 1
3 2871 1
3 2940 1
4 1 1
4 6 1
4 7 1
4 9 1
4 10 1
4 13 1
4 24 1
4 33 1
4 38 1
4 40 1
4 42 1
4 47 1
4 66 1
4 73 1
4 84 1
4 85 1
4 131 1
4 169 1
4 188 1
4 191 1
4 211 1
4 240 1
4 248 1
4 249 1
4 282 1
4 291 1
4 293 1
4 370 1
4 435 1
4 489 1
4 515 1
4 537 1
4 547 1
4 557 1
4 593 1
4 597 1
4 652 1
4 669 1
4 690 1
4 694 1
4 700 1
4 762 1
4 812 1
4 823 1
4 912 1
4 1020 1
4 1055 1
4 1077 1
4 1165 1
4 1223 1
4 1286 1
4 1389 1
4 1398 1
4 1451 1
4 1545 1
4 1721 1
4 1788 1
4 1792 1
4 1853 1
4 1864 1
4 1952 1
4 2027 1
4 2047 1
4 2180 1
4 2199 1
4 2223 1
4 2224 1
4 2271 1
4 2288 1
4 2348 1
4 2522 1
4 2527 1
4 2557 1
4 2664 1
4 2681 1
4 2701 1
4 2718 1
5 1 1
5 6 1
5 7 1
5 8 1
5 9 1
5 10 1
5 18 1
5 20 1
5 21 1
5 38 1
5 43 1
5 95 1
5 99 1
5 116 1
5 118 1
5 124 1
5 125 1
5 129 1
5 141 1
5 158 1
5 179 1
5 184 1
5 212 1
5 220 1
5 236 1
5 254 1
5 289 1
5 293 1
5 294 1
5 295 1
5 334 1
5 374 1
5 399 1
5 406 1
5 429 1
5 476 1
5 482 1
5 584 1
5 615 1
5 621 1
5 638 1
5 671 1
5 673 1
5 721 1
5 898 1
5 951 1
5 966 1
5 987 1
5 1010 1
5 1019 1
5 1042 1
5 1047 1
5 1064 1
5 1174 1
5 1179 1
5 1186 1
5 1188 1
5 1231 1
5 1233 1
5 1308 1
5 1321 1
5 1356 1
5 1406 1
5 1490 1
5 1502 1
5 1507 1
5 1539 1
5 1549 1
5 1591 1
5 1613 1
5 1641 1
5 1657 1
5 1662 1
5 1795 1
5 1863 1
5 1865 1
5 1917 1
5 1932 1
5 2058 1
5 2119 1
5 2233 1
5 2282 1
5 2294 1
5 2343 1
5 2432 1
5 2435 1
5 2553 1
5 2566 1
5 2631 1
5 2679 1
5 2690 1
5 2827 1
5 2832 1
5 2834 1
5 2857 1
5 2892 1
6 1 1
6 2 1
6 4 1
6 5 1
6 8 1
6 11 1
6 14 1
6 15 1
6 17 1
6 18 1
6 23 1
6 24 1
6 27 1
6 29 1
6 31 1
6 32 1
6 36 1
6 38 1
6 43 1
6 44 1
6 56 1
6 58 1
6 63 1
6 64 1
6 65 1
6 73 1
6 78 1
6 81 1
6 94 1
6 96 1
6 102 1
6 105 1
6 106 1
6 109 1
6 111 1
6 115 1
6 120 1
6 131 1
6 133 1
6 142 1
6 148 1
6 149 1
6 152 1
6 154 1
6 157 1
6 164 1
6 167 1
6 177 1
6 190 1
6 203 1
6 215 1
6 218 1
6 238 1
6 245 1
6 257 1
6 259 1
6 261 1
6 298 1
6 300 1
6 312 1
6 318 1
6 325 1
6 337 1
6 348 1
6 350 1
6 353 1
6 359 1
6 376 1
6 379 1
6 382 1
6 385 1
6 386 1
6 400 1
6 440 1
6 441 1
6 442 1
6 445 1
6 463 1
6 485 1
6 508 1
6 516 1
6 520 1
6 542 1
6 545 1
6 558 1
6 565 1
6 606 1
6 608 1
6 615 1
6 620 1
6 634 1
6 639 1
6 677 1
6 704 1
6 705 1
6 706 1
6 709 1
6 728 1
6 744 1
6 750 1
6 766 1
6 789 1
6 801 1
6 821 1
6 822 1
6 843 1
6 846 1
6 919 1
6 923 1
6 973 1
6 975 1
6 986 1
6 996 1
6 1048 1
6 1053 1
6 1145 1
6 1149 1
6 1160 1
6 1161 1
6 1181 1
6 1200 1
6 1205 1
6 1236 1
6 1254 1
6 1257 1
6 1291 1
6 1296 1
6 1312 1
6 1315 1
6 1330 1
6 1334 1
6 1367 1
6 1386 1
6 1390 1
6 1414 1
6 1426 1
6 1430 1
6 1437 1
6 1458 1
6 1486 1
6 1488 1
6 1575 1
6 1583 1
6 1633 1
6 1643 1
6 1708 1
6 1738 1
6 1758 1
6 1799 1
6 1816 1
6 1829 1
6 1858 1
6 1895 1
6 1940 1
6 1944 1
6 1985 1
6 1996 1
6 2064 1
6 2097 1
6 2117 1
6 2150 1
6 2157 1
6 2171 1
6 2204 1
6 2206 1
6 2209 1
6 2225 1
6 2228 1
6 2254 1
6 2256 1
6 2314 1
6 2358 1
6 2364 1
6 2442 1
6 2447 1
6 2459 1
6 2485 1
6 2546 1
6 2578 1
6 2591 1
6 2600 1
6 2660 1
6 2673 1
6 2691 1
6 2779 1
6 2791 1
6 2814 1
6 2827 1
6 2829 1
6 2876 1
7 2 1
7 3 1
7 4 1
7 5 1
7 10 1
7 11 1
7 12 1
7 14 1
7 15 1
7 19 1
7 26 1
7 31 1
7 33 1
7 35 1
7 40 1
7 52 1
7 55 1
7 57 1
7 59 1
7 63 1
7 79 1
7 92 1
7 110 1
7 119 1
7 130 1
7 136 1
7 144 1
7 147 1
7 148 1
7 184 1
7 203 1
7 207 1
7 216 1
7 219 1
7 250 1
7 263 1
7 272 1
7 273 1
7 282 1
7 304 1
7 306 1
7 319 1
7 371 1
7 379 1
7 398 1
7 447 1
7 457 1
7 459 1
7 481 1
7 497 1
7 500 1
7 508 1
7 511 1
7 512 1
7 539 1
7 549 1
7 550 1
7 565 1
7 570 1
7 599 1
7 609 1
7 627 1
7 668 1
7 702 1
7 736 1
7 772 1
7 796 1
7 835 1
7 858 1
7 894 1
7 996 1
7 1019 1
7 1040 1
7 1083 1
7 1098 1
7 1164 1
7 1174 1
7 1373 1
7 1432 1
7 1462 1
7 1463 1
7 1492 1
7 1494 1
7 1505 1
7 1523 1
7 1541 1
7 1558 1
7 1569 1
7 1616 1
7 1654 1
7 1685 1
7 1705 1
7 1747 1
7 1769 1
7 1771 1
7 1835 1
7 1866 1
7 1899 1
7 1923 1
7 1949 1
7 1980 1
7 2025 1
7 2027 1
7 2158 1
7 2260 1
7 2270 1
7 2317 1
7 2347 1
7 2464 1
7 2471 1
7 2476 1
7 2491 1
7 2504 1
7 2522 1
7 2563 1
7 2564 1
7 2643 1
7 2698 1
7 2775 1
7 2788 1
7 2796 1
7 2911 1
7 2917 1
7 2961 1
8 1 1
8 3 1
8 5 1
8 6 1
8 9 1
8 10 1
8 12 1
8 23 1
8 24 1
8 25 1
8 46 1
8 49 1
8 56 1
8 65 1
8 68 1
8 104 1
8 112 1
8 113 1
8 134 1
8 141 1
8 144 1
8 149 1
8 152 1
8 174 1
8 182 1
8 200 1
8 215 1
8 225 1
8 230 1
8 258 1
8 266 1
8 335 1
8 390 1
8 408 1
8 415 1
8 416 1
8 448 1
8 471 1
8 546 1
8 554 1
8 585 1
8 587 1
8 631 1
8 644 1
8 665 1
8 683 1
8 708 1
8 798 1
8 803 1
8 815 1
8 854 1
8 857 1
8 865 1
8 906 1
8 972 1
8 994 1
8 1004 1
8 1057 1
8 1069 1
8 1079 1
8 1104 1
8 1112 1
8 1268 1
8 1292 1
8 1305 1
8 1308 1
8 1446 1
8 1459 1
8 1532 1
8 1601 1
8 1667 1
8 1792 1
8 1819 1
8 1843 1
8 1861 1
8 1879 1
8 2045 1
8 2121 1
8 2154 1
8 2155 1
8 2190 1
8 2200 1
8 2214 1
8 2263 1
8 2281 1
8 2303 1
8 2350 1
8 2493 1
8 2509 1
8 2552 1
8 2608 1
8 2625 1
8 2708 1
8 2802 1
8 2861 1
8 2907 1
9 3 1
9 4 1
9 5 1
9 8 1
9 12 1
9 13 1
9 15 1
9 16 1
9 17 1
9 18 1
9 21 1
9 23 1
9 25 1
9 30 1
9 31 1
9 38 1
9 39 1
9 40 1
9 41 1
9 47 1
9 50 1
9 51 1
9 61 1
9 70 1
9 74 1
9 77 1
9 87 1
9 88 1
9 96 1
9 98 1
9 104 1
9 110 1
9 117 1
9 123 1
9 127 1
9 145 1
9 165 1
9 195 1
9 197 1
9 204 1
9 225 1
9 228 1
9 245 1
9 266 1
9 276 1
9 288 1
9 290 1
9 296 1
9 328 1
9 341 1
9 369 1
9 373 1
9 392 1
9 410 1
9 468 1
9 477 1
9 481 1
9 490 1
9 501 1
9 513 1
9 525 1
9 527 1
9 537 1
9 576 1
9 620 1
9 629 1
9 642 1
9 693 1
9 694 1
9 702 1
9 713 1
9 722 1
9 740 1
9 782 1
9 793 1
9 819 1
9 874 1
9 882 1
9 903 1
9 906 1
9 947 1
9 950 1
9 956 1
9 979 1
9 985 1
9 1002 1
9 1004 1
9 1035 1
9 1129 1
9 1137 1
9 1158 1
9 1242 1
9 1382 1
9 1462 1
9 1468 1
9 1486 1
9 1501 1
9 1553 1
9 1554 1
9 1558 1
9 1580 1
9 1612 1
9 1619 1
9 1624 1
9 1630 1
9 1698 1
9 1759 1
9 1799 1
9 1831 1
9 1870 1
9 1897 1
9 1929 1
9 1950 1
9 1986 1
9 1991 1
9 2018 1
9 2024 1
9 2029 1
9 2064 1
9 2085 1
9 2163 1
9 2207 1
9 2231 1
9 2305 1
9 2571 1
9 2611 1
9 2615 1
9 2620 1
9 2673 1
9 2682 1
9 2700 1
9 2757 1
9 2788 1
9 2879 1
9 2902 1
9 2968 1
9 2981 1
10 4 1
10 5 1
10 7 1
10 8 1
10 11 1
10 13 1
10 15 1
10 17 1
10 19 1
10 20 1
10 21 1
10 22 1
10 23 1
10 32 1
10 34 1
10 37 1
10 39 1
10 48 1
10 52 1
10 61 1
10 79 1
10 96 1
10 107 1
10 146 1
10 179 1
10 180 1
10 202 1
10 206 1
10 241 1
10 273 1
10 282 1
10 303 1
10 307 1
10 309 1
10 339 1
10 347 1
10 350 1
10 368 1
10 382 1
10 429 1
10 436 1
10 449 1
10 460 1
10 487 1
10 522 1
10 524 1
10 533 1
10 571 1
10 573 1
10 611 1
10 613 1
10 629 1
10 837 1
10 865 1
10 875 1
10 879 1
10 885 1
10 954 1
10 968 1
10 1003 1
10 1061 1
10 1126 1
10 1136 1
10 1152 1
10 1194 1
10 1216 1
10 1280 1
10 1362 1
10 1454 1
10 1458 1
10 1462 1
10 1518 1
10 1594 1
10 1611 1
10 1664 1
10 1822 1
10 1825 1
10 1829 1
10 1931 1
10 1933 1
10 1937 1
10 1981 1
10 2014 1
10 2115 1
10 2187 1
10 2207 1
10 2220 1
10 2229 1
10 2352 1
10 2359 1
10 2381 1
10 2411 1
10 2413 1
10 2538 1
10 2561 1
10 2603 1
10 2649 1
10 2755 1
10 2901 1
10 2908 1
11 1 1
11 6 1
11 7 1
11 10 1
11 77 1
11 440 1
11 858 1
11 1112 1
11 1370 1
11 1481 1
11 2862 1
12 3 1
12 7 1
12 8 1
12 9 1
12 25 1
12 32 1
12 37 1
12 45 1
12 91 1
12 120 1
12 148 1
12 151 1
12 168 1
12 220 1
12 249 1
12 272 1
12 338 1
12 416 1
12 452 1
12 486 1
12 491 1
12 545 1
12 566 1
12 627 1
12 714 1
12 784 1
12 810 1
12 819 1
12 878 1
12 952 1
12 1029 1
12 1051 1
12 1077 1
12 1105 1
12 1339 1
12 1354 1
12 1375 1
12 1419 1
12 1722 1
12 1887 1
12 1986 1
12 2268 1
12 2369 1
12 2443 1
12 2490 1
12 2540 1
12 2679 1
12 2694 1
12 2761 1
12 2765 1
12 2777 1
12 2825 1
12 2939 1
12 2974 1
12 2979 1
13 1 1
13 4 1
13 9 1
13 10 1
13 14 1
13 35 1
13 54 1
13 68 1
13 72 1
13 87 1
13 88 1
13 95 1
13 97 1
13 100 1
13 105 1
13 110 1
13 142 1
13 154 1
13 165 1
13 171 1
13 184 1
13 196 1
13 202 1
13 203 1
13 210 1
13 211 1
13 231 1
13 278 1
13 305 1
13 311 1
13 315 1
13 360 1
13 382 1
13 431 1
13 444 1
13 494 1
13 513 1
13 659 1
13 707 1
13 726 1
13 742 1
13 796 1
13 855 1
13 863 1
13 877 1
13 936 1
13 959 1
13 973 1
13 1007 1
13 1014 1
13 1024 1
13 1118 1
13 1191 1
13 1277 1
13 1280 1
13 1317 1
13 1358 1
13 1367 1
13 1375 1
13 1406 1
13 1479 1
13 1493 1
13 1526 1
13 1575 1
13 1627 1
13 1716 1
13 1790 1
13 1804 1
13 1852 1
13 1895 1
13 1918 1
13 2008 1
13 2017 1
13 2025 1
13 2060 1
13 2122 1
13 2136 1
13 2260 1
13 2383 1
13 2394 1
13 2690 1
13 2730 1
13 2782 1
13 2834 1
13 2939 1
13 2987 1
14 1 1
14 6 1
14 7 1
14 13 1
14 18 1
14 29 1
14 31 1
14 45 1
14 47 1
14 48 1
14 72 1
14 85 1
14 125 1
14 130 1
14 182 1
14 192 1
14 207 1
14 223 1
14 267 1
14 290 1
14 317 1
14 394 1
14 507 1
14 577 1
14 591 1
14 635 1
14 716 1
14 784 1
14 817 1
14 818 1
14 836 1
14 847 1
14 1022 1
14 1036 1
14 1051 1
14 1115 1
14 1240 1
14 1334 1
14 1405 1
14 1550 1
14 1638 1
14 1731 1
14 1767 1
14 1874 1
14 2062 1
14 2337 1
14 2379 1
14 2446 1
14 2471 1
14 2561 1
14 2575 1
14 2591 1
14 2678 1
14 2852 1
15 6 1
15 7 1
15 9 1
15 10 1
15 41 1
15 49 1
15 50 1
15 81 1
15 89 1
15 95 1
15 106 1
15 108 1
15 118 1
15 187 1
15 208 1
15 250 1
15 276 1
15 280 1
15 285 1
15 321 1
15 340 1
15 374 1
15 401 1
15 446 1
15 530 1
15 580 1
15 640 1
15 687 1
15 728 1
15 737 1
15 739 1
15 764 1
15 900 1
15 953 1
15 983 1
15 1111 1
15 1213 1
15 1215 1
15 1329 1
15 1405 1
15 1573 1
15 1595 1
15 1681 1
15 1810 1
15 1814 1
15 1879 1
15 1886 1
15 1944 1
15 1953 1
15 2007 1
15 2296 1
15 2311 1
15 2346 1
15 2369 1
15 2457 1
15 2748 1
15 2969 1
16 1 1
16 2 1
16 3 1
16 9 1
16 24 1
16 28 1
16 39 1
16 62 1
16 68 1
16 70 1
16 90 1
16 123 1
16 157 1
16 159 1
16 209 1
16 216 1
16 224 1
16 265 1
16 292 1
16 301 1
16 328 1
16 409 1
16 469 1
16 539 1
16 586 1
16 599 1
16 618 1
16 723 1
16 732 1
16 924 1
16 934 1
16 1013 1
16 1093 1
16 1146 1
16 1320 1
16 1359 1
16 1361 1
16 1376 1
16 1551 1
16 1646 1
16 1840 1
16 1919 1
16 2206 1
16 2312 1
16 2402 1
16 2425 1
16 2435 1
16 2443 1
16 2626 1
16 2901 1
17 3 1
17 6 1
17 9 1
17 10 1
17 19 1
17 20 1
17 22 1
17 27 1
17 30 1
17 35 1
17 46 1
17 51 1
17 67 1
17 69 1
17 75 1
17 80 1
17 115 1
17 127 1
17 130 1
17 133 1
17 198 1
17 210 1
17 213 1
17 233 1
17 267 1
17 322 1
17 345 1
17 355 1
17 507 1
17 541 1
17 602 1
17 618 1
17 657 1
17 745 1
17 746 1
17 785 1
17 852 1
17 904 1
17 1063 1
17 1245 1
17 1286 1
17 1461 1
17 1524 1
17 1558 1
17 1617 1
17 1697 1
17 1796 1
17 1817 1
17 1969 1
17 2032 1
17 2056 1
17 2309 1
17 2397 1
17 2525 1
17 2694 1
17 2705 1
17 2942 1
18 5 1
18 6 1
18 9 1
18 14 1
18 160 1
18 243 1
18 264 1
18 277 1
18 306 1
18 569 1
18 666 1
18 705 1
18 809 1
18 813 1
18 1120 1
18 1162 1
18 1205 1
18 1292 1
18 1320 1
18 1323 1
18 1809 1
18 2339 1
18 2370 1
18 2775 1
18 2811 1
19 1 1
19 7 1
19 10 1
19 17 1
19 32 1
19 34 1
19 44 1
19 51 1
19 53 1
19 89 1
19 121 1
19 124 1
19 134 1
19 135 1
19 138 1
19 161 1
19 174 1
19 213 1
19 215 1
19 235 1
19 281 1
19 336 1
19 365 1
19 383 1
19 394 1
19 441 1
19 450 1
19 463 1
19 482 1
19 489 1
19 522 1
19 563 1
19 614 1
19 626 1
19 631 1
19 663 1
19 667 1
19 675 1
19 686 1
19 744 1
19 767 1
19 777 1
19 786 1
19 798 1
19 804 1
19 810 1
19 830 1
19 834 1
19 859 1
19 946 1
19 971 1
19 998 1
19 1011 1
19 1269 1
19 1290 1
19 1356 1
19 1365 1
19 1422 1
19 1517 1
19 1608 1
19 1626 1
19 1632 1
19 1730 1
19 1774 1
19 1775 1
19 1843 1
19 1858 1
19 1909 1
19 1929 1
19 1953 1
19 1997 1
19 2013 1
19 2054 1
19 2093 1
19 2110 1
19 2205 1
19 2256 1
19 2380 1
19 2401 1
19 2410 1
19 2427 1
19 2567 1
19 2573 1
19 2655 1
19 2683 1
19 2813 1
19 2861 1
20 3 1
20 5 1
20 10 1
20 17 1
20 22 1
20 30 1
20 74 1
20 82 1
20 85 1
20 105 1
20 166 1
20 172 1
20 194 1
20 214 1
20 291 1
20 343 1
20 352 1
20 428 1
20 438 1
20 454 1
20 540 1
20 646 1
20 695 1
20 756 1
20 841 1
20 881 1
20 943 1
20 952 1
20 1114 1
20 1115 1
20 1220 1
20 1244 1
20 1322 1
20 1635 1
20 1668 1
20 2023 1
20 2299 1
20 2518 1
20 2747 1
20 2751 1
20 2825 1
21 1 1
21 5 1
21 9 1
21 10 1
21 27 1
21 29 1
21 37 1
21 44 1
21 61 1
21 86 1
21 99 1
21 121 1
21 197 1
21 234 1
21 242 1
21 333 1
21 375 1
21 407 1
21 410 1
21 429 1
21 457 1
21 467 1
21 540 1
21 625 1
21 637 1
21 681 1
21 696 1
21 701 1
21 775 1
21 886 1
21 929 1
21 962 1
21 1002 1
21 1084 1
21 1089 1
21 1153 1
21 1277 1
21 1301 1
21 1411 1
21 1460 1
21 1491 1
21 1608 1
21 1642 1
21 1803 1
21 1870 1
21 1914 1
21 1941 1
21 1962 1
21 1979 1
21 2023 1
21 2162 1
21 2357 1
21 2362 1
21 2395 1
21 2488 1
21 2645 1
21 2728 1
21 2864 1
22 1 1
22 10 1
22 17 1
22 20 1
22 57 1
22 78 1
22 101 1
22 116 1
22 154 1
22 234 1
22 267 1
22 303 1
22 368 1
22 377 1
22 400 1
22 413 1
22 599 1
22 628 1
22 668 1
22 672 1
22 728 1
22 863 1
22 1080 1
22 1213 1
22 1229 1
22 1240 1
22 1254 1
22 1355 1
22 1402 1
22 1456 1
22 1528 1
22 1815 1
22 2181 1
22 2197 1
22 2290 1
22 2599 1
22 2699 1
23 6 1
23 8 1
23 9 1
23 10 1
23 26 1
23 28 1
23 34 1
23 65 1
23 69 1
23 79 1
23 82 1
23 86 1
23 98 1
23 111 1
23 115 1
23 123 1
23 132 1
23 135 1
23 160 1
23 168 1
23 204 1
23 212 1
23 217 1
23 232 1
23 234 1
23 246 1
23 270 1
23 288 1
23 297 1
23 352 1
23 366 1
23 385 1
23 421 1
23 461 1
23 475 1
23 501 1
23 547 1
23 552 1
23 612 1
23 616 1
23 626 1
23 634 1
23 647 1
23 671 1
23 698 1
23 708 1
23 714 1
23 722 1
23 856 1
23 866 1
23 901 1
23 950 1
23 1044 1
23 1094 1
23 1169 1
23 1171 1
23 1211 1
23 1231 1
23 1370 1
23 1428 1
23 1441 1
23 1453 1
23 1456 1
23 1510 1
23 1560 1
23 1658 1
23 1729 1
23 1808 1
23 1842 1
23 1880 1
23 1902 1
23 1961 1
23 1974 1
23 2062 1
23 2102 1
23 2120 1
23 2139 1
23 2153 1
23 2184 1
23 2220 1
23 2274 1
23 2336 1
23 2424 1
23 2525 1
23 2545 1
23 2577 1
23 2583 1
23 2653 1
23 2670 1
23 2720 1
23 2779 1
23 2875 1
23 2902 1
23 2996 1
24 4 1
24 6 1
24 8 1
24 16 1
24 26 1
24 35 1
24 91 1
24 102 1
24 109 1
24 159 1
24 177 1
24 202 1
24 230 1
24 290 1
24 310 1
24 396 1
24 401 1
24 460 1
24 506 1
24 580 1
24 704 1
24 982 1
24 1202 1
24 1265 1
24 1313 1
24 1395 1
24 1401 1
24 1427 1
24 1860 1
24 1985 1
24 2056 1
24 2058 1
24 2200 1
24 2345 1
24 2372 1
24 2468 1
24 2555 1
24 2660 1
24 2717 1
24 2727 1
24 2776 1
24 2882 1
24 2966 1
24 2976 1
24 2990 1
24 2997 1
25 1 1
25 8 1
25 9 1
25 12 1
25 28 1
25 33 1
25 36 1
25 37 1
25 49 1
25 56 1
25 58 1
25 71 1
25 77 1
25 84 1
25 92 1
25 93 1
25 98 1
25 139 1
25 145 1
25 162 1
25 173 1
25 174 1
25 199 1
25 211 1
25 215 1
25 253 1
25 260 1
25 287 1
25 299 1
25 353 1
25 363 1
25 370 1
25 371 1
25 385 1
25 398 1
25 404 1
25 447 1
25 451 1
25 468 1
25 487 1
25 492 1
25 494 1
25 497 1
25 519 1
25 531 1
25 546 1
25 559 1
25 563 1
25 568 1
25 607 1
25 648 1
25 663 1
25 668 1
25 731 1
25 795 1
25 816 1
25 870 1
25 890 1
25 896 1
25 965 1
25 974 1
25 1051 1
25 1135 1
25 1153 1
25 1188 1
25 1195 1
25 1204 1
25 1230 1
25 1235 1
25 1253 1
25 1265 1
25 1270 1
25 1324 1
25 1325 1
25 1336 1
25 1430 1
25 1544 1
25 1562 1
25 1689 1
25 1736 1
25 1748 1
25 1793 1
25 1824 1
25 1898 1
25 1904 1
25 1960 1
25 1983 1
25 2019 1
25 2026 1
25 2032 1
25 2052 1
25 2110 1
25 2134 1
25 2141 1
25 2154 1
25 2175 1
25 2210 1
25 2282 1
25 2283 1
25 2351 1
25 2449 1
25 2528 1
25 2543 1
25 2738 1
25 2747 1
25 2781 1
25 2787 1
25 2810 1
25 2906 1
25 2926 1
25 2937 1
26 3 1
26 7 1
26 23 1
26 24 1
26 94 1
26 125 1
26 189 1
26 231 1
26 271 1
26 279 1
26 287 1
26 424 1
26 432 1
26 613 1
26 623 1
26 663 1
26 749 1
26 860 1
26 915 1
26 990 1
26 1140 1
26 1434 1
26 1567 1
26 1685 1
26 1719 1
26 1851 1
26 1967 1
26 2201 1
26 2268 1
26 2297 1
26 2498 1
26 2666 1
26 2722 1
27 1 1
27 6 1
27 17 1
27 21 1
27 30 1
27 54 1
27 60 1
27 63 1
27 78 1
27 81 1
27 97 1
27 144 1
27 158 1
27 160 1
27 167 1
27 173 1
27 197 1
27 237 1
27 277 1
27 309 1
27 311 1
27 323 1
27 373 1
27 414 1
27 496 1
27 517 1
27 571 1
27 591 1
27 595 1
27 609 1
27 639 1
27 745 1
27 751 1
27 815 1
27 1024 1
27 1056 1
27 1202 1
27 1247 1
27 1288 1
27 1348 1
27 1651 1
27 1756 1
27 1785 1
27 1794 1
27 1830 1
27 2039 1
27 2065 1
27 2130 1
27 2496 1
27 2592 1
27 2784 1
27 2799 1
28 1 1
28 16 1
28 23 1
28 25 1
28 43 1
28 52 1
28 60 1
28 77 1
28 122 1
28 133 1
28 158 1
28 191 1
28 199 1
28 297 1
28 298 1
28 329 1
28 337 1
28 670 1
28 696 1
28 721 1
28 890 1
28 1015 1
28 1142 1
28 1309 1
28 1314 1
28 1338 1
28 1409 1
28 1616 1
28 1825 1
28 1883 1
28 1889 1
28 2124 1
28 2217 1
28 2584 1
28 2696 1
28 2768 1
29 1 1
29 6 1
29 14 1
29 21 1
29 53 1
29 63 1
29 134 1
29 200 1
29 287 1
29 362 1
29 364 1
29 387 1
29 428 1
29 878 1
29 928 1
29 1045 1
29 1123 1
29 1139 1
29 1249 1
29 1533 1
29 1859 1
29 2482 1
29 2786 1
29 2910 1
29 2960 1
29 2978 1
30 9 1
30 17 1
30 20 1
30 27 1
30 226 1
30 323 1
30 455 1
30 528 1
30 1525 1
30 1596 1
30 2703 1
30 2857 1
31 6 1
31 7 1
31 9 1
31 14 1
31 39 1
31 67 1
31 121 1
31 133 1
31 185 1
31 227 1
31 404 1
31 427 1
31 542 1
31 1006 1
31 1054 1
31 1116 1
31 1129 1
31 1361 1
31 1405 1
31 1478 1
31 1721 1
31 1746 1
31 1796 1
31 1809 1
31 1897 1
31 1936 1
31 2418 1
31 2441 1
31 2469 1
31 2531 1
31 2894 1
31 2944 1
32 6 1
32 10 1
32 12 1
32 19 1
32 44 1
32 73 1
32 102 1
32 137 1
32 153 1
32 166 1
32 178 1
32 190 1
32 241 1
32 286 1
32 362 1
32 729 1
32 791 1
32 1047 1
32 1052 1
32 1067 1
32 1264 1
32 1355 1
32 1434 1
32 1566 1
32 1729 1
32 1743 1
32 1895 1
32 2043 1
32 2085 1
32 2374 1
32 2737 1
32 2801 1
33 3 1
33 4 1
33 7 1
33 25 1
33 48 1
33 50 1
33 65 1
33 76 1
33 84 1
33 207 1
33 532 1
33 602 1
33 617 1
33 630 1
33 687 1
33 693 1
33 850 1
33 929 1
33 1098 1
33 1263 1
33 1290 1
33 1296 1
33 1497 1
33 1553 1
33 1574 1
33 1585 1
33 1639 1
33 1806 1
33 1947 1
33 2249 1
33 2255 1
33 2259 1
33 2456 1
33 2815 1
33 2934 1
34 1 1
34 10 1
34 19 1
34 23 1
34 36 1
34 53 1
34 55 1
34 103 1
34 125 1
34 137 1
34 186 1
34 206 1
34 219 1
34 227 1
34 314 1
34 379 1
34 405 1
34 445 1
34 850 1
34 932 1
34 1064 1
34 1091 1
34 1124 1
34 1150 1
34 1190 1
34 1306 1
34 1496 1
34 1546 1
34 1777 1
34 2122 1
34 2181 1
34 2188 1
34 2300 1
34 2361 1
34 2404 1
34 2447 1
34 2597 1
34 2908 1
35 7 1
35 13 1
35 17 1
35 24 1
35 58 1
35 59 1
35 70 1
35 90 1
35 115 1
35 136 1
35 146 1
35 204 1
35 205 1
35 214 1
35 244 1
35 361 1
35 389 1
35 396 1
35 421 1
35 557 1
35 596 1
35 645 1
35 932 1
35 1023 1
35 1245 1
35 1989 1
35 2050 1
35 2199 1
35 2572 1
35 2625 1
35 2632 1
35 2636 1
35 2656 1
35 2669 1
35 2700 1
35 2733 1
35 2879 1
35 2900 1
36 1 1
36 6 1
36 25 1
36 34 1
36 52 1
36 126 1
36 235 1
36 238 1
36 406 1
36 575 1
36 650 1
36 769 1
36 1597 1
36 1678 1
36 1783 1
36 1988 1
36 2147 1
36 2181 1
36 2366 1
36 2651 1
36 2773 1
36 2932 1
37 10 1
37 12 1
37 21 1
37 25 1
37 42 1
37 66 1
37 224 1
37 319 1
37 332 1
37 409 1
37 424 1
37 500 1
37 519 1
37 599 1
37 609 1
37 675 1
37 771 1
37 882 1
37 941 1
37 1156 1
37 1408 1
37 1648 1
37 1932 1
37 1976 1
37 2353 1
37 2632 1
37 2793 1
38 4 1
38 5 1
38 6 1
38 9 1
38 41 1
38 42 1
38 49 1
38 51 1
38 55 1
38 71 1
38 110 1
38 131 1
38 136 1
38 138 1
38 195 1
38 230 1
38 239 1
38 241 1
38 246 1
38 258 1
38 259 1
38 302 1
38 325 1
38 351 1
38 358 1
38 380 1
38 397 1
38 426 1
38 444 1
38 449 1
38 507 1
38 532 1
38 535 1
38 577 1
38 596 1
38 678 1
38 681 1
38 736 1
38 783 1
38 814 1
38 830 1
38 915 1
38 978 1
38 1143 1
38 1241 1
38 1242 1
38 1250 1
38 1369 1
38 1469 1
38 1480 1
38 1531 1
38 1547 1
38 1576 1
38 1661 1
38 1680 1
38 1755 1
38 1806 1
38 1863 1
38 2011 1
38 2086 1
38 2097 1
38 2435 1
38 2448 1
38 2529 1
38 2614 1
38 2726 1
38 2935 1
38 2954 1
39 9 1
39 10 1
39 16 1
39 31 1
39 54 1
39 173 1
39 366 1
39 405 1
39 612 1
39 711 1
39 762 1
39 876 1
39 1433 1
39 1916 1
39 2352 1
39 2579 1
39 2812 1
40 1 1
40 4 1
40 7 1
40 9 1
40 45 1
40 48 1
40 54 1
40 61 1
40 86 1
40 87 1
40 88 1
40 89 1
40 96 1
40 100 1
40 107 1
40 113 1
40 142 1
40 218 1
40 269 1
40 274 1
40 387 1
40 427 1
40 434 1
40 536 1
40 543 1
40 578 1
40 598 1
40 720 1
40 761 1
40 832 1
40 913 1
40 995 1
40 1224 1
40 1350 1
40 1444 1
40 1487 1
40 1602 1
40 1706 1
40 1788 1
40 1901 1
40 1928 1
40 2042 1
40 2084 1
40 2098 1
40 2221 1
40 2222 1
40 2274 1
40 2372 1
40 2480 1
40 2483 1
41 2 1
41 9 1
41 15 1
41 38 1
41 172 1
41 175 1
41 181 1
41 208 1
41 214 1
41 253 1
41 277 1
41 341 1
41 346 1
41 393 1
41 412 1
41 413 1
41 493 1
41 578 1
41 608 1
41 621 1
41 632 1
41 730 1
41 751 1
41 827 1
41 862 1
41 867 1
41 938 1
41 1090 1
41 1151 1
41 1444 1
41 1455 1
41 1469 1
41 1704 1
41 1721 1
41 1728 1
41 1743 1
41 1767 1
41 1914 1
41 2245 1
41 2258 1
41 2323 1
41 2373 1
41 2430 1
41 2570 1
41 2792 1
41 2946 1
41 2992 1
42 1 1
42 4 1
42 37 1
42 38 1
42 55 1
42 71 1
42 74 1
42 97 1
42 178 1
42 289 1
42 327 1
42 433 1
42 676 1
42 804 1
42 1158 1
42 1285 1
42 1724 1
42 2041 1
42 2491 1
42 2566 1
42 2761 1
42 2931 1
43 1 1
43 5 1
43 6 1
43 28 1
43 64 1
43 91 1
43 100 1
43 108 1
43 156 1
43 175 1
43 197 1
43 223 1
43 427 1
43 476 1
43 494 1
43 582 1
43 588 1
43 790 1
43 812 1
43 932 1
43 941 1
43 1070 1
43 1073 1
43 1219 1
43 1258 1
43 1259 1
43 1282 1
43 1571 1
43 1727 1
43 2250 1
43 2345 1
43 2366 1
43 2513 1
43 2614 1
43 2736 1
44 6 1
44 19 1
44 21 1
44 32 1
44 47 1
44 315 1
44 626 1
44 661 1
44 1176 1
44 1237 1
44 2017 1
45 1 1
45 12 1
45 14 1
45 40 1
45 46 1
45 50 1
45 57 1
45 79 1
45 101 1
45 119 1
45 171 1
45 185 1
45 189 1
45 247 1
45 271 1
45 272 1
45 275 1
45 278 1
45 297 1
45 308 1
45 313 1
45 392 1
45 420 1
45 458 1
45 474 1
45 519 1
45 526 1
45 536 1
45 555 1
45 568 1
45 589 1
45 603 1
45 633 1
45 676 1
45 679 1
45 726 1
45 729 1
45 731 1
45 887 1
45 909 1
45 935 1
45 951 1
45 954 1
45 1052 1
45 1073 1
45 1114 1
45 1217 1
45 1353 1
45 1408 1
45 1592 1
45 1610 1
45 1818 1
45 1859 1
45 2127 1
45 2163 1
45 2208 1
45 2272 1
45 2533 1
45 2576 1
45 2684 1
45 2697 1
45 2715 1
45 2795 1
46 1 1
46 8 1
46 17 1
46 45 1
46 53 1
46 71 1
46 88 1
46 142 1
46 239 1
46 293 1
46 318 1
46 326 1
46 704 1
46 873 1
46 1016 1
46 1136 1
46 1248 1
46 1330 1
46 1465 1
46 1761 1
46 1841 1
46 2717 1
46 2894 1
46 2898 1
47 4 1
47 9 1
47 14 1
47 44 1
47 76 1
47 118 1
47 150 1
47 201 1
47 229 1
47 257 1
47 283 1
47 294 1
47 390 1
47 399 1
47 432 1
47 551 1
47 601 1
47 689 1
47 779 1
47 1108 1
47 1147 1
47 1180 1
47 1511 1
47 1875 1
47 1885 1
47 1903 1
47 1968 1
47 2305 1
47 2486 1
47 2904 1
47 2938 1
47 2976 1
48 10 1
48 14 1
48 33 1
48 40 1
48 62 1
48 72 1
48 82 1
48 112 1
48 116 1
48 117 1
48 153 1
48 256 1
48 351 1
48 356 1
48 369 1
48 379 1
48 391 1
48 426 1
48 444 1
48 552 1
48 654 1
48 758 1
48 969 1
48 1030 1
48 1222 1
48 1280 1
48 1337 1
48 1463 1
48 1741 1
48 1962 1
48 1981 1
48 2092 1
48 2217 1
48 2565 1
48 2655 1
49 8 1
49 15 1
49 25 1
49 38 1
49 64 1
49 69 1
49 107 1
49 116 1
49 171 1
49 347 1
49 412 1
49 419 1
49 425 1
49 433 1
49 489 1
49 555 1
49 667 1
49 707 1
49 795 1
49 817 1
49 902 1
49 981 1
49 1217 1
49 1246 1
49 1678 1
49 1892 1
49 1922 1
49 2010 1
49 2363 1
49 2365 1
49 2450 1
49 2500 1
49 2661 1
50 9 1
50 15 1
50 33 1
50 45 1
50 68 1
50 109 1
50 187 1
50 291 1
50 340 1
50 423 1
50 684 1
50 769 1
50 816 1
50 826 1
50 883 1
50 897 1
50 912 1
50 924 1
50 978 1
50 1080 1
50 1122 1
50 1172 1
50 1173 1
50 1200 1
50 1238 1
50 1249 1
50 1327 1
50 1374 1
50 1516 1
50 1582 1
50 1658 1
50 1675 1
50 1704 1
50 1714 1
50 1936 1
50 1984 1
50 2054 1
50 2255 1
50 2327 1
50 2398 1
50 2414 1
50 2598 1
50 2599 1
50 2928 1
51 9 1
51 17 1
51 19 1
51 38 1
51 83 1
51 93 1
51 104 1
51 169 1
51 210 1
51 283 1
51 307 1
51 339 1
51 344 1
51 372 1
51 395 1
51 503 1
51 541 1
51 783 1
51 929 1
51 1049 1
51 1063 1
51 1232 1
51 1310 1
51 1322 1
51 1413 1
51 1587 1
51 1693 1
51 2141 1
51 2354 1
51 2822 1
52 7 1
52 10 1
52 28 1
52 36 1
52 75 1
52 90 1
52 114 1
52 120 1
52 147 1
52 182 1
52 194 1
52 284 1
52 378 1
52 446 1
52 549 1
52 552 1
52 693 1
52 724 1
52 725 1
52 1006 1
52 1049 1
52 1271 1
52 1293 1
52 1336 1
52 1388 1
52 1509 1
52 1542 1
52 1771 1
52 1869 1
52 2167 1
52 2520 1
52 2706 1
52 2750 1
52 2953 1
53 19 1
53 29 1
53 34 1
53 46 1
53 59 1
53 94 1
53 108 1
53 180 1
53 324 1
53 352 1
53 499 1
53 525 1
53 693 1
53 767 1
53 1030 1
53 1057 1
53 1067 1
53 1075 1
53 1168 1
53 1385 1
53 1602 1
53 2554 1
54 13 1
54 27 1
54 39 1
54 40 1
54 59 1
54 156 1
54 161 1
54 163 1
54 350 1
54 499 1
54 538 1
54 594 1
54 672 1
54 712 1
54 893 1
54 1622 1
54 1871 1
54 2149 1
54 2179 1
54 2270 1
54 2365 1
54 2423 1
54 2637 1
55 7 1
55 34 1
55 38 1
55 42 1
55 74 1
55 97 1
55 122 1
55 193 1
55 227 1
55 342 1
55 470 1
55 1035 1
55 1105 1
55 1378 1
55 1407 1
55 1693 1
55 1771 1
55 2071 1
55 2262 1
56 1 1
56 6 1
56 8 1
56 25 1
56 60 1
56 64 1
56 66 1
56 87 1
56 109 1
56 166 1
56 182 1
56 183 1
56 190 1
56 224 1
56 281 1
56 285 1
56 301 1
56 303 1
56 349 1
56 363 1
56 365 1
56 374 1
56 433 1
56 462 1
56 505 1
56 511 1
56 559 1
56 608 1
56 644 1
56 715 1
56 828 1
56 831 1
56 897 1
56 967 1
56 1003 1
56 1081 1
56 1148 1
56 1179 1
56 1199 1
56 1206 1
56 1211 1
56 1213 1
56 1236 1
56 1279 1
56 1391 1
56 1436 1
56 1451 1
56 1469 1
56 1488 1
56 1580 1
56 1683 1
56 1715 1
56 1737 1
56 1749 1
56 1756 1
56 1770 1
56 1796 1
56 1924 1
56 1989 1
56 2103 1
56 2215 1
56 2224 1
56 2308 1
56 2322 1
56 2428 1
56 2560 1
56 2632 1
56 2668 1
56 2707 1
56 2774 1
56 2789 1
56 2899 1
56 2921 1
57 1 1
57 7 1
57 22 1
57 45 1
57 123 1
57 140 1
57 564 1
57 650 1
57 778 1
57 1290 1
57 1415 1
57 1684 1
57 1755 1
57 2159 1
57 2425 1
58 3 1
58 6 1
58 25 1
58 35 1
58 67 1
58 69 1
58 111 1
58 119 1
58 128 1
58 220 1
58 251 1
58 255 1
58 296 1
58 416 1
58 459 1
58 496 1
58 519 1
58 567 1
58 601 1
58 629 1
58 651 1
58 800 1
58 831 1
58 926 1
58 947 1
58 948 1
58 1006 1
58 1053 1
58 1217 1
58 1239 1
58 1354 1
58 1449 1
58 1538 1
58 1603 1
58 1710 1
58 2392 1
58 2410 1
58 2537 1
58 2539 1
58 2637 1
58 2664 1
58 2821 1
58 2832 1
58 2851 1
58 2891 1
59 7 1
59 35 1
59 53 1
59 54 1
59 60 1
59 80 1
59 91 1
59 117 1
59 140 1
59 143 1
59 156 1
59 165 1
59 170 1
59 203 1
59 278 1
59 314 1
59 334 1
59 350 1
59 391 1
59 403 1
59 420 1
59 442 1
59 514 1
59 522 1
59 534 1
59 538 1
59 637 1
59 685 1
59 739 1
59 814 1
59 1117 1
59 1122 1
59 1232 1
59 1242 1
59 1451 1
59 1573 1
59 1607 1
59 1649 1
59 1785 1
59 1994 1
59 2011 1
59 2079 1
59 2246 1
59 2615 1
59 2653 1
59 2670 1
59 2915 1
59 2941 1
59 2999 1
60 27 1
60 28 1
60 56 1
60 59 1
60 66 1
60 70 1
60 76 1
60 105 1
60 122 1
60 130 1
60 141 1
60 192 1
60 210 1
60 213 1
60 225 1
60 244 1
60 256 1
60 269 1
60 322 1
60 344 1
60 357 1
60 366 1
60 419 1
60 421 1
60 423 1
60 440 1
60 483 1
60 514 1
60 567 1
60 570 1
60 680 1
60 786 1
60 796 1
60 820 1
60 882 1
60 892 1
60 894 1
60 909 1
60 946 1
60 953 1
60 977 1
60 985 1
60 1050 1
60 1138 1
60 1197 1
60 1235 1
60 1344 1
60 1431 1
60 1445 1
60 1521 1
60 1699 1
60 1803 1
60 1814 1
60 1829 1
60 1836 1
60 1930 1
60 1978 1
60 2026 1
60 2034 1
60 2044 1
60 2328 1
60 2338 1
60 2397 1
60 2606 1
60 2689 1
61 9 1
61 10 1
61 21 1
61 40 1
61 112 1
61 268 1
61 329 1
61 653 1
61 783 1
61 924 1
61 1414 1
61 1515 1
61 1836 1
62 2 1
62 3 1
62 16 1
62 48 1
62 67 1
62 100 1
62 172 1
62 279 1
62 325 1
62 595 1
62 829 1
62 1018 1
62 1081 1
62 1084 1
62 1209 1
62 1349 1
62 1471 1
62 1525 1
62 1592 1
62 1605 1
62 1678 1
62 1683 1
62 1990 1
62 2030 1
62 2239 1
62 2265 1
62 2886 1
62 2889 1
62 2906 1
63 6 1
63 7 1
63 27 1
63 29 1
63 81 1
63 106 1
63 122 1
63 135 1
63 147 1
63 161 1
63 211 1
63 226 1
63 317 1
63 520 1
63 735 1
63 1089 1
63 1223 1
63 1673 1
63 1738 1
63 1793 1
63 1954 1
63 2024 1
63 2368 1
64 6 1
64 43 1
64 49 1
64 56 1
64 103 1
64 112 1
64 155 1
64 289 1
64 452 1
64 757 1
64 787 1
64 851 1
64 1060 1
64 1085 1
64 1212 1
64 1402 1
64 1463 1
64 1538 1
64 1601 1
64 1972 1
64 2109 1
64 2272 1
64 2319 1
64 2610 1
64 2710 1
65 6 1
65 8 1
65 23 1
65 33 1
65 75 1
65 99 1
65 111 1
65 176 1
65 466 1
65 715 1
65 729 1
65 872 1
65 896 1
65 910 1
65 1199 1
65 1272 1
65 1374 1
65 1500 1
65 1541 1
65 1561 1
65 2082 1
65 2089 1
65 2244 1
65 2417 1
65 2616 1
65 2739 1
65 2971 1
66 4 1
66 37 1
66 56 1
66 60 1
66 163 1
66 191 1
66 346 1
66 446 1
66 546 1
66 788 1
66 870 1
66 987 1
66 1409 1
66 1465 1
66 1515 1
66 1539 1
66 1778 1
66 1802 1
66 2016 1
66 2107 1
66 2426 1
66 2458 1
66 2543 1
66 2965 1
67 17 1
67 31 1
67 58 1
67 62 1
67 99 1
67 102 1
67 153 1
67 553 1
67 910 1
67 1001 1
67 1155 1
67 1232 1
67 1370 1
67 1634 1
67 1636 1
67 1902 1
67 2261 1
67 2273 1
67 2374 1
67 2405 1
67 2406 1
68 8 1
68 13 1
68 16 1
68 50 1
68 101 1
68 104 1
68 328 1
68 514 1
68 764 1
68 1028 1
68 1415 1
68 1420 1
68 1542 1
68 1692 1
68 2078 1
68 2133 1
69 17 1
69 23 1
69 49 1
69 58 1
69 80 1
69 127 1
69 137 1
69 218 1
69 495 1
69 681 1
69 811 1
69 949 1
69 975 1
69 1027 1
69 1165 1
69 1191 1
69 1389 1
69 1431 1
69 1888 1
69 1898 1
69 2313 1
69 2363 1
69 2597 1
69 2644 1
70 9 1
70 16 1
70 35 1
70 60 1
70 82 1
70 178 1
70 195 1
70 196 1
70 206 1
70 243 1
70 257 1
70 331 1
70 337 1
70 386 1
70 424 1
70 506 1
70 607 1
70 811 1
70 916 1
70 1029 1
70 1073 1
70 1257 1
70 1407 1
70 1472 1
70 1636 1
70 1731 1
70 1864 1
70 1898 1
70 1937 1
70 1968 1
70 2391 1
70 2453 1
70 2551 1
70 2752 1
70 2814 1
70 2952 1
71 25 1
71 38 1
71 42 1
71 46 1
71 245 1
71 431 1
71 509 1
71 703 1
71 2003 1
71 2581 1
72 1 1
72 13 1
72 14 1
72 48 1
72 83 1
72 237 1
72 255 1
72 283 1
72 540 1
72 555 1
72 836 1
72 1009 1
72 1387 1
72 1442 1
72 2606 1
73 1 1
73 4 1
73 6 1
73 32 1
73 147 1
73 149 1
73 258 1
73 263 1
73 268 1
73 320 1
73 457 1
73 584 1
73 600 1
73 687 1
73 842 1
73 875 1
73 906 1
73 945 1
73 995 1
73 1136 1
73 1157 1
73 1171 1
73 1193 1
73 1428 1
73 1608 1
73 1768 1
73 1856 1
73 1948 1
73 2112 1
73 2186 1
73 2266 1
73 2368 1
73 2425 1
73 2562 1
73 2897 1
74 9 1
74 20 1
74 42 1
74 55 1
74 184 1
74 205 1
74 370 1
74 458 1
74 518 1
74 592 1
74 655 1
74 675 1
74 780 1
74 810 1
74 892 1
74 1016 1
74 1137 1
74 1357 1
74 1423 1
74 1543 1
74 1557 1
74 1563 1
74 1749 1
74 1927 1
74 2025 1
74 2049 1
74 2114 1
74 2334 1
74 2405 1
74 2565 1
74 2794 1
74 2849 1
74 2983 1
75 1 1
75 17 1
75 52 1
75 65 1
75 124 1
75 252 1
75 300 1
75 415 1
75 418 1
75 454 1
75 501 1
75 551 1
75 559 1
75 572 1
75 719 1
75 748 1
75 1046 1
75 1099 1
75 1143 1
75 1147 1
75 1173 1
75 1385 1
75 1615 1
75 1819 1
75 1871 1
75 2031 1
75 2095 1
75 2165 1
75 2205 1
75 2514 1
75 2579 1
75 2619 1
75 2713 1
75 2793 1
75 2820 1
75 2840 1
75 2869 1
76 1 1
76 33 1
76 47 1
76 60 1
76 113 1
76 185 1
76 199 1
76 209 1
76 574 1
76 832 1
76 902 1
76 945 1
76 1023 1
76 1058 1
76 1087 1
76 1099 1
76 1160 1
76 1171 1
76 1214 1
76 1291 1
76 1713 1
76 1740 1
76 1952 1
76 2001 1
76 2014 1
76 2066 1
76 2388 1
76 2900 1
76 2929 1
77 9 1
77 11 1
77 25 1
77 28 1
77 84 1
77 86 1
77 114 1
77 124 1
77 129 1
77 131 1
77 222 1
77 393 1
77 402 1
77 420 1
77 423 1
77 428 1
77 437 1
77 603 1
77 707 1
77 723 1
77 763 1
77 965 1
77 978 1
77 1044 1
77 1095 1
77 1113 1
77 1140 1
77 1261 1
77 1272 1
77 1483 1
77 1844 1
77 2075 1
77 2107 1
77 2329 1
77 2419 1
77 2442 1
77 2477 1
77 2547 1
77 2776 1
77 2791 1
77 2897 1
77 2994 1
78 1 1
78 6 1
78 22 1
78 27 1
78 90 1
78 98 1
78 256 1
78 411 1
78 442 1
78 450 1
78 453 1
78 479 1
78 628 1
78 747 1
78 944 1
78 998 1
78 1347 1
78 1392 1
78 1738 1
78 1801 1
78 2265 1
78 2299 1
78 2301 1
78 2516 1
78 2798 1
78 2864 1
79 7 1
79 10 1
79 23 1
79 45 1
79 121 1
79 128 1
79 151 1
79 181 1
79 218 1
79 221 1
79 228 1
79 232 1
79 233 1
79 320 1
79 322 1
79 330 1
79 375 1
79 422 1
79 443 1
79 446 1
79 464 1
79 498 1
79 518 1
79 525 1
79 548 1
79 558 1
79 595 1
79 646 1
79 730 1
79 731 1
79 769 1
79 821 1
79 857 1
79 869 1
79 881 1
79 909 1
79 921 1
79 928 1
79 965 1
79 976 1
79 983 1
79 1023 1
79 1038 1
79 1127 1
79 1170 1
79 1210 1
79 1212 1
79 1229 1
79 1234 1
79 1289 1
79 1367 1
79 1490 1
79 1603 1
79 1672 1
79 1700 1
79 1818 1
79 1884 1
79 1993 1
79 1999 1
79 2059 1
79 2108 1
79 2122 1
79 2152 1
79 2197 1
79 2238 1
79 2249 1
79 2284 1
79 2345 1
79 2349 1
79 2421 1
79 2434 1
79 2521 1
79 2633 1
79 2678 1
79 2792 1
79 2805 1
80 1 1
80 17 1
80 59 1
80 69 1
80 83 1
80 139 1
80 172 1
80 188 1
80 226 1
80 229 1
80 367 1
80 417 1
80 418 1
80 443 1
80 561 1
80 700 1
80 745 1
80 872 1
80 901 1
80 936 1
80 1007 1
80 1046 1
80 1066 1
80 1247 1
80 1332 1
80 1501 1
80 1547 1
80 1843 1
80 1881 1
80 1974 1
80 2203 1
80 2438 1
80 2766 1
80 2772 1
81 6 1
81 15 1
81 27 1
81 63 1
81 85 1
81 128 1
81 179 1
81 222 1
81 320 1
81 556 1
81 838 1
81 847 1
81 1154 1
81 1309 1
81 1388 1
81 1422 1
81 1445 1
81 1604 1
81 1637 1
81 2020 1
81 2243 1
81 2746 1
81 2759 1
82 20 1
82 23 1
82 48 1
82 70 1
82 92 1
82 114 1
82 305 1
82 324 1
82 362 1
82 381 1
82 430 1
82 451 1
82 620 1
82 920 1
82 1333 1
82 1450 1
82 1787 1
82 1967 1
82 2081 1
82 2434 1
82 2672 1
83 1 1
83 51 1
83 72 1
83 80 1
83 126 1
83 129 1
83 164 1
83 212 1
83 367 1
83 468 1
83 483 1
83 618 1
83 642 1
83 714 1
83 755 1
83 787 1
83 839 1
83 842 1
83 862 1
83 997 1
83 1190 1
83 1438 1
83 1454 1
83 1808 1
83 1865 1
83 2319 1
83 2520 1
83 2841 1
83 2933 1
84 4 1
84 25 1
84 33 1
84 77 1
84 106 1
84 145 1
84 534 1
84 622 1
84 640 1
84 1027 1
84 1117 1
84 1669 1
84 1830 1
84 1958 1
84 2419 1
84 2668 1
84 2723 1
85 4 1
85 14 1
85 20 1
85 81 1
85 431 1
85 498 1
85 1088 1
85 1577 1
85 1744 1
85 1931 1
85 1933 1
85 1983 1
85 2302 1
86 21 1
86 23 1
86 40 1
86 77 1
86 89 1
86 93 1
86 141 1
86 151 1
86 187 1
86 195 1
86 223 1
86 229 1
86 302 1
86 308 1
86 361 1
86 381 1
86 407 1
86 453 1
86 532 1
86 572 1
86 576 1
86 640 1
86 657 1
86 723 1
86 863 1
86 1073 1
86 1130 1
86 1155 1
86 1194 1
86 1595 1
86 1643 1
86 1646 1
86 1713 1
86 1728 1
86 1766 1
86 1786 1
86 1821 1
86 1910 1
86 2040 1
86 2228 1
86 2258 1
86 2564 1
86 2605 1
86 2625 1
86 2760 1
86 2800 1
86 2967 1
86 2968 1
87 9 1
87 13 1
87 40 1
87 56 1
87 156 1
87 163 1
87 167 1
87 309 1
87 323 1
87 714 1
87 778 1
87 852 1
87 872 1
87 944 1
87 1240 1
87 1246 1
87 1347 1
87 1516 1
87 1617 1
87 1666 1
87 1679 1
87 1712 1
87 1760 1
87 2021 1
87 2168 1
87 2290 1
87 2494 1
87 2506 1
87 2587 1
87 2888 1
87 2960 1
88 9 1
88 13 1
88 40 1
88 46 1
88 127 1
88 230 1
88 300 1
88 347 1
88 428 1
88 523 1
88 698 1
88 717 1
88 806 1
88 821 1
88 961 1
88 1143 1
88 1383 1
88 1907 1
88 2666 1
89 15 1
89 19 1
89 40 1
89 86 1
89 126 1
89 529 1
89 721 1
89 825 1
89 829 1
89 1107 1
89 1420 1
89 1728 1
89 2434 1
89 2561 1
90 16 1
90 35 1
90 52 1
90 78 1
90 244 1
90 324 1
90 487 1
90 573 1
90 588 1
90 596 1
90 610 1
90 843 1
90 1400 1
90 2373 1
90 2481 1
90 2631 1
91 12 1
91 24 1
91 43 1
91 59 1
91 103 1
91 284 1
91 560 1
91 763 1
91 994 1
91 1584 1
91 1889 1
91 2533 1
92 1 1
92 7 1
92 25 1
92 82 1
92 154 1
92 164 1
92 207 1
92 222 1
92 330 1
92 380 1
92 586 1
92 691 1
92 776 1
92 1131 1
93 1 1
93 25 1
93 51 1
93 86 1
93 129 1
93 155 1
93 217 1
93 268 1
93 289 1
93 310 1
93 331 1
93 389 1
93 410 1
93 438 1
93 448 1
93 469 1
93 479 1
93 502 1
93 520 1
93 621 1
93 1000 1
93 1018 1
93 1065 1
93 1185 1
93 1422 1
93 1480 1
93 1781 1
93 1834 1
93 1976 1
93 2051 1
93 2742 1
93 2867 1
93 2995 1
94 1 1
94 6 1
94 26 1
94 53 1
94 239 1
94 365 1
94 425 1
94 530 1
94 742 1
94 856 1
94 990 1
94 1288 1
94 1595 1
94 1666 1
94 2439 1
94 2598 1
95 1 1
95 5 1
95 13 1
95 15 1
95 194 1
95 397 1
95 403 1
95 459 1
95 465 1
95 864 1
95 868 1
95 1258 1
95 1392 1
95 1732 1
95 1784 1
95 2116 1
95 2208 1
95 2554 1
95 2777 1
95 2783 1
95 2936 1
96 6 1
96 9 1
96 10 1
96 40 1
96 114 1
96 198 1
96 219 1
96 348 1
96 368 1
96 381 1
96 443 1
96 501 1
96 665 1
96 889 1
96 1007 1
96 1366 1
96 1782 1
96 2227 1
96 2941 1
97 13 1
97 27 1
97 42 1
97 55 1
97 186 1
97 262 1
97 372 1
97 408 1
97 412 1
97 417 1
97 577 1
97 584 1
97 606 1
97 633 1
97 732 1
97 1222 1
97 1236 1
97 1243 1
97 1421 1
97 1430 1
97 1581 1
97 1671 1
97 1710 1
97 1745 1
97 2806 1
98 9 1
98 23 1
98 25 1
98 78 1
98 135 1
98 238 1
98 398 1
98 525 1
98 800 1
98 1712 1
98 2128 1
98 2639 1
99 5 1
99 21 1
99 65 1
99 67 1
99 144 1
99 155 1
99 286 1
99 732 1
99 795 1
99 823 1
99 1238 1
99 1948 1
99 1959 1
100 13 1
100 40 1
100 43 1
100 62 1
100 136 1
100 170 1
100 229 1
100 310 1
100 357 1
100 383 1
100 435 1
100 459 1
100 565 1
100 619 1
100 745 1
100 1038 1
100 1053 1
100 1144 1
100 1276 1
100 1303 1
100 1380 1
100 1630 1
100 2218 1
100 2281 1
100 2482 1
100 2738 1
100 2850 1
100 2854 1
100 2875 1
101 3 1
101 22 1
101 45 1
101 68 1
101 145 1
101 456 1
101 500 1
101 689 1
101 1060 1
101 1155 1
101 1206 1
101 1408 1
101 1591 1
101 2656 1
101 2978 1
102 6 1
102 24 1
102 32 1
102 67 1
102 150 1
102 219 1
102 226 1
102 264 1
102 624 1
102 961 1
102 998 1
102 1239 1
102 1813 1
102 2099 1
102 2119 1
103 2 1
103 34 1
103 64 1
103 91 1
103 118 1
103 134 1
103 208 1
103 323 1
103 327 1
103 344 1
103 396 1
103 406 1
103 478 1
103 560 1
103 641 1
103 653 1
103 741 1
103 761 1
103 841 1
103 1065 1
103 1298 1
103 1309 1
103 1313 1
103 1452 1
103 1530 1
103 1581 1
103 1612 1
103 2071 1
103 2308 1
103 2364 1
103 2512 1
103 2574 1
103 2838 1
103 2972 1
104 8 1
104 9 1
104 51 1
104 68 1
104 113 1
104 240 1
104 305 1
104 335 1
104 378 1
104 473 1
104 578 1
104 628 1
104 708 1
104 944 1
104 1070 1
104 1288 1
104 1499 1
104 1752 1
104 1821 1
104 1826 1
104 1884 1
104 1906 1
104 2056 1
104 2069 1
104 2083 1
104 2247 1
104 2270 1
104 2321 1
104 2655 1
104 2787 1
105 6 1
105 13 1
105 20 1
105 60 1
105 453 1
105 495 1
105 636 1
105 754 1
105 888 1
105 1058 1
105 1318 1
105 1408 1
105 1618 1
105 2292 1
105 2377 1
105 2642 1
106 6 1
106 15 1
106 63 1
106 84 1
106 119 1
106 235 1
106 683 1
106 743 1
106 1187 1
106 2043 1
107 1 1
107 10 1
107 40 1
107 49 1
107 560 1
107 577 1
107 1384 1
107 1869 1
107 2763 1
108 3 1
108 15 1
108 43 1
108 53 1
108 275 1
108 307 1
108 1029 1
108 1062 1
108 1097 1
108 1138 1
108 1141 1
108 1239 1
108 1813 1
108 2716 1
109 6 1
109 24 1
109 50 1
109 56 1
109 132 1
109 183 1
109 390 1
109 402 1
109 416 1
109 1656 1
109 2475 1
109 2512 1
109 2838 1
109 2864 1
110 7 1
110 9 1
110 13 1
110 38 1
110 665 1
110 1562 1
110 1757 1
111 6 1
111 23 1
111 58 1
111 65 1
111 181 1
111 373 1
111 490 1
111 509 1
111 686 1
111 741 1
111 793 1
111 801 1
111 807 1
111 895 1
111 939 1
111 1548 1
111 2148 1
111 2924 1
112 8 1
112 48 1
112 61 1
112 64 1
112 151 1
112 349 1
112 374 1
112 390 1
112 2240 1
113 8 1
113 40 1
113 76 1
113 104 1
113 183 1
113 236 1
113 504 1
113 613 1
113 794 1
113 1198 1
113 1758 1
113 2174 1
113 2242 1
113 2372 1
113 2587 1
114 52 1
114 77 1
114 82 1
114 96 1
114 152 1
114 175 1
114 259 1
114 270 1
114 445 1
114 520 1
114 636 1
114 718 1
114 845 1
114 850 1
114 1028 1
114 1060 1
114 1064 1
114 1267 1
114 1466 1
114 1533 1
114 1699 1
114 2139 1
114 2188 1
114 2424 1
114 2436 1
114 2496 1
114 2641 1
114 2968 1
115 6 1
115 17 1
115 23 1
115 35 1
115 155 1
115 188 1
115 201 1
115 235 1
115 266 1
115 337 1
115 382 1
115 470 1
115 477 1
115 484 1
115 533 1
115 535 1
115 575 1
115 650 1
115 651 1
115 666 1
115 718 1
115 823 1
115 941 1
115 1400 1
115 1427 1
115 1452 1
115 1459 1
115 1599 1
115 1621 1
115 2022 1
115 2196 1
115 2230 1
115 2287 1
115 2498 1
115 2514 1
115 2723 1
115 2734 1
115 2812 1
115 2973 1
116 5 1
116 22 1
116 48 1
116 49 1
116 161 1
116 597 1
116 695 1
116 844 1
116 902 1
116 1191 1
116 1569 1
116 1763 1
116 1976 1
116 2612 1
117 3 1
117 9 1
117 48 1
117 59 1
117 193 1
117 240 1
117 243 1
117 343 1
117 607 1
117 735 1
117 828 1
117 931 1
117 949 1
117 968 1
117 1035 1
117 1110 1
117 1183 1
117 1196 1
117 1383 1
117 1424 1
117 1688 1
117 1705 1
117 1773 1
117 1956 1
117 2039 1
117 2094 1
117 2344 1
117 2439 1
117 2575 1
117 2916 1
118 5 1
118 15 1
118 47 1
118 103 1
118 159 1
118 176 1
118 192 1
118 254 1
118 266 1
118 304 1
118 389 1
118 409 1
118 421 1
118 499 1
118 678 1
118 734 1
118 773 1
118 860 1
118 950 1
118 969 1
118 1328 1
118 1358 1
118 1471 1
118 1715 1
118 1757 1
118 2135 1
118 2182 1
118 2317 1
118 2698 1
118 2926 1
119 7 1
119 45 1
119 58 1
119 106 1
119 126 1
119 422 1
119 449 1
119 604 1
119 877 1
119 1832 1
119 1955 1
119 1974 1
119 2080 1
119 2134 1
119 2287 1
120 1 1
120 6 1
120 12 1
120 52 1
120 189 1
120 221 1
120 286 1
120 844 1
120 858 1
120 1195 1
120 1259 1
120 2046 1
120 2536 1
121 19 1
121 21 1
121 31 1
121 79 1
121 1057 1
122 28 1
122 55 1
122 60 1
122 63 1
122 206 1
122 2471 1
122 2506 1
123 9 1
123 16 1
123 23 1
123 57 1
124 5 1
124 19 1
124 75 1
124 77 1
124 139 1
124 143 1
124 157 1
124 168 1
124 193 1
124 199 1
124 220 1
124 274 1
124 280 1
124 361 1
124 455 1
124 512 1
124 743 1
124 919 1
124 934 1
124 1223 1
124 1269 1
124 1479 1
124 1504 1
124 1545 1
124 1552 1
124 1890 1
124 2101 1
124 2255 1
124 2402 1
124 2549 1
124 2564 1
124 2704 1
124 2711 1
124 2744 1
124 2758 1
124 2901 1
124 2904 1
124 2910 1
124 2987 1
125 5 1
125 14 1
125 26 1
125 34 1
125 132 1
125 174 1
125 176 1
125 331 1
125 378 1
125 460 1
125 461 1
125 483 1
125 509 1
125 699 1
125 701 1
125 747 1
125 785 1
125 995 1
125 1005 1
125 1020 1
125 1175 1
125 1253 1
125 1354 1
125 1393 1
125 1430 1
125 1518 1
125 1664 1
125 1702 1
125 1718 1
125 1810 1
125 2109 1
125 2120 1
125 2127 1
125 2185 1
125 2406 1
125 2422 1
125 2582 1
125 2705 1
125 2737 1
125 2793 1
126 36 1
126 83 1
126 89 1
126 119 1
126 536 1
126 765 1
126 2133 1
127 9 1
127 17 1
127 69 1
127 88 1
127 138 1
127 150 1
127 163 1
127 313 1
127 402 1
127 491 1
127 1439 1
127 1795 1
127 1847 1
127 1853 1
127 2142 1
127 2242 1
127 2496 1
127 2756 1
127 2760 1
127 2944 1
128 1 1
128 58 1
128 79 1
128 81 1
128 204 1
128 216 1
128 247 1
128 326 1
128 384 1
128 472 1
128 686 1
128 905 1
128 952 1
128 963 1
128 977 1
128 1103 1
128 1175 1
128 1261 1
128 1289 1
128 1423 1
128 1467 1
128 1645 1
128 1762 1
128 1955 1
128 2118 1
128 2135 1
128 2414 1
128 2548 1
128 2591 1
128 2664 1
129 5 1
129 77 1
129 83 1
129 93 1
129 137 1
129 150 1
129 152 1
129 300 1
129 368 1
129 408 1
129 496 1
129 909 1
129 948 1
129 1131 1
129 1476 1
129 2035 1
129 2396 1
129 2503 1
129 2600 1
129 2627 1
129 2871 1
129 2932 1
129 2933 1
130 7 1
130 14 1
130 17 1
130 60 1
130 140 1
130 260 1
130 488 1
130 820 1
130 989 1
130 1196 1
130 1691 1
130 2147 1
130 2978 1
131 4 1
131 6 1
131 38 1
131 77 1
131 138 1
131 214 1
131 216 1
131 386 1
131 480 1
131 573 1
131 592 1
131 594 1
131 600 1
131 622 1
131 651 1
131 653 1
131 658 1
131 666 1
131 712 1
131 713 1
131 820 1
131 848 1
131 1150 1
131 1182 1
131 1574 1
131 1673 1
131 1804 1
131 1879 1
131 2005 1
131 2079 1
131 2237 1
131 2501 1
131 2963 1
131 2974 1
131 2999 1
132 1 1
132 23 1
132 109 1
132 125 1
132 143 1
132 146 1
132 153 1
132 159 1
132 166 1
132 169 1
132 233 1
132 249 1
132 294 1
132 343 1
132 369 1
132 434 1
132 435 1
132 482 1
132 493 1
132 516 1
132 543 1
132 550 1
132 569 1
132 578 1
132 593 1
132 611 1
132 654 1
132 760 1
132 861 1
132 878 1
132 900 1
132 946 1
132 1043 1
132 1062 1
132 1091 1
132 1139 1
132 1167 1
132 1278 1
132 1281 1
132 1387 1
132 1530 1
132 1569 1
132 1605 1
132 1660 1
132 1703 1
132 1759 1
132 1796 1
132 1828 1
132 1898 1
132 1905 1
132 1941 1
132 1942 1
132 2048 1
132 2192 1
132 2247 1
132 2326 1
132 2421 1
132 2450 1
132 2557 1
132 2576 1
132 2767 1
132 2808 1
132 2913 1
132 2931 1
132 2951 1
133 6 1
133 17 1
133 28 1
133 31 1
133 719 1
133 727 1
133 770 1
133 1299 1
133 1601 1
133 1604 1
133 2115 1
133 2126 1
133 2593 1
134 8 1
134 19 1
134 29 1
134 103 1
134 160 1
134 240 1
134 252 1
134 303 1
134 572 1
134 753 1
134 824 1
134 837 1
134 1090 1
134 1294 1
134 1298 1
134 1301 1
134 1352 1
134 1781 1
134 1973 1
134 2010 1
134 2021 1
134 2132 1
134 2162 1
134 2180 1
134 2275 1
134 2546 1
134 2925 1
135 19 1
135 23 1
135 63 1
135 98 1
135 143 1
135 498 1
135 545 1
135 600 1
135 911 1
135 1183 1
135 1721 1
135 2123 1
135 2273 1
135 2542 1
136 7 1
136 35 1
136 38 1
136 100 1
136 193 1
136 260 1
136 412 1
136 434 1
136 467 1
136 981 1
136 1135 1
136 1317 1
136 1337 1
136 1447 1
136 1466 1
136 2464 1
136 2972 1
137 32 1
137 34 1
137 69 1
137 129 1
137 251 1
137 264 1
137 275 1
137 287 1
137 304 1
137 316 1
137 331 1
137 478 1
137 911 1
137 954 1
137 1245 1
137 1291 1
137 1331 1
137 1635 1
137 2392 1
137 2586 1
138 19 1
138 38 1
138 127 1
138 131 1
138 393 1
138 586 1
138 590 1
138 635 1
138 722 1
138 853 1
138 1051 1
138 1370 1
138 1393 1
138 1416 1
138 1883 1
138 1953 1
138 2475 1
138 2616 1
138 2812 1
138 2855 1
138 2893 1
139 1 1
139 25 1
139 80 1
139 124 1
139 148 1
139 164 1
139 187 1
139 246 1
139 333 1
139 335 1
139 358 1
139 521 1
139 657 1
139 684 1
139 713 1
139 740 1
139 771 1
139 1041 1
139 1199 1
139 1241 1
139 1331 1
139 2009 1
139 2016 1
139 2180 1
139 2644 1
139 2725 1
139 2803 1
140 2 1
140 57 1
140 59 1
140 130 1
140 178 1
140 200 1
140 291 1
140 359 1
140 490 1
140 530 1
140 565 1
140 601 1
140 751 1
140 1014 1
140 1039 1
140 1089 1
140 1141 1
140 1144 1
140 1166 1
140 1368 1
140 1378 1
140 1426 1
140 1488 1
140 1632 1
140 1834 1
140 1992 1
140 2442 1
140 2549 1
140 2574 1
140 2591 1
140 2716 1
140 2764 1
140 2870 1
140 2890 1
140 2891 1
141 5 1
141 8 1
141 60 1
141 86 1
141 315 1
141 488 1
141 555 1
141 1059 1
141 1888 1
141 2140 1
141 2567 1
141 2597 1
142 6 1
142 13 1
142 40 1
142 46 1
142 247 1
142 387 1
142 607 1
142 768 1
142 923 1
142 933 1
142 1266 1
142 1371 1
142 1996 1
142 2001 1
142 2189 1
142 2463 1
142 2771 1
143 59 1
143 124 1
143 132 1
143 135 1
143 173 1
143 181 1
143 192 1
143 228 1
143 299 1
143 524 1
143 535 1
143 543 1
143 690 1
143 699 1
143 804 1
143 841 1
143 882 1
143 894 1
143 921 1
143 939 1
143 1148 1
143 1202 1
143 1333 1
143 1353 1
143 1442 1
143 1482 1
143 1491 1
143 1503 1
143 1583 1
143 1610 1
143 1624 1
143 1924 1
143 2348 1
143 2853 1
144 7 1
144 8 1
144 27 1
144 99 1
144 157 1
144 542 1
144 2821 1
145 9 1
145 25 1
145 84 1
145 101 1
145 812 1
145 905 1
145 1009 1
145 1209 1
145 1343 1
145 1378 1
145 1590 1
145 1640 1
145 1793 1
145 2008 1
145 2139 1
145 2165 1
145 2179 1
145 2886 1
146 1 1
146 10 1
146 35 1
146 132 1
146 521 1
146 696 1
146 843 1
146 871 1
146 1040 1
146 1237 1
146 1319 1
146 1570 1
146 1900 1
146 1964 1
146 2133 1
146 2353 1
146 2825 1
147 7 1
147 52 1
147 63 1
147 73 1
147 176 1
147 208 1
147 285 1
147 298 1
147 418 1
147 422 1
147 521 1
147 937 1
147 979 1
147 1010 1
147 1178 1
147 1535 1
147 2111 1
147 2536 1
148 6 1
148 7 1
148 12 1
148 139 1
148 351 1
148 1432 1
148 2015 1
148 2416 1
148 2798 1
149 3 1
149 6 1
149 8 1
149 73 1
149 280 1
149 408 1
149 479 1
149 528 1
149 843 1
149 925 1
149 1008 1
149 1799 1
149 1882 1
149 2628 1
150 47 1
150 102 1
150 127 1
150 129 1
150 162 1
150 265 1
150 465 1
150 497 1
150 891 1
150 926 1
150 1395 1
150 1670 1
150 2058 1
150 2395 1
150 2914 1
151 12 1
151 79 1
151 86 1
151 112 1
151 158 1
151 212 1
151 242 1
151 254 1
151 574 1
151 1275 1
151 1325 1
151 1401 1
151 1469 1
151 1560 1
151 1672 1
151 2000 1
151 2243 1
151 2628 1
152 6 1
152 8 1
152 114 1
152 129 1
152 354 1
152 393 1
152 403 1
152 590 1
152 632 1
152 647 1
152 908 1
152 1398 1
152 1418 1
152 1848 1
152 2122 1
153 32 1
153 48 1
153 67 1
153 132 1
153 250 1
153 279 1
153 288 1
153 377 1
153 436 1
153 463 1
153 561 1
153 751 1
153 777 1
153 811 1
153 962 1
153 1048 1
153 1078 1
153 1300 1
153 1503 1
153 1517 1
153 1600 1
153 1753 1
153 1862 1
153 1935 1
153 1963 1
153 2390 1
153 2511 1
153 2579 1
153 2620 1
153 2687 1
153 2883 1
153 2888 1
153 2899 1
153 2952 1
153 2981 1
154 6 1
154 13 1
154 22 1
154 92 1
154 332 1
154 472 1
154 510 1
154 616 1
154 622 1
154 634 1
154 638 1
154 675 1
154 898 1
154 1355 1
154 1500 1
154 1640 1
155 64 1
155 93 1
155 99 1
155 115 1
155 1326 1
155 1594 1
155 1863 1
155 2178 1
155 2704 1
155 2855 1
155 2963 1
156 43 1
156 54 1
156 59 1
156 87 1
156 463 1
156 678 1
156 905 1
156 1482 1
156 1805 1
156 1908 1
156 1999 1
156 2209 1
156 2938 1
157 6 1
157 16 1
157 124 1
157 144 1
157 384 1
157 407 1
157 579 1
157 644 1
157 648 1
157 660 1
157 957 1
157 982 1
157 1126 1
157 1332 1
157 1407 1
157 1661 1
157 1803 1
157 2014 1
157 2327 1
157 2384 1
157 2570 1
157 2658 1
157 2773 1
158 5 1
158 27 1
158 28 1
158 151 1
158 265 1
158 268 1
158 655 1
158 695 1
158 706 1
158 764 1
158 833 1
158 923 1
158 1026 1
158 1186 1
158 1238 1
158 1241 1
158 1418 1
158 1484 1
158 1506 1
158 1562 1
158 1911 1
158 2123 1
158 2192 1
158 2306 1
158 2477 1
158 2497 1
158 2658 1
158 2661 1
159 16 1
159 24 1
159 118 1
159 132 1
159 250 1
159 251 1
159 354 1
159 480 1
159 534 1
159 633 1
159 669 1
159 690 1
159 718 1
159 755 1
159 800 1
159 982 1
159 990 1
159 1118 1
159 1178 1
159 1279 1
159 1524 1
159 1593 1
159 1800 1
159 1816 1
159 1835 1
159 1883 1
159 2036 1
159 2157 1
159 2446 1
159 2637 1
159 2687 1
159 2789 1
159 2912 1
159 2957 1
160 18 1
160 23 1
160 27 1
160 134 1
160 165 1
160 194 1
160 855 1
160 913 1
160 919 1
160 1054 1
160 1127 1
160 1651 1
160 1810 1
160 1847 1
160 1943 1
160 2241 1
160 2614 1
160 2631 1
160 2651 1
160 2898 1
161 19 1
161 54 1
161 63 1
161 116 1
161 196 1
161 205 1
161 602 1
161 625 1
161 679 1
161 685 1
161 731 1
161 791 1
161 880 1
161 1065 1
161 1439 1
161 2089 1
161 2406 1
161 2455 1
161 2510 1
161 2618 1
161 2822 1
162 1 1
162 2 1
162 25 1
162 150 1
162 225 1
162 313 1
162 398 1
162 438 1
162 558 1
162 604 1
162 658 1
162 921 1
162 1033 1
162 1075 1
162 1147 1
162 1167 1
162 1406 1
162 1586 1
162 1677 1
162 1751 1
162 1785 1
162 1789 1
162 1811 1
162 1947 1
162 2037 1
162 2072 1
162 2315 1
162 2683 1
162 2703 1
162 2947 1
163 54 1
163 66 1
163 87 1
163 127 1
163 209 1
163 232 1
163 462 1
163 706 1
163 780 1
163 793 1
163 1044 1
163 1800 1
163 2211 1
163 2218 1
163 2686 1
164 6 1
164 83 1
164 92 1
164 139 1
164 256 1
164 792 1
164 2341 1
165 9 1
165 13 1
165 59 1
165 160 1
165 200 1
165 247 1
165 342 1
165 557 1
165 635 1
165 1483 1
165 1746 1
165 1971 1
165 2251 1
166 20 1
166 32 1
166 56 1
166 132 1
166 299 1
166 889 1
166 1066 1
166 1527 1
167 3 1
167 6 1
167 27 1
167 87 1
167 673 1
167 1927 1
167 2850 1
168 3 1
168 12 1
168 23 1
168 124 1
168 183 1
168 314 1
168 495 1
168 581 1
168 590 1
168 725 1
168 736 1
168 861 1
168 868 1
168 1211 1
168 1600 1
168 1719 1
168 2297 1
168 2441 1
168 2500 1
168 2991 1
169 2 1
169 4 1
169 51 1
169 132 1
169 264 1
169 419 1
169 426 1
169 757 1
169 822 1
169 825 1
169 891 1
169 933 1
169 1045 1
169 1182 1
169 1317 1
169 1324 1
169 1478 1
169 1803 1
169 1823 1
169 1838 1
169 2055 1
169 2106 1
169 2248 1
169 2399 1
169 2456 1
169 2480 1
169 2489 1
169 2679 1
169 2699 1
169 2731 1
170 2 1
170 3 1
170 59 1
170 100 1
170 189 1
170 213 1
170 228 1
170 351 1
170 388 1
170 680 1
170 1106 1
170 1510 1
170 1513 1
170 1618 1
170 2850 1
170 2959 1
171 1 1
171 13 1
171 45 1
171 49 1
171 237 1
171 243 1
171 317 1
171 346 1
171 439 1
171 660 1
171 1389 1
171 1639 1
171 1644 1
171 1657 1
171 1777 1
171 2119 1
171 2125 1
171 2288 1
171 2301 1
171 2467 1
171 2776 1
171 2817 1
171 2963 1
172 20 1
172 41 1
172 62 1
172 80 1
172 198 1
172 252 1
172 306 1
172 308 1
172 319 1
172 362 1
172 364 1
172 503 1
172 554 1
172 987 1
172 1326 1
172 1420 1
172 1460 1
172 1522 1
172 1554 1
172 1715 1
172 1754 1
172 2516 1
172 2831 1
173 25 1
173 27 1
173 39 1
173 143 1
173 186 1
173 221 1
173 231 1
173 395 1
173 413 1
173 840 1
173 1080 1
173 1201 1
173 1295 1
173 1568 1
173 1951 1
173 2024 1
173 2258 1
173 2662 1
174 8 1
174 19 1
174 25 1
174 125 1
174 318 1
174 391 1
174 698 1
174 761 1
174 1431 1
174 1470 1
174 1708 1
174 1723 1
174 2505 1
174 2760 1
174 2829 1
174 2888 1
175 2 1
175 41 1
175 43 1
175 114 1
175 177 1
175 179 1
175 198 1
175 354 1
175 432 1
175 583 1
175 603 1
175 650 1
175 697 1
175 819 1
175 840 1
175 891 1
175 933 1
175 962 1
175 1210 1
175 1613 1
175 1734 1
175 1819 1
175 1959 1
175 2019 1
175 2289 1
175 2330 1
175 2502 1
175 2539 1
175 2588 1
175 2874 1
176 65 1
176 118 1
176 125 1
176 147 1
176 295 1
176 767 1
176 880 1
176 1548 1
176 1653 1
176 1790 1
177 1 1
177 6 1
177 24 1
177 175 1
177 201 1
177 598 1
177 773 1
177 1011 1
177 1387 1
177 1684 1
177 1955 1
177 2088 1
177 2174 1
177 2291 1
177 2293 1
177 2373 1
177 2771 1
178 32 1
178 42 1
178 70 1
178 140 1
178 223 1
178 326 1
178 442 1
178 606 1
178 2033 1
179 5 1
179 10 1
179 81 1
179 175 1
179 242 1
179 283 1
179 296 1
179 321 1
179 338 1
179 417 1
179 422 1
179 502 1
179 530 1
179 561 1
179 582 1
179 703 1
179 794 1
179 799 1
179 914 1
179 1033 1
179 1038 1
179 1147 1
179 1376 1
179 1623 1
179 1847 1
179 1994 1
179 2145 1
179 2176 1
179 2365 1
179 2415 1
179 2573 1
179 2671 1
179 2689 1
179 2868 1
180 1 1
180 2 1
180 10 1
180 53 1
180 529 1
180 713 1
180 1095 1
180 1707 1
180 1711 1
180 1954 1
181 41 1
181 79 1
181 111 1
181 143 1
181 191 1
181 336 1
181 484 1
181 775 1
181 800 1
181 970 1
181 1092 1
181 2005 1
181 2761 1
181 2855 1
181 2991 1
182 8 1
182 14 1
182 52 1
182 56 1
182 718 1
182 739 1
182 981 1
182 1012 1
182 1703 1
182 1774 1
182 2047 1
182 2873 1
183 56 1
183 109 1
183 113 1
183 168 1
183 296 1
183 341 1
183 392 1
183 411 1
183 813 1
183 1273 1
183 1456 1
183 1597 1
183 1619 1
183 1912 1
183 1914 1
183 2253 1
183 2449 1
183 2689 1
183 2883 1
183 2925 1
184 5 1
184 7 1
184 13 1
184 74 1
184 186 1
184 1148 1
184 1364 1
184 1841 1
184 2682 1
184 2762 1
185 3 1
185 31 1
185 45 1
185 76 1
185 545 1
185 622 1
185 805 1
185 1193 1
185 1588 1
185 1840 1
185 2260 1
186 34 1
186 97 1
186 173 1
186 184 1
186 345 1
186 1149 1
186 1529 1
186 1669 1
186 1934 1
186 1936 1
186 2606 1
186 2751 1
187 15 1
187 50 1
187 86 1
187 139 1
187 244 1
187 281 1
187 381 1
187 647 1
187 712 1
187 716 1
187 1173 1
187 1279 1
187 1455 1
187 1584 1
187 1657 1
187 1750 1
187 1779 1
187 1935 1
187 2490 1
187 2531 1
188 3 1
188 4 1
188 80 1
188 115 1
188 1740 1
189 26 1
189 45 1
189 120 1
189 170 1
189 278 1
189 333 1
189 480 1
189 632 1
189 637 1
189 638 1
189 914 1
189 1215 1
189 1547 1
189 1959 1
189 2418 1
189 2841 1
189 2958 1
189 2984 1
190 2 1
190 6 1
190 32 1
190 56 1
190 689 1
190 1461 1
190 1714 1
190 2197 1
190 2469 1
190 2727 1
191 4 1
191 28 1
191 66 1
191 181 1
191 302 1
191 332 1
191 383 1
191 1316 1
191 1747 1
191 1838 1
191 2928 1
192 14 1
192 60 1
192 118 1
192 143 1
192 301 1
192 474 1
192 481 1
192 672 1
192 978 1
192 1323 1
192 1441 1
192 1848 1
192 1978 1
192 2152 1
192 2300 1
192 2504 1
193 55 1
193 117 1
193 124 1
193 136 1
193 439 1
193 835 1
193 884 1
193 1018 1
193 1483 1
194 20 1
194 52 1
194 95 1
194 160 1
194 254 1
194 273 1
194 275 1
194 293 1
194 318 1
194 439 1
194 464 1
194 557 1
194 708 1
194 787 1
194 849 1
194 997 1
194 1133 1
194 1257 1
194 1298 1
194 1542 1
194 1568 1
194 1800 1
194 2028 1
194 2298 1
194 2324 1
194 2367 1
194 2424 1
194 2428 1
194 2467 1
194 2667 1
194 2741 1
194 2751 1
194 2753 1
194 2944 1
195 9 1
195 38 1
195 70 1
195 86 1
195 452 1
195 493 1
195 561 1
195 588 1
195 790 1
195 923 1
195 989 1
195 2227 1
196 1 1
196 13 1
196 70 1
196 161 1
196 202 1
196 282 1
196 357 1
196 465 1
196 739 1
196 1536 1
196 2136 1
196 2502 1
196 2976 1
197 9 1
197 21 1
197 27 1
197 43 1
197 224 1
197 261 1
197 540 1
197 647 1
197 806 1
197 971 1
197 1081 1
197 1161 1
197 1643 1
197 2527 1
197 2570 1
197 2905 1
198 17 1
198 96 1
198 172 1
198 175 1
198 233 1
198 269 1
198 298 1
198 321 1
198 385 1
198 460 1
198 483 1
198 513 1
198 697 1
198 958 1
198 980 1
198 1010 1
198 1129 1
198 1243 1
198 1254 1
198 1540 1
198 1999 1
198 2053 1
198 2108 1
198 2178 1
198 2878 1
198 2914 1
198 2934 1
198 2975 1
199 25 1
199 28 1
199 76 1
199 124 1
199 301 1
199 414 1
199 437 1
199 648 1
199 742 1
199 824 1
199 967 1
199 988 1
199 1153 1
199 1359 1
199 1495 1
199 1540 1
199 1555 1
199 1575 1
199 1616 1
199 1705 1
199 1744 1
199 1821 1
199 1827 1
199 2078 1
199 2267 1
199 2486 1
199 2509 1
199 2815 1
199 2938 1
199 2951 1
200 8 1
200 29 1
200 140 1
200 165 1
200 236 1
200 361 1
200 661 1
200 692 1
200 1295 1
200 2022 1
200 2183 1
200 2262 1
200 2285 1
200 2604 1
200 2739 1
201 1 1
201 47 1
201 115 1
201 177 1
201 248 1
201 305 1
201 485 1
201 546 1
201 659 1
201 677 1
201 894 1
201 899 1
201 993 1
201 1095 1
201 1362 1
201 1693 1
201 1766 1
201 1861 1
201 1925 1
201 1988 1
201 2073 1
201 2231 1
201 2381 1
201 2682 1
201 2772 1
201 2820 1
202 10 1
202 13 1
202 24 1
202 196 1
202 262 1
202 274 1
202 329 1
202 551 1
202 711 1
202 838 1
202 860 1
202 2770 1
202 2959 1
203 6 1
203 7 1
203 13 1
203 59 1
203 217 1
203 234 1
203 239 1
203 242 1
203 267 1
203 334 1
203 429 1
203 440 1
203 462 1
203 524 1
203 532 1
203 547 1
203 568 1
203 623 1
203 826 1
203 846 1
203 899 1
203 942 1
203 960 1
203 1005 1
203 1013 1
203 1088 1
203 1146 1
203 1184 1
203 1213 1
203 1229 1
203 1443 1
203 1593 1
203 1620 1
203 1646 1
203 1751 1
203 1949 1
203 2039 1
203 2158 1
203 2253 1
203 2289 1
203 2303 1
203 2451 1
203 2513 1
203 2524 1
203 2583 1
203 2632 1
203 2780 1
203 2881 1
203 2946 1
204 9 1
204 23 1
204 35 1
204 128 1
204 307 1
204 338 1
204 371 1
204 376 1
204 475 1
204 636 1
204 676 1
204 1924 1
204 2038 1
204 2264 1
204 2279 1
204 2725 1
204 2767 1
204 2835 1
204 2995 1
205 1 1
205 35 1
205 74 1
205 161 1
205 248 1
205 338 1
205 490 1
205 510 1
205 705 1
205 715 1
205 995 1
205 1054 1
205 1467 1
205 1701 1
205 1820 1
205 1956 1
205 2020 1
205 2403 1
206 10 1
206 34 1
206 70 1
206 122 1
206 356 1
206 549 1
206 653 1
206 655 1
206 839 1
206 926 1
206 1028 1
206 1287 1
206 1325 1
206 1390 1
206 1429 1
206 1590 1
206 2386 1
206 2459 1
207 7 1
207 14 1
207 33 1
207 92 1
207 370 1
207 682 1
207 766 1
207 808 1
207 828 1
207 974 1
207 1209 1
207 1477 1
207 1984 1
207 2064 1
207 2226 1
207 2285 1
207 2620 1
207 2963 1
208 15 1
208 41 1
208 103 1
208 147 1
208 1484 1
208 2245 1
208 2272 1
209 1 1
209 16 1
209 76 1
209 163 1
209 1172 1
210 13 1
210 17 1
210 51 1
210 60 1
210 248 1
210 259 1
210 292 1
210 348 1
210 597 1
210 621 1
210 808 1
210 874 1
210 903 1
210 1078 1
210 1162 1
210 1170 1
210 1303 1
210 1584 1
210 1600 1
210 1895 1
210 2069 1
210 2182 1
210 2505 1
210 2806 1
210 2822 1
210 2922 1
210 2984 1
211 4 1
211 13 1
211 25 1
211 63 1
211 2068 1
211 2767 1
212 5 1
212 23 1
212 83 1
212 151 1
212 246 1
212 277 1
212 284 1
212 308 1
212 417 1
212 654 1
212 788 1
212 927 1
212 930 1
212 1061 1
212 1142 1
212 1530 1
212 1558 1
212 1736 1
212 2148 1
212 2202 1
212 2428 1
212 2567 1
212 2668 1
212 2965 1
213 17 1
213 19 1
213 60 1
213 170 1
213 217 1
213 523 1
213 641 1
213 792 1
213 868 1
213 988 1
213 1350 1
213 1537 1
213 1938 1
213 2007 1
213 2573 1
213 2915 1
213 2934 1
214 20 1
214 35 1
214 41 1
214 131 1
214 364 1
214 480 1
214 553 1
214 895 1
214 927 1
214 940 1
214 1248 1
214 2214 1
214 2461 1
214 2796 1
214 2919 1
214 2924 1
215 6 1
215 8 1
215 19 1
215 25 1
215 245 1
215 279 1
215 342 1
215 489 1
215 527 1
215 682 1
215 817 1
215 1173 1
215 1216 1
215 1263 1
215 2183 1
216 7 1
216 16 1
216 128 1
216 131 1
216 900 1
216 1071 1
216 1142 1
216 1331 1
216 1814 1
217 23 1
217 93 1
217 203 1
217 213 1
217 238 1
217 257 1
217 304 1
217 432 1
217 470 1
217 556 1
217 576 1
217 896 1
217 934 1
217 1151 1
217 1474 1
217 1481 1
217 1568 1
217 1598 1
217 1611 1
217 1709 1
217 1752 1
217 1952 1
217 2526 1
217 2790 1
217 2896 1
217 2918 1
217 2935 1
218 6 1
218 40 1
218 69 1
218 79 1
218 231 1
218 365 1
218 582 1
218 683 1
218 692 1
218 732 1
218 1243 1
218 1267 1
218 1349 1
218 2251 1
218 2423 1
218 2431 1
219 7 1
219 34 1
219 96 1
219 102 1
219 273 1
219 413 1
219 510 1
219 746 1
219 806 1
219 849 1
219 1256 1
219 1297 1
219 1429 1
219 1515 1
219 1817 1
219 1818 1
219 1822 1
219 2212 1
219 2441 1
219 2671 1
219 2710 1
219 2747 1
219 2844 1
220 5 1
220 12 1
220 58 1
220 124 1
220 261 1
220 286 1
220 345 1
220 516 1
220 591 1
220 1016 1
220 1240 1
220 1290 1
220 1652 1
220 1717 1
220 1844 1
220 2165 1
220 2252 1
220 2820 1
221 3 1
221 79 1
221 120 1
221 173 1
221 222 1
221 484 1
221 886 1
221 1482 1
221 1647 1
221 2040 1
221 2884 1
222 77 1
222 81 1
222 92 1
222 221 1
222 253 1
222 402 1
222 934 1
222 941 1
222 991 1
222 1109 1
222 1191 1
222 1474 1
222 1609 1
222 1762 1
222 1851 1
222 2002 1
222 2514 1
222 2869 1
223 14 1
223 43 1
223 86 1
223 178 1
223 253 1
223 537 1
223 579 1
223 600 1
223 1327 1
223 2093 1
223 2143 1
223 2166 1
223 2463 1
223 2527 1
223 2964 1
224 16 1
224 37 1
224 56 1
224 197 1
224 261 1
224 356 1
224 1300 1
224 1921 1
224 2720 1
224 2866 1
225 8 1
225 9 1
225 60 1
225 162 1
225 255 1
225 284 1
225 295 1
225 297 1
225 336 1
225 341 1
225 458 1
225 624 1
225 749 1
225 805 1
225 1083 1
225 1119 1
225 1314 1
225 1424 1
225 1448 1
225 2376 1
225 2417 1
225 2594 1
226 30 1
226 63 1
226 80 1
226 102 1
226 252 1
226 528 1
226 633 1
226 935 1
226 1431 1
226 1631 1
226 1698 1
226 2203 1
226 2518 1
226 2586 1
226 2822 1
226 2962 1
227 1 1
227 31 1
227 34 1
227 55 1
227 276 1
227 302 1
227 376 1
227 443 1
227 701 1
227 958 1
227 1059 1
227 1111 1
227 1125 1
227 1131 1
227 1205 1
227 1421 1
227 1638 1
227 1760 1
227 2863 1
228 9 1
228 79 1
228 143 1
228 170 1
228 360 1
228 436 1
228 724 1
228 790 1
228 798 1
228 1263 1
228 1830 1
228 2778 1
229 47 1
229 80 1
229 86 1
229 100 1
229 1055 1
230 8 1
230 24 1
230 38 1
230 88 1
230 269 1
230 496 1
230 556 1
230 771 1
230 853 1
230 907 1
230 912 1
230 1218 1
230 1389 1
230 1552 1
230 2060 1
230 2125 1
231 13 1
231 26 1
231 173 1
231 218 1
231 316 1
231 558 1
231 611 1
231 694 1
231 1509 1
231 2116 1
231 2571 1
231 2781 1
232 3 1
232 23 1
232 79 1
232 163 1
232 262 1
232 488 1
232 667 1
232 722 1
232 983 1
232 1373 1
232 1835 1
232 2362 1
232 2403 1
232 2907 1
233 17 1
233 79 1
233 132 1
233 198 1
233 241 1
233 312 1
233 754 1
233 1032 1
233 1141 1
233 1706 1
233 1846 1
233 2326 1
233 2887 1
234 21 1
234 22 1
234 23 1
234 203 1
234 237 1
234 317 1
234 322 1
234 566 1
234 656 1
234 765 1
234 774 1
234 824 1
234 943 1
234 1004 1
234 1281 1
234 1381 1
234 1782 1
234 1850 1
234 1911 1
234 2616 1
234 2827 1
235 19 1
235 36 1
235 106 1
235 115 1
235 330 1
235 1008 1
235 1104 1
236 1 1
236 5 1
236 113 1
236 200 1
236 249 1
236 262 1
236 336 1
236 803 1
236 974 1
236 1015 1
236 1267 1
236 1319 1
236 2697 1
237 27 1
237 72 1
237 171 1
237 234 1
237 738 1
237 928 1
237 2473 1
238 6 1
238 36 1
238 98 1
238 217 1
238 388 1
238 531 1
238 590 1
238 688 1
238 717 1
238 984 1
238 1078 1
238 1118 1
238 1418 1
238 1437 1
238 1462 1
238 1553 1
238 1571 1
238 2164 1
238 2312 1
238 2334 1
238 2859 1
239 38 1
239 46 1
239 94 1
239 203 1
239 260 1
239 349 1
239 471 1
239 476 1
239 518 1
239 759 1
239 1274 1
239 1303 1
239 1313 1
239 1396 1
239 1615 1
239 2254 1
239 2257 1
239 2692 1
240 4 1
240 104 1
240 117 1
240 134 1
240 359 1
240 380 1
240 617 1
240 664 1
240 982 1
240 1009 1
240 1366 1
241 10 1
241 32 1
241 38 1
241 233 1
241 375 1
241 737 1
241 853 1
241 961 1
241 1137 1
241 1229 1
241 1961 1
241 2094 1
241 2847 1
241 2896 1
242 21 1
242 151 1
242 179 1
242 203 1
242 251 1
242 258 1
242 356 1
242 360 1
242 371 1
242 383 1
242 510 1
242 537 1
242 689 1
242 781 1
242 815 1
242 832 1
242 956 1
242 959 1
242 1025 1
242 1056 1
242 1194 1
242 1253 1
242 1299 1
242 1307 1
242 1373 1
242 1696 1
242 1748 1
242 1950 1
242 2105 1
242 2134 1
242 2173 1
242 2316 1
242 2548 1
242 2613 1
242 2829 1
243 18 1
243 70 1
243 117 1
243 171 1
243 372 1
243 397 1
243 805 1
243 1799 1
243 2831 1
243 2879 1
244 35 1
244 60 1
244 90 1
244 187 1
244 335 1
244 411 1
244 570 1
244 709 1
244 827 1
244 959 1
244 1121 1
244 1695 1
244 1776 1
244 1809 1
244 1945 1
244 2262 1
244 2266 1
244 2569 1
244 2732 1
244 2848 1
245 6 1
245 9 1
245 71 1
245 215 1
245 391 1
245 400 1
245 1000 1
245 1161 1
245 1478 1
245 1865 1
245 2275 1
245 2858 1
246 23 1
246 38 1
246 139 1
246 212 1
246 285 1
246 452 1
246 506 1
246 549 1
246 562 1
246 707 1
246 746 1
246 767 1
246 853 1
246 856 1
246 920 1
246 1157 1
246 1443 1
246 1520 1
246 1534 1
246 1722 1
246 1758 1
246 2104 1
246 2655 1
246 2708 1
246 2970 1
247 45 1
247 128 1
247 142 1
247 165 1
247 263 1
247 400 1
247 407 1
247 420 1
247 563 1
247 758 1
247 918 1
247 984 1
247 994 1
247 999 1
247 1232 1
247 1600 1
247 1649 1
247 1700 1
247 1727 1
247 2077 1
247 2365 1
247 2389 1
247 2577 1
247 2646 1
247 2650 1
247 2790 1
248 4 1
248 201 1
248 205 1
248 210 1
248 271 1
248 311 1
248 316 1
248 369 1
248 454 1
248 735 1
248 816 1
248 975 1
248 1079 1
248 1276 1
248 1294 1
248 1310 1
248 1459 1
248 1780 1
248 1909 1
248 2530 1
248 2671 1
248 2779 1
248 2993 1
249 4 1
249 12 1
249 132 1
249 236 1
249 281 1
249 312 1
249 345 1
249 360 1
249 392 1
249 401 1
249 724 1
249 920 1
249 1231 1
249 1500 1
249 2350 1
250 7 1
250 15 1
250 153 1
250 159 1
250 255 1
250 542 1
250 609 1
250 962 1
250 1264 1
250 1380 1
250 1716 1
250 2608 1
251 58 1
251 137 1
251 159 1
251 242 1
251 292 1
251 399 1
251 798 1
251 1100 1
251 2412 1
252 75 1
252 134 1
252 172 1
252 226 1
252 343 1
252 386 1
252 509 1
252 759 1
252 781 1
252 834 1
252 851 1
252 991 1
252 999 1
252 1508 1
252 1572 1
252 1910 1
252 1915 1
252 2642 1
252 2877 1
252 2895 1
253 25 1
253 41 1
253 222 1
253 223 1
253 511 1
253 680 1
253 1157 1
253 2104 1
254 5 1
254 118 1
254 151 1
254 194 1
254 274 1
254 377 1
254 437 1
254 451 1
254 508 1
254 645 1
254 779 1
254 892 1
254 1109 1
254 1116 1
254 1132 1
254 1531 1
254 1578 1
254 1669 1
254 1805 1
254 1844 1
254 2007 1
254 2112 1
254 2184 1
254 2297 1
254 2515 1
254 2679 1
254 2769 1
254 2844 1
254 2878 1
255 58 1
255 72 1
255 225 1
255 250 1
255 325 1
255 441 1
255 814 1
255 1068 1
255 1204 1
255 1551 1
255 1939 1
255 2050 1
255 2057 1
255 2585 1
256 48 1
256 60 1
256 78 1
256 164 1
256 439 1
256 570 1
256 1304 1
256 1454 1
256 1719 1
256 2127 1
256 2729 1
257 6 1
257 47 1
257 70 1
257 217 1
257 270 1
257 405 1
257 720 1
257 1348 1
257 1833 1
257 1981 1
257 2059 1
257 2061 1
257 2105 1
257 2170 1
257 2336 1
257 2843 1
258 8 1
258 38 1
258 73 1
258 242 1
258 367 1
258 471 1
258 506 1
258 610 1
258 870 1
258 910 1
258 1027 1
258 1097 1
258 1259 1
258 1547 1
258 1552 1
258 1837 1
258 2009 1
258 2045 1
258 2052 1
258 2182 1
258 2257 1
258 2429 1
258 2451 1
258 2630 1
259 6 1
259 38 1
259 114 1
259 210 1
259 384 1
259 395 1
259 498 1
259 639 1
259 664 1
259 727 1
259 844 1
259 1030 1
259 1059 1
259 1441 1
259 1795 1
259 1832 1
259 1937 1
259 2055 1
259 2128 1
259 2436 1
259 2489 1
259 2652 1
259 2784 1
259 2955 1
260 25 1
260 130 1
260 136 1
260 239 1
260 794 1
261 6 1
261 197 1
261 220 1
261 224 1
261 272 1
261 359 1
261 363 1
261 479 1
261 605 1
261 725 1
261 927 1
261 1186 1
261 1251 1
261 1490 1
261 1658 1
261 1668 1
261 1793 1
261 1869 1
261 1927 1
261 2074 1
261 2190 1
261 2297 1
261 2318 1
261 2539 1
261 2607 1
261 2612 1
261 2854 1
261 2892 1
261 2926 1
262 97 1
262 202 1
262 232 1
262 236 1
262 505 1
262 534 1
262 666 1
262 825 1
262 932 1
262 1058 1
262 1068 1
262 1393 1
262 1445 1
262 1872 1
262 2611 1
263 2 1
263 7 1
263 73 1
263 247 1
263 1412 1
263 1563 1
263 1590 1
264 18 1
264 102 1
264 137 1
264 169 1
264 265 1
264 806 1
264 885 1
264 927 1
264 1056 1
264 1256 1
264 1264 1
264 1286 1
264 2048 1
264 2225 1
264 2251 1
264 2319 1
264 2840 1
264 2875 1
265 16 1
265 150 1
265 158 1
265 264 1
265 1324 1
265 1362 1
265 1536 1
265 2324 1
265 2519 1
266 8 1
266 9 1
266 115 1
266 118 1
266 330 1
266 388 1
266 444 1
266 486 1
266 538 1
266 625 1
266 864 1
266 961 1
266 1037 1
266 1110 1
266 1552 1
266 1736 1
266 1867 1
266 1912 1
266 2033 1
267 14 1
267 17 1
267 22 1
267 203 1
267 292 1
267 315 1
267 481 1
267 497 1
267 582 1
267 750 1
267 852 1
267 1250 1
267 1403 1
267 1798 1
267 1894 1
267 2132 1
267 2213 1
267 2305 1
267 2474 1
267 2642 1
268 61 1
268 73 1
268 93 1
268 158 1
268 271 1
268 522 1
268 550 1
268 1088 1
268 1180 1
268 2443 1
268 2862 1
269 40 1
269 60 1
269 198 1
269 230 1
269 324 1
269 353 1
269 375 1
269 916 1
269 1063 1
269 1074 1
269 1095 1
269 1110 1
269 1225 1
269 1315 1
269 1338 1
269 1763 1
269 1901 1
269 2192 1
269 2700 1
270 1 1
270 23 1
270 114 1
270 257 1
270 280 1
270 969 1
270 1690 1
270 1920 1
270 2376 1
270 2421 1
270 2465 1
270 2794 1
271 26 1
271 45 1
271 248 1
271 268 1
271 288 1
271 464 1
271 1165 1
271 2139 1
272 7 1
272 12 1
272 45 1
272 261 1
272 740 1
272 1388 1
272 1653 1
272 1891 1
272 2076 1
272 2226 1
272 2437 1
272 2856 1
273 7 1
273 10 1
273 194 1
273 219 1
273 313 1
273 378 1
273 384 1
273 541 1
273 802 1
273 1131 1
273 1151 1
273 1336 1
273 1348 1
273 1455 1
273 1502 1
273 1689 1
273 1734 1
273 2012 1
273 2206 1
273 2230 1
273 2415 1
273 2909 1
274 40 1
274 124 1
274 202 1
274 254 1
274 339 1
274 436 1
274 550 1
274 605 1
274 1272 1
274 1447 1
274 1569 1
274 2722 1
275 45 1
275 108 1
275 137 1
275 194 1
275 461 1
275 512 1
275 515 1
275 791 1
275 792 1
275 989 1
275 1301 1
275 1449 1
275 1697 1
275 1787 1
275 2065 1
275 2464 1
275 2557 1
276 1 1
276 9 1
276 15 1
276 227 1
276 310 1
276 347 1
276 399 1
276 415 1
276 475 1
276 504 1
276 1179 1
276 1285 1
276 1691 1
276 1773 1
276 1827 1
276 1891 1
276 1905 1
276 2023 1
276 2587 1
276 2703 1
276 2823 1
276 2846 1
276 2858 1
277 18 1
277 27 1
277 41 1
277 212 1
277 477 1
277 845 1
277 861 1
277 1284 1
277 1397 1
277 1489 1
277 2332 1
277 2501 1
278 13 1
278 45 1
278 59 1
278 189 1
278 782 1
278 1493 1
279 26 1
279 62 1
279 153 1
279 215 1
279 456 1
279 1037 1
279 1981 1
280 15 1
280 124 1
280 149 1
280 270 1
280 349 1
280 364 1
280 623 1
280 937 1
280 973 1
280 1765 1
280 1835 1
280 2106 1
280 2307 1
280 2493 1
281 19 1
281 56 1
281 187 1
281 249 1
281 430 1
281 478 1
281 772 1
281 847 1
281 987 1
281 1559 1
281 1944 1
281 2155 1
281 2407 1
281 2647 1
281 2704 1
281 2931 1
282 4 1
282 7 1
282 10 1
282 196 1
282 311 1
282 320 1
282 587 1
282 665 1
282 736 1
282 772 1
282 935 1
282 1174 1
282 1182 1
282 1736 1
282 1947 1
282 2645 1
283 47 1
283 51 1
283 72 1
283 179 1
283 327 1
283 473 1
283 517 1
283 879 1
283 916 1
283 958 1
283 1075 1
283 1227 1
283 1274 1
283 1305 1
283 1359 1
283 1405 1
283 1436 1
283 1485 1
283 1714 1
283 1878 1
283 1946 1
283 2036 1
283 2280 1
283 2378 1
283 2509 1
283 2540 1
283 2560 1
283 2662 1
283 2996 1
284 52 1
284 91 1
284 212 1
284 225 1
284 630 1
284 1164 1
284 2500 1
285 15 1
285 56 1
285 147 1
285 246 1
285 355 1
285 801 1
285 1094 1
285 1162 1
285 1305 1
285 1341 1
285 1374 1
285 1391 1
285 1556 1
285 1824 1
285 2107 1
285 2508 1
285 2622 1
285 2646 1
285 2889 1
286 32 1
286 99 1
286 120 1
286 220 1
286 321 1
286 455 1
286 562 1
286 694 1
286 875 1
286 943 1
286 1159 1
286 1225 1
286 1271 1
286 1302 1
286 1364 1
286 1817 1
286 2000 1
286 2159 1
286 2337 1
286 2468 1
287 25 1
287 26 1
287 29 1
287 137 1
287 309 1
287 462 1
287 464 1
287 554 1
287 589 1
287 688 1
287 698 1
287 985 1
287 1012 1
287 1651 1
287 2006 1
287 2114 1
287 2331 1
287 2428 1
287 2538 1
287 2605 1
288 9 1
288 23 1
288 153 1
288 271 1
288 327 1
288 367 1
288 741 1
288 753 1
288 992 1
289 5 1
289 42 1
289 64 1
289 93 1
289 314 1
289 316 1
289 340 1
289 659 1
289 684 1
289 726 1
289 906 1
289 1083 1
289 1117 1
289 1403 1
289 1828 1
289 1906 1
289 2060 1
289 2084 1
290 1 1
290 9 1
290 14 1
290 24 1
290 594 1
290 673 1
290 913 1
290 1475 1
290 1485 1
290 1592 1
290 1913 1
290 1967 1
290 2036 1
290 2478 1
290 2600 1
290 2806 1
290 2840 1
290 2921 1
291 4 1
291 20 1
291 50 1
291 140 1
291 467 1
291 505 1
291 535 1
291 553 1
291 922 1
291 1103 1
291 1208 1
291 1623 1
291 1659 1
291 2712 1
291 2758 1
291 2839 1
291 2900 1
292 16 1
292 210 1
292 251 1
292 267 1
292 760 1
292 2466 1
292 2865 1
293 4 1
293 5 1
293 46 1
293 194 1
293 373 1
293 430 1
293 738 1
293 768 1
293 1414 1
293 1527 1
293 1840 1
293 1910 1
293 2857 1
294 1 1
294 5 1
294 47 1
294 132 1
294 866 1
294 1017 1
294 2500 1
295 1 1
295 5 1
295 176 1
295 225 1
295 299 1
295 332 1
295 433 1
295 593 1
295 809 1
295 1392 1
295 1780 1
295 2008 1
295 2361 1
296 9 1
296 58 1
296 179 1
296 183 1
296 380 1
296 643 1
296 1254 1
296 1814 1
296 2061 1
296 2338 1
296 2342 1
296 2869 1
296 2967 1
297 23 1
297 28 1
297 45 1
297 225 1
297 602 1
297 646 1
297 833 1
297 1292 1
297 1930 1
297 1947 1
297 2115 1
297 2229 1
298 6 1
298 28 1
298 147 1
298 198 1
298 541 1
298 996 1
298 1281 1
298 1385 1
298 1427 1
298 1589 1
298 1596 1
298 1625 1
298 1812 1
298 2581 1
299 25 1
299 143 1
299 166 1
299 295 1
299 1001 1
299 1087 1
299 1092 1
299 1966 1
299 2407 1
299 2890 1
300 6 1
300 75 1
300 88 1
300 129 1
300 425 1
300 704 1
300 1531 1
300 1679 1
300 1772 1
300 2676 1
300 2823 1
301 16 1
301 56 1
301 192 1
301 199 1
301 615 1
301 991 1
301 1071 1
301 1506 1
301 1841 1
301 2535 1
302 38 1
302 86 1
302 191 1
302 227 1
302 333 1
302 453 1
302 626 1
302 1082 1
302 1130 1
302 1277 1
302 1564 1
302 1969 1
302 2289 1
302 2566 1
302 2705 1
303 10 1
303 22 1
303 56 1
303 134 1
303 401 1
303 529 1
303 679 1
303 687 1
303 2633 1
304 7 1
304 118 1
304 137 1
304 217 1
304 581 1
304 1293 1
305 13 1
305 82 1
305 104 1
305 201 1
305 358 1
305 418 1
305 968 1
305 1226 1
305 1465 1
305 1525 1
305 2220 1
305 2287 1
306 1 1
306 7 1
306 18 1
306 172 1
306 312 1
306 352 1
306 395 1
306 414 1
306 548 1
306 605 1
306 662 1
306 711 1
306 815 1
306 824 1
306 836 1
306 1308 1
306 1665 1
306 1778 1
306 1907 1
306 1996 1
306 2193 1
306 2697 1
306 2728 1
306 2986 1
307 10 1
307 51 1
307 108 1
307 204 1
307 340 1
307 773 1
307 873 1
307 1190 1
307 1192 1
307 1797 1
307 2163 1
307 2288 1
308 45 1
308 86 1
308 172 1
308 212 1
308 1282 1
308 1544 1
308 1644 1
308 2920 1
309 10 1
309 27 1
309 87 1
309 287 1
310 24 1
310 93 1
310 100 1
310 276 1
310 1273 1
310 2394 1
311 13 1
311 27 1
311 248 1
311 282 1
311 925 1
311 944 1
312 6 1
312 233 1
312 249 1
312 306 1
312 468 1
312 660 1
312 1255 1
312 1884 1
313 45 1
313 127 1
313 162 1
313 273 1
313 334 1
313 344 1
313 355 1
313 431 1
313 1379 1
313 1928 1
313 2003 1
313 2429 1
313 2596 1
314 34 1
314 59 1
314 168 1
314 289 1
314 526 1
314 681 1
314 899 1
314 1915 1
315 13 1
315 44 1
315 141 1
315 267 1
315 450 1
315 551 1
315 692 1
315 980 1
315 1218 1
315 1238 1
315 1656 1
315 2028 1
315 2346 1
315 2349 1
315 2724 1
316 137 1
316 231 1
316 248 1
316 289 1
316 1123 1
316 1885 1
316 2026 1
317 14 1
317 63 1
317 171 1
317 234 1
317 902 1
317 1069 1
317 1409 1
317 1479 1
317 1708 1
318 6 1
318 46 1
318 174 1
318 194 1
318 406 1
318 449 1
318 552 1
318 770 1
318 789 1
318 1440 1
318 1791 1
318 2057 1
318 2580 1
319 3 1
319 7 1
319 37 1
319 172 1
319 348 1
319 594 1
319 663 1
319 1343 1
319 1467 1
319 1493 1
319 1632 1
319 1690 1
319 2360 1
320 73 1
320 79 1
320 81 1
320 282 1
320 569 1
320 734 1
320 835 1
320 839 1
320 965 1
320 979 1
320 1034 1
320 1081 1
320 1400 1
320 2176 1
320 2252 1
320 2640 1
320 2731 1
321 15 1
321 179 1
321 198 1
321 286 1
321 354 1
321 441 1
321 564 1
321 672 1
321 1024 1
321 1484 1
321 1696 1
321 2137 1
321 2343 1
321 2417 1
322 17 1
322 60 1
322 79 1
322 234 1
322 326 1
322 1356 1
322 2078 1
322 2094 1
322 2412 1
323 27 1
323 30 1
323 87 1
323 103 1
323 346 1
323 363 1
323 376 1
323 659 1
323 878 1
323 910 1
323 1053 1
323 1374 1
323 1524 1
323 1614 1
323 1681 1
323 1725 1
323 1948 1
323 2002 1
323 2390 1
323 2565 1
324 53 1
324 82 1
324 90 1
324 269 1
324 505 1
324 566 1
324 567 1
324 629 1
324 664 1
324 818 1
324 1805 1
324 2503 1
324 2709 1
324 2910 1
325 6 1
325 38 1
325 62 1
325 255 1
325 389 1
325 632 1
325 729 1
325 759 1
325 782 1
325 955 1
325 983 1
325 1015 1
325 1025 1
325 1210 1
325 1631 1
325 1697 1
325 2704 1
325 2782 1
326 46 1
326 128 1
326 178 1
326 322 1
326 717 1
326 1050 1
326 1453 1
326 1593 1
326 2119 1
326 2198 1
326 2262 1
326 2273 1
326 2468 1
326 2534 1
326 2545 1
326 2935 1
327 42 1
327 103 1
327 283 1
327 288 1
327 619 1
327 1009 1
327 1113 1
327 1400 1
327 1861 1
327 2022 1
328 3 1
328 9 1
328 16 1
328 68 1
328 485 1
328 507 1
328 518 1
328 933 1
328 1021 1
328 1043 1
328 1140 1
328 1184 1
328 1221 1
328 1395 1
328 1440 1
328 1664 1
328 1856 1
328 2259 1
328 2388 1
328 2452 1
328 2470 1
329 2 1
329 28 1
329 61 1
329 202 1
329 485 1
329 564 1
329 1188 1
329 1503 1
329 1636 1
329 2475 1
329 2648 1
329 2977 1
330 79 1
330 92 1
330 235 1
330 266 1
330 404 1
330 1045 1
331 70 1
331 93 1
331 125 1
331 137 1
331 377 1
331 574 1
331 1494 1
331 1922 1
331 1941 1
331 2959 1
332 37 1
332 154 1
332 191 1
332 295 1
332 419 1
332 448 1
332 1031 1
332 1087 1
332 1417 1
332 1486 1
332 1654 1
332 1853 1
332 2477 1
332 2519 1
333 21 1
333 139 1
333 189 1
333 302 1
333 466 1
333 966 1
333 1168 1
333 1386 1
333 1509 1
333 2701 1
333 2953 1
334 5 1
334 59 1
334 203 1
334 313 1
334 473 1
334 474 1
334 917 1
334 1145 1
334 1590 1
334 1745 1
334 2457 1
335 8 1
335 104 1
335 139 1
335 244 1
336 19 1
336 181 1
336 225 1
336 236 1
336 423 1
336 467 1
336 548 1
336 618 1
336 969 1
336 1026 1
336 1467 1
336 1720 1
336 1851 1
336 2072 1
336 2264 1
336 2302 1
336 2718 1
337 6 1
337 28 1
337 70 1
337 115 1
337 913 1
337 1394 1
337 1578 1
338 12 1
338 179 1
338 204 1
338 205 1
338 454 1
338 1075 1
339 1 1
339 10 1
339 51 1
339 274 1
339 709 1
339 935 1
339 990 1
339 1089 1
339 1226 1
339 1335 1
339 1491 1
339 2541 1
339 2687 1
339 2748 1
340 15 1
340 50 1
340 289 1
340 307 1
340 587 1
340 593 1
340 744 1
340 2051 1
340 2168 1
340 2719 1
341 9 1
341 41 1
341 183 1
341 225 1
341 358 1
341 787 1
341 887 1
341 911 1
341 1415 1
341 2393 1
341 2402 1
341 2483 1
342 3 1
342 55 1
342 165 1
342 215 1
342 405 1
342 472 1
342 2419 1
342 2785 1
343 20 1
343 117 1
343 132 1
343 252 1
343 411 1
343 579 1
343 868 1
343 883 1
343 1163 1
343 1339 1
343 1432 1
343 1490 1
343 1629 1
343 1768 1
343 1888 1
343 2013 1
343 2106 1
343 2141 1
343 2191 1
343 2221 1
343 2340 1
343 2378 1
343 2785 1
343 2851 1
343 2958 1
343 2989 1
344 51 1
344 60 1
344 103 1
344 313 1
344 753 1
344 1142 1
345 17 1
345 186 1
345 220 1
345 249 1
345 427 1
345 502 1
345 515 1
345 516 1
345 674 1
345 850 1
345 1156 1
345 1188 1
345 1578 1
345 1658 1
345 1678 1
345 1707 1
345 1712 1
345 1873 1
345 1908 1
345 1986 1
345 2031 1
345 2051 1
345 2100 1
345 2344 1
345 2556 1
346 41 1
346 66 1
346 171 1
346 323 1
346 918 1
346 1082 1
346 1496 1
347 10 1
347 49 1
347 88 1
347 276 1
347 355 1
347 438 1
347 472 1
347 539 1
347 548 1
347 668 1
347 1112 1
347 1365 1
347 1842 1
347 2029 1
347 2042 1
347 2155 1
347 2778 1
348 6 1
348 96 1
348 210 1
348 319 1
348 733 1
348 1074 1
348 1138 1
348 1391 1
348 1667 1
348 2252 1
349 56 1
349 112 1
349 239 1
349 280 1
349 529 1
349 536 1
349 774 1
349 1387 1
349 1876 1
349 2043 1
350 6 1
350 10 1
350 54 1
350 59 1
350 521 1
350 656 1
350 1001 1
350 1293 1
350 1377 1
350 1489 1
350 2941 1
351 38 1
351 48 1
351 148 1
351 170 1
351 957 1
351 1077 1
351 1187 1
351 1576 1
352 20 1
352 23 1
352 53 1
352 306 1
352 1185 1
352 1312 1
352 1358 1
352 2054 1
352 2389 1
352 2753 1
353 1 1
353 6 1
353 25 1
353 269 1
353 616 1
353 710 1
353 890 1
353 1272 1
353 1727 1
354 152 1
354 159 1
354 175 1
354 321 1
354 396 1
354 733 1
354 854 1
354 1040 1
354 1443 1
354 1460 1
354 1510 1
354 1659 1
354 1857 1
354 1882 1
354 1905 1
354 2746 1
354 2887 1
354 2955 1
355 17 1
355 285 1
355 313 1
355 347 1
355 955 1
355 1532 1
355 1574 1
355 1723 1
355 1845 1
355 2077 1
355 2286 1
355 2478 1
355 2897 1
355 2969 1
355 3000 1
356 48 1
356 206 1
356 224 1
356 242 1
356 366 1
356 499 1
356 688 1
356 755 1
356 1129 1
356 1649 1
356 2087 1
356 2206 1
356 2213 1
356 2750 1
356 2820 1
357 2 1
357 60 1
357 100 1
357 196 1
357 615 1
357 821 1
357 936 1
357 1042 1
357 1735 1
357 1742 1
357 2010 1
357 2409 1
357 2473 1
357 2758 1
357 2902 1
358 38 1
358 139 1
358 305 1
358 341 1
358 526 1
358 592 1
358 735 1
358 1495 1
358 1566 1
359 6 1
359 140 1
359 240 1
359 261 1
359 394 1
359 898 1
359 1198 1
359 1247 1
359 1304 1
359 2033 1
359 2244 1
359 2657 1
359 2669 1
360 13 1
360 228 1
360 242 1
360 249 1
360 2216 1
361 35 1
361 86 1
361 124 1
361 200 1
361 473 1
361 776 1
361 1273 1
361 1424 1
361 2354 1
362 29 1
362 32 1
362 82 1
362 172 1
362 877 1
362 949 1
362 2368 1
362 2912 1
362 2961 1
363 25 1
363 56 1
363 261 1
363 323 1
363 488 1
363 595 1
363 1346 1
363 1548 1
364 29 1
364 172 1
364 214 1
364 280 1
364 572 1
364 696 1
364 925 1
364 964 1
364 1143 1
364 1398 1
364 1735 1
364 2058 1
365 19 1
365 56 1
365 94 1
365 218 1
365 491 1
365 527 1
365 691 1
365 840 1
365 889 1
365 1022 1
365 1065 1
365 1149 1
365 1680 1
365 2912 1
365 2922 1
366 23 1
366 39 1
366 60 1
366 356 1
366 1391 1
367 80 1
367 83 1
367 258 1
367 288 1
367 644 1
367 1452 1
367 1594 1
367 1711 1
367 2267 1
368 10 1
368 22 1
368 96 1
368 129 1
368 500 1
368 649 1
368 1128 1
368 1696 1
368 2088 1
368 2505 1
368 2796 1
369 9 1
369 48 1
369 132 1
369 248 1
369 372 1
369 608 1
369 716 1
369 725 1
369 908 1
369 1172 1
369 1384 1
369 1648 1
369 2045 1
369 2191 1
369 2291 1
369 2391 1
369 2583 1
369 2749 1
369 2863 1
369 2866 1
370 4 1
370 25 1
370 74 1
370 207 1
370 651 1
370 816 1
370 1527 1
370 1641 1
370 1694 1
370 1802 1
371 7 1
371 25 1
371 204 1
371 242 1
371 614 1
371 748 1
371 895 1
371 1080 1
371 1106 1
371 1248 1
371 2020 1
371 2102 1
371 2574 1
371 2615 1
372 51 1
372 97 1
372 243 1
372 369 1
372 409 1
372 465 1
372 1198 1
372 1595 1
372 1688 1
372 1970 1
372 2222 1
372 2730 1
373 9 1
373 27 1
373 111 1
373 293 1
373 802 1
373 854 1
373 859 1
373 916 1
373 1155 1
373 1341 1
373 1921 1
373 2681 1
374 5 1
374 15 1
374 56 1
374 112 1
374 511 1
374 1943 1
374 2149 1
374 2651 1
375 21 1
375 79 1
375 241 1
375 269 1
375 1513 1
376 6 1
376 204 1
376 227 1
376 323 1
376 424 1
376 448 1
376 455 1
376 491 1
376 502 1
376 642 1
376 670 1
376 750 1
376 773 1
376 781 1
376 1339 1
376 1402 1
376 1792 1
376 1926 1
376 1998 1
376 2035 1
376 2328 1
376 2974 1
377 22 1
377 153 1
377 254 1
377 331 1
377 581 1
377 695 1
377 867 1
377 1218 1
377 1589 1
377 1916 1
377 1990 1
377 2104 1
377 2160 1
377 2313 1
377 2492 1
378 52 1
378 104 1
378 125 1
378 273 1
378 762 1
378 879 1
378 1326 1
378 1329 1
378 1421 1
378 1686 1
378 1687 1
378 1724 1
378 2087 1
378 2191 1
378 2595 1
378 2662 1
379 6 1
379 7 1
379 34 1
379 48 1
379 523 1
379 631 1
379 1106 1
379 1447 1
379 2182 1
379 2642 1
379 2718 1
379 2849 1
380 38 1
380 92 1
380 240 1
380 296 1
380 397 1
380 1966 1
380 2117 1
380 2726 1
381 82 1
381 86 1
381 96 1
381 187 1
381 2053 1
381 2213 1
381 2472 1
381 2813 1
382 6 1
382 10 1
382 13 1
382 115 1
382 445 1
382 826 1
382 907 1
382 1441 1
382 1800 1
382 1942 1
382 2320 1
382 2486 1
382 2638 1
382 2664 1
382 2885 1
383 19 1
383 100 1
383 191 1
383 242 1
383 414 1
383 867 1
383 1186 1
384 128 1
384 157 1
384 259 1
384 273 1
384 434 1
384 643 1
384 1154 1
385 6 1
385 23 1
385 25 1
385 198 1
385 403 1
385 528 1
385 649 1
385 813 1
385 911 1
385 1109 1
385 2013 1
385 2330 1
385 2476 1
385 2616 1
386 6 1
386 70 1
386 131 1
386 252 1
386 747 1
386 1250 1
386 1282 1
386 1340 1
386 1572 1
386 1607 1
386 1637 1
386 2129 1
386 2344 1
386 2371 1
386 2379 1
387 1 1
387 29 1
387 40 1
387 142 1
387 461 1
387 2522 1
387 2654 1
388 1 1
388 170 1
388 238 1
388 266 1
388 712 1
388 752 1
388 1148 1
388 1163 1
388 1669 1
388 1764 1
388 2138 1
388 2531 1
389 35 1
389 93 1
389 118 1
389 325 1
389 778 1
389 1101 1
389 1278 1
389 2364 1
389 2893 1
390 8 1
390 47 1
390 109 1
390 112 1
390 437 1
390 504 1
390 656 1
390 1132 1
390 1252 1
390 1549 1
390 1752 1
390 2677 1
391 48 1
391 59 1
391 174 1
391 245 1
391 811 1
391 1261 1
391 1797 1
391 1894 1
391 1982 1
391 2387 1
392 9 1
392 45 1
392 183 1
392 249 1
392 835 1
392 1351 1
392 1587 1
392 1784 1
392 1962 1
392 2558 1
393 41 1
393 77 1
393 138 1
393 152 1
393 605 1
393 667 1
393 743 1
393 796 1
393 1233 1
393 1351 1
393 1365 1
393 1412 1
393 2952 1
394 3 1
394 14 1
394 19 1
394 359 1
394 1153 1
394 2280 1
394 2540 1
394 2861 1
395 51 1
395 173 1
395 259 1
395 306 1
395 822 1
395 1746 1
395 1842 1
396 24 1
396 35 1
396 103 1
396 354 1
396 2282 1
396 2301 1
397 38 1
397 95 1
397 243 1
397 380 1
397 1110 1
397 1123 1
398 7 1
398 25 1
398 98 1
398 162 1
398 457 1
398 503 1
398 720 1
398 1039 1
398 1185 1
398 1224 1
398 1260 1
398 1433 1
398 1559 1
398 1812 1
398 1859 1
398 1889 1
398 1951 1
398 1964 1
398 2056 1
398 2142 1
398 2144 1
398 2194 1
398 2248 1
398 2304 1
398 2396 1
398 2524 1
398 2777 1
398 2864 1
398 2962 1
399 5 1
399 47 1
399 251 1
399 276 1
399 755 1
399 1008 1
399 1140 1
399 1352 1
399 1651 1
399 2413 1
399 2752 1
399 2872 1
400 6 1
400 22 1
400 245 1
400 247 1
400 922 1
400 1224 1
400 2317 1
401 15 1
401 24 1
401 249 1
401 303 1
401 484 1
401 740 1
401 946 1
401 1068 1
401 1113 1
401 1167 1
401 1177 1
401 1296 1
401 1850 1
401 2001 1
401 2140 1
401 2166 1
401 2289 1
402 77 1
402 109 1
402 127 1
402 222 1
402 435 1
402 780 1
402 1154 1
402 1926 1
402 2146 1
402 2199 1
403 59 1
403 95 1
403 152 1
403 385 1
403 1312 1
403 1903 1
403 2765 1
403 2795 1
403 2812 1
404 2 1
404 25 1
404 31 1
404 330 1
404 873 1
404 879 1
404 1079 1
404 1499 1
404 1868 1
404 1904 1
405 34 1
405 39 1
405 257 1
405 342 1
405 466 1
405 492 1
405 658 1
405 1567 1
405 1923 1
406 5 1
406 36 1
406 103 1
406 318 1
406 430 1
406 469 1
406 612 1
406 797 1
406 1039 1
406 1479 1
406 1700 1
406 1705 1
406 1726 1
406 1860 1
406 2234 1
406 2550 1
406 2601 1
407 21 1
407 86 1
407 157 1
407 247 1
407 700 1
407 1112 1
407 1536 1
408 8 1
408 97 1
408 129 1
408 149 1
408 415 1
408 1159 1
408 1662 1
408 1822 1
409 16 1
409 37 1
409 118 1
409 372 1
409 1594 1
410 2 1
410 9 1
410 21 1
410 93 1
410 523 1
410 627 1
410 790 1
410 1030 1
410 1359 1
410 1720 1
411 78 1
411 183 1
411 244 1
411 343 1
411 575 1
411 926 1
411 1354 1
411 1416 1
411 1515 1
411 2858 1
412 41 1
412 49 1
412 97 1
412 136 1
412 746 1
412 1219 1
412 2229 1
412 2407 1
412 2601 1
413 22 1
413 41 1
413 173 1
413 219 1
413 426 1
413 703 1
413 1514 1
413 1716 1
413 2177 1
413 2288 1
413 2531 1
414 27 1
414 199 1
414 306 1
414 383 1
414 475 1
414 553 1
414 682 1
414 1284 1
414 1652 1
414 2328 1
414 2337 1
414 2707 1
415 8 1
415 75 1
415 276 1
415 408 1
415 869 1
415 2160 1
416 8 1
416 12 1
416 58 1
416 109 1
416 893 1
416 1546 1
416 1867 1
416 1946 1
416 2687 1
417 80 1
417 97 1
417 179 1
417 212 1
417 628 1
417 671 1
417 1047 1
417 2618 1
417 2710 1
418 75 1
418 80 1
418 147 1
418 305 1
418 1234 1
419 49 1
419 60 1
419 169 1
419 332 1
419 563 1
419 1433 1
419 2555 1
420 45 1
420 59 1
420 77 1
420 247 1
420 789 1
420 1036 1
420 1100 1
420 1268 1
420 1363 1
420 1563 1
420 2070 1
420 2104 1
420 2512 1
421 23 1
421 35 1
421 60 1
421 118 1
421 1201 1
421 1333 1
421 1927 1
421 2607 1
422 79 1
422 119 1
422 147 1
422 179 1
422 847 1
422 1573 1
423 50 1
423 60 1
423 77 1
423 336 1
423 1255 1
423 2919 1
424 26 1
424 37 1
424 70 1
424 376 1
424 508 1
424 1523 1
424 1697 1
424 2452 1
425 2 1
425 49 1
425 94 1
425 300 1
425 1025 1
425 1453 1
425 1456 1
425 1526 1
425 1559 1
426 38 1
426 48 1
426 169 1
426 413 1
426 872 1
426 1055 1
426 2889 1
427 31 1
427 40 1
427 43 1
427 345 1
427 447 1
427 947 1
427 1115 1
427 1151 1
427 1168 1
427 1175 1
427 2156 1
427 2242 1
427 2254 1
428 20 1
428 29 1
428 77 1
428 88 1
428 559 1
428 680 1
428 883 1
428 1042 1
428 1150 1
428 1335 1
428 1477 1
428 2461 1
429 5 1
429 10 1
429 21 1
429 203 1
429 1477 1
429 2108 1
429 2551 1
429 2696 1
429 2905 1
430 82 1
430 281 1
430 293 1
430 406 1
430 1418 1
431 13 1
431 71 1
431 85 1
431 313 1
431 1165 1
431 1361 1
431 1602 1
431 2247 1
431 2688 1
432 26 1
432 47 1
432 175 1
432 217 1
432 562 1
432 1775 1
432 1853 1
432 2431 1
433 42 1
433 49 1
433 56 1
433 295 1
433 2313 1
434 40 1
434 132 1
434 136 1
434 384 1
434 940 1
434 1406 1
434 1987 1
434 2230 1
435 4 1
435 100 1
435 132 1
435 402 1
435 1166 1
436 10 1
436 153 1
436 228 1
436 274 1
436 925 1
436 1536 1
436 2560 1
436 2675 1
437 77 1
437 199 1
437 254 1
437 390 1
437 620 1
437 877 1
437 1776 1
437 2070 1
438 20 1
438 93 1
438 162 1
438 347 1
438 583 1
438 691 1
438 784 1
438 951 1
438 1258 1
438 1377 1
438 1498 1
438 2643 1
438 2667 1
438 2993 1
439 171 1
439 193 1
439 194 1
439 256 1
439 466 1
439 486 1
439 504 1
439 585 1
439 643 1
439 917 1
439 1060 1
439 1083 1
439 1120 1
439 1333 1
439 1346 1
439 1542 1
439 2038 1
439 2083 1
439 2156 1
439 2369 1
439 2588 1
439 2935 1
440 6 1
440 11 1
440 60 1
440 203 1
440 757 1
440 1585 1
440 1659 1
440 1833 1
440 2389 1
440 2657 1
441 6 1
441 19 1
441 255 1
441 321 1
441 1039 1
441 1120 1
441 1219 1
441 1376 1
441 1498 1
441 1539 1
442 6 1
442 59 1
442 78 1
442 178 1
442 749 1
442 807 1
442 1329 1
442 1596 1
442 1842 1
442 1892 1
442 2542 1
442 2805 1
443 79 1
443 80 1
443 96 1
443 227 1
443 517 1
443 921 1
443 1015 1
443 1098 1
443 1189 1
443 1297 1
443 1517 1
443 2380 1
443 2487 1
444 13 1
444 38 1
444 48 1
444 266 1
444 476 1
444 592 1
444 612 1
444 1098 1
444 1246 1
444 1820 1
444 2321 1
444 2416 1
444 2847 1
445 6 1
445 34 1
445 114 1
445 382 1
445 649 1
445 1411 1
445 2992 1
446 15 1
446 52 1
446 66 1
446 79 1
446 495 1
446 544 1
446 899 1
447 2 1
447 7 1
447 25 1
447 427 1
447 830 1
447 1045 1
447 1072 1
447 1346 1
447 2231 1
447 2540 1
448 8 1
448 93 1
448 332 1
448 376 1
448 776 1
448 942 1
448 1526 1
448 1606 1
448 1815 1
448 2045 1
448 2768 1
449 10 1
449 38 1
449 119 1
449 318 1
449 748 1
449 883 1
449 918 1
449 971 1
449 1005 1
449 1758 1
450 1 1
450 19 1
450 78 1
450 315 1
450 1208 1
450 1446 1
450 2136 1
450 2327 1
450 2949 1
451 1 1
451 25 1
451 82 1
451 254 1
451 456 1
451 531 1
451 586 1
451 737 1
451 966 1
451 1048 1
451 1066 1
451 1099 1
451 1342 1
451 1396 1
451 1649 1
451 1755 1
451 1849 1
451 2178 1
451 2271 1
451 2667 1
452 12 1
452 64 1
452 195 1
452 246 1
452 1233 1
452 2897 1
453 78 1
453 86 1
453 105 1
453 302 1
453 482 1
453 486 1
453 567 1
453 876 1
453 1032 1
453 1197 1
453 1222 1
453 1276 1
453 1320 1
453 1386 1
453 2749 1
454 20 1
454 75 1
454 248 1
454 338 1
454 652 1
454 744 1
454 1029 1
454 1085 1
454 1133 1
454 1543 1
454 2175 1
454 2278 1
455 30 1
455 124 1
455 286 1
455 376 1
455 685 1
455 756 1
455 809 1
455 855 1
455 970 1
455 1234 1
455 2458 1
455 2607 1
456 2 1
456 101 1
456 279 1
456 451 1
456 2176 1
457 7 1
457 21 1
457 73 1
457 398 1
457 833 1
457 887 1
457 967 1
457 1152 1
457 1550 1
457 2430 1
458 2 1
458 45 1
458 74 1
458 225 1
458 2290 1
458 2586 1
459 7 1
459 58 1
459 95 1
459 100 1
460 10 1
460 24 1
460 125 1
460 198 1
460 569 1
460 778 1
460 928 1
460 1041 1
460 1226 1
460 1419 1
460 2050 1
460 2216 1
460 2487 1
461 23 1
461 125 1
461 275 1
461 387 1
461 562 1
461 874 1
461 1605 1
461 1673 1
461 2509 1
461 2594 1
461 2823 1
462 56 1
462 163 1
462 203 1
462 287 1
462 543 1
462 614 1
462 669 1
462 838 1
462 998 1
462 1120 1
462 1579 1
462 1630 1
462 1866 1
462 1959 1
462 2006 1
462 2613 1
463 6 1
463 19 1
463 153 1
463 156 1
463 1169 1
463 1585 1
463 1855 1
463 2523 1
463 2602 1
463 2964 1
464 79 1
464 194 1
464 271 1
464 287 1
464 478 1
464 662 1
464 754 1
464 1052 1
464 1244 1
464 1296 1
464 1518 1
464 1567 1
464 2066 1
465 95 1
465 150 1
465 196 1
465 372 1
465 827 1
465 976 1
465 1541 1
465 1687 1
465 2301 1
465 2320 1
465 2950 1
466 65 1
466 333 1
466 405 1
466 439 1
466 470 1
466 575 1
466 1109 1
466 1695 1
466 1745 1
466 2015 1
467 21 1
467 136 1
467 291 1
467 336 1
467 710 1
467 1124 1
467 1176 1
467 1544 1
467 1740 1
467 2437 1
467 2612 1
468 9 1
468 25 1
468 83 1
468 312 1
468 547 1
468 598 1
468 636 1
468 1375 1
468 1519 1
468 2380 1
469 1 1
469 16 1
469 93 1
469 406 1
470 55 1
470 115 1
470 217 1
470 466 1
470 526 1
470 554 1
470 611 1
470 776 1
470 1184 1
470 1340 1
470 1838 1
470 2433 1
470 2596 1
471 3 1
471 8 1
471 239 1
471 258 1
471 580 1
471 2063 1
471 2537 1
472 128 1
472 154 1
472 342 1
472 347 1
472 775 1
472 794 1
472 993 1
472 1052 1
472 1363 1
472 1411 1
472 1486 1
472 1560 1
472 1695 1
472 1711 1
472 1807 1
472 1846 1
472 1954 1
472 2055 1
472 2203 1
472 2277 1
472 2384 1
472 2783 1
472 2962 1
473 104 1
473 283 1
473 334 1
473 361 1
473 610 1
473 1130 1
473 1231 1
473 1236 1
473 1529 1
473 2059 1
473 2181 1
473 2196 1
473 2212 1
473 2292 1
473 2386 1
473 2523 1
474 3 1
474 45 1
474 192 1
474 334 1
474 881 1
474 1002 1
474 1596 1
474 2315 1
475 23 1
475 204 1
475 276 1
475 414 1
475 531 1
475 533 1
475 581 1
475 631 1
475 885 1
475 1003 1
475 1449 1
475 1861 1
475 2131 1
475 2216 1
475 2228 1
475 2243 1
475 2294 1
475 2702 1
475 2868 1
476 5 1
476 43 1
476 239 1
476 444 1
476 652 1
476 1535 1
476 2006 1
476 2491 1
476 2766 1
477 1 1
477 9 1
477 115 1
477 277 1
477 560 1
477 674 1
477 829 1
477 846 1
477 862 1
477 893 1
477 949 1
477 1435 1
477 1611 1
477 1839 1
477 2926 1
478 103 1
478 137 1
478 281 1
478 464 1
478 1225 1
478 1262 1
478 1772 1
478 2090 1
478 2921 1
479 78 1
479 93 1
479 149 1
479 261 1
479 492 1
479 703 1
479 1177 1
479 2559 1
479 2851 1
479 2918 1
480 131 1
480 159 1
480 189 1
480 214 1
480 513 1
480 804 1
480 1208 1
480 1250 1
480 1686 1
480 1986 1
480 2170 1
480 2351 1
481 7 1
481 9 1
481 192 1
481 267 1
481 493 1
481 670 1
481 2125 1
481 2214 1
481 2375 1
481 2780 1
481 2831 1
482 5 1
482 19 1
482 132 1
482 453 1
482 671 1
482 929 1
482 1423 1
482 1918 1
482 1998 1
482 2499 1
483 60 1
483 83 1
483 125 1
483 198 1
483 2184 1
483 2886 1
484 115 1
484 181 1
484 221 1
484 401 1
484 512 1
484 538 1
484 616 1
484 813 1
484 1334 1
484 1360 1
484 1531 1
484 1876 1
485 6 1
485 201 1
485 328 1
485 329 1
485 660 1
485 677 1
485 1068 1
485 1206 1
485 1367 1
485 2067 1
485 2411 1
486 12 1
486 266 1
486 439 1
486 453 1
486 617 1
486 825 1
486 2209 1
486 2251 1
486 2698 1
487 1 1
487 10 1
487 25 1
487 90 1
488 130 1
488 141 1
488 232 1
488 363 1
488 859 1
488 1128 1
488 1610 1
488 1866 1
489 4 1
489 19 1
489 49 1
489 215 1
489 674 1
489 1302 1
489 1582 1
490 9 1
490 111 1
490 140 1
490 205 1
490 503 1
490 623 1
490 717 1
490 871 1
490 904 1
490 930 1
490 1090 1
490 1201 1
490 1504 1
490 2015 1
490 2382 1
490 2407 1
490 2524 1
490 2772 1
490 2880 1
491 12 1
491 127 1
491 365 1
491 376 1
491 494 1
491 539 1
491 784 1
491 1457 1
491 2211 1
492 1 1
492 25 1
492 405 1
492 479 1
492 571 1
492 779 1
492 1130 1
492 1900 1
492 2040 1
492 2064 1
492 2089 1
493 41 1
493 132 1
493 195 1
493 481 1
493 544 1
493 750 1
493 876 1
493 1038 1
493 1546 1
493 1562 1
493 2131 1
493 2559 1
493 2622 1
493 2818 1
494 13 1
494 25 1
494 43 1
494 491 1
494 604 1
494 842 1
494 1278 1
494 2111 1
494 2969 1
495 69 1
495 105 1
495 168 1
495 446 1
495 574 1
495 610 1
495 699 1
495 734 1
495 808 1
495 844 1
495 1126 1
495 1163 1
495 1396 1
495 1958 1
495 2185 1
496 27 1
496 58 1
496 129 1
496 230 1
496 1269 1
496 1386 1
496 1638 1
496 2445 1
497 7 1
497 25 1
497 150 1
497 267 1
497 527 1
497 584 1
497 838 1
497 870 1
497 1032 1
497 1054 1
497 1183 1
497 1247 1
497 2309 1
497 2517 1
497 2530 1
497 2545 1
497 2604 1
497 2694 1
498 79 1
498 85 1
498 135 1
498 259 1
498 2621 1
499 53 1
499 54 1
499 118 1
499 356 1
499 1128 1
499 1972 1
499 2393 1
500 7 1
500 37 1
500 101 1
500 368 1
500 517 1
500 544 1
500 709 1
500 763 1
500 1372 1
501 9 1
501 23 1
501 75 1
501 96 1
501 1939 1
501 1972 1
502 93 1
502 179 1
502 345 1
502 376 1
502 571 1
502 1014 1
502 1041 1
502 2185 1
502 2200 1
502 2339 1
503 51 1
503 172 1
503 398 1
503 490 1
503 1230 1
503 1493 1
503 1525 1
503 1763 1
503 2003 1
503 2472 1
503 2580 1
504 113 1
504 276 1
504 390 1
504 439 1
505 56 1
505 262 1
505 291 1
505 324 1
505 588 1
505 692 1
506 24 1
506 70 1
506 246 1
506 258 1
506 514 1
506 649 1
506 711 1
506 841 1
506 1049 1
506 1115 1
506 1294 1
506 1318 1
506 1987 1
506 2363 1
507 14 1
507 17 1
507 38 1
507 328 1
507 515 1
507 601 1
507 613 1
507 737 1
507 769 1
507 834 1
507 901 1
507 1117 1
507 1128 1
507 1252 1
507 1311 1
507 1485 1
507 1810 1
507 1868 1
507 1914 1
507 1969 1
507 2190 1
507 2561 1
508 6 1
508 7 1
508 254 1
508 424 1
508 976 1
508 2194 1
509 71 1
509 111 1
509 125 1
509 252 1
510 154 1
510 205 1
510 219 1
510 242 1
511 7 1
511 56 1
511 253 1
511 374 1
511 705 1
512 7 1
512 124 1
512 275 1
512 484 1
512 802 1
512 867 1
512 1670 1
512 2005 1
512 2575 1
512 2930 1
513 9 1
513 13 1
513 198 1
513 480 1
513 654 1
513 2075 1
514 59 1
514 60 1
514 68 1
514 506 1
515 4 1
515 275 1
515 345 1
515 507 1
515 585 1
515 630 1
515 753 1
515 774 1
515 780 1
515 1171 1
515 1204 1
515 1289 1
515 2071 1
515 2674 1
515 2994 1
516 6 1
516 132 1
516 220 1
516 345 1
516 876 1
516 1938 1
516 2374 1
517 27 1
517 283 1
517 443 1
517 500 1
517 2304 1
517 2826 1
518 74 1
518 79 1
518 239 1
518 328 1
518 589 1
518 1487 1
518 2189 1
519 25 1
519 37 1
519 45 1
519 58 1
519 591 1
519 634 1
519 802 1
519 865 1
519 919 1
519 1063 1
519 1311 1
519 1617 1
519 1942 1
519 1987 1
519 2305 1
519 2331 1
519 2611 1
520 6 1
520 63 1
520 93 1
520 114 1
520 1324 1
520 1657 1
520 1808 1
520 2040 1
521 139 1
521 146 1
521 147 1
521 350 1
521 596 1
521 760 1
521 818 1
521 1505 1
521 2098 1
521 2980 1
522 10 1
522 19 1
522 59 1
522 268 1
522 706 1
522 727 1
522 2493 1
522 2626 1
523 88 1
523 213 1
523 379 1
523 410 1
523 568 1
523 893 1
523 1017 1
523 1244 1
523 1379 1
523 1471 1
523 1492 1
523 1517 1
523 2343 1
523 2612 1
523 2686 1
523 2713 1
523 2790 1
524 3 1
524 10 1
524 143 1
524 203 1
524 1021 1
524 1159 1
524 1579 1
524 2473 1
524 2592 1
525 9 1
525 53 1
525 79 1
525 98 1
525 576 1
525 658 1
525 719 1
525 966 1
525 1791 1
525 2754 1
526 45 1
526 314 1
526 358 1
526 470 1
526 639 1
526 643 1
526 967 1
526 1266 1
526 2222 1
526 2510 1
526 2592 1
526 2915 1
527 9 1
527 215 1
527 365 1
527 497 1
527 1127 1
528 30 1
528 149 1
528 226 1
528 385 1
528 1269 1
529 89 1
529 180 1
529 303 1
529 349 1
529 738 1
529 880 1
529 1034 1
529 1282 1
529 1447 1
529 1921 1
529 1980 1
529 2598 1
530 15 1
530 94 1
530 140 1
530 179 1
530 756 1
530 763 1
530 775 1
530 2143 1
531 25 1
531 238 1
531 451 1
531 475 1
531 587 1
531 635 1
531 655 1
531 701 1
531 1267 1
531 1379 1
531 1534 1
531 1956 1
532 33 1
532 38 1
532 86 1
532 203 1
532 544 1
532 1262 1
532 1434 1
533 2 1
533 10 1
533 115 1
533 475 1
533 573 1
533 630 1
533 991 1
533 1593 1
533 1784 1
533 2444 1
533 2942 1
534 59 1
534 84 1
534 159 1
534 262 1
534 2697 1
535 38 1
535 115 1
535 143 1
535 291 1
535 760 1
535 890 1
535 2240 1
536 40 1
536 45 1
536 126 1
536 349 1
536 656 1
536 795 1
536 1090 1
536 1285 1
536 2236 1
537 4 1
537 9 1
537 223 1
537 242 1
537 884 1
537 1546 1
537 1754 1
538 54 1
538 59 1
538 266 1
538 484 1
538 908 1
538 952 1
538 1146 1
538 2315 1
539 7 1
539 16 1
539 347 1
539 491 1
539 564 1
539 854 1
539 1033 1
539 1159 1
539 1321 1
539 1398 1
539 1656 1
539 1741 1
539 1833 1
539 1891 1
539 1978 1
539 1996 1
539 2485 1
539 2691 1
539 2971 1
540 20 1
540 21 1
540 72 1
540 197 1
540 702 1
540 1072 1
540 2554 1
540 2694 1
541 17 1
541 51 1
541 273 1
541 298 1
541 726 1
541 792 1
542 6 1
542 31 1
542 144 1
542 250 1
542 1344 1
542 2353 1
542 2368 1
543 40 1
543 132 1
543 143 1
543 462 1
543 836 1
543 895 1
543 1072 1
543 1113 1
543 1958 1
544 446 1
544 493 1
544 500 1
544 532 1
544 580 1
544 1220 1
544 1491 1
544 2674 1
545 6 1
545 12 1
545 135 1
545 185 1
545 797 1
545 807 1
545 814 1
545 1018 1
545 1481 1
545 1498 1
545 1635 1
545 1977 1
545 2772 1
546 8 1
546 25 1
546 66 1
546 201 1
546 637 1
546 954 1
546 2239 1
547 4 1
547 23 1
547 203 1
547 468 1
547 606 1
547 1074 1
547 1102 1
547 1307 1
547 1394 1
547 1540 1
547 1707 1
547 2193 1
547 2426 1
547 2508 1
547 2768 1
548 79 1
548 306 1
548 336 1
548 347 1
548 1662 1
548 2745 1
549 7 1
549 52 1
549 206 1
549 246 1
549 1035 1
549 1127 1
549 1633 1
549 2967 1
550 7 1
550 132 1
550 268 1
550 274 1
550 730 1
550 828 1
550 980 1
550 1652 1
550 1789 1
551 47 1
551 75 1
551 202 1
551 315 1
551 1078 1
551 1509 1
551 1626 1
551 1897 1
552 23 1
552 48 1
552 52 1
552 318 1
553 67 1
553 214 1
553 291 1
553 414 1
553 624 1
553 907 1
554 8 1
554 172 1
554 287 1
554 470 1
554 1189 1
554 1394 1
554 1514 1
554 2190 1
554 2601 1
554 2665 1
554 2889 1
555 45 1
555 49 1
555 72 1
555 141 1
555 2696 1
555 2808 1
556 3 1
556 81 1
556 217 1
556 230 1
556 661 1
556 963 1
556 1425 1
556 1440 1
556 1506 1
556 2086 1
556 2164 1
556 2179 1
556 2451 1
556 2754 1
557 4 1
557 35 1
557 165 1
557 194 1
557 566 1
557 856 1
557 2413 1
557 2986 1
558 6 1
558 79 1
558 162 1
558 231 1
558 1092 1
558 1152 1
558 1377 1
558 1533 1
558 1545 1
558 1625 1
558 1993 1
559 25 1
559 56 1
559 75 1
559 428 1
559 721 1
559 1428 1
559 2115 1
560 91 1
560 103 1
560 107 1
560 477 1
560 887 1
560 1111 1
560 1401 1
560 1579 1
560 2293 1
560 2870 1
561 80 1
561 153 1
561 179 1
561 195 1
561 625 1
561 1187 1
561 1196 1
561 1380 1
561 2224 1
561 2962 1
562 246 1
562 286 1
562 432 1
562 461 1
562 772 1
562 994 1
562 1021 1
562 1900 1
562 2187 1
562 2276 1
562 2652 1
563 19 1
563 25 1
563 247 1
563 419 1
563 589 1
563 598 1
563 748 1
563 917 1
563 1118 1
563 1284 1
563 1375 1
563 1399 1
563 1498 1
563 1757 1
563 1931 1
563 1961 1
563 2029 1
563 2527 1
563 2684 1
563 2805 1
564 57 1
564 321 1
564 329 1
564 539 1
564 1813 1
564 1873 1
564 1921 1
565 6 1
565 7 1
565 100 1
565 140 1
565 863 1
565 898 1
565 947 1
566 12 1
566 234 1
566 324 1
566 557 1
566 645 1
566 837 1
566 2345 1
566 2997 1
567 58 1
567 60 1
567 324 1
567 453 1
567 579 1
567 614 1
567 697 1
567 852 1
567 914 1
567 956 1
567 1001 1
567 1196 1
567 1207 1
567 1677 1
567 2102 1
567 2626 1
567 2661 1
568 25 1
568 45 1
568 203 1
568 523 1
568 603 1
568 661 1
568 733 1
568 1028 1
568 1166 1
568 1256 1
568 1436 1
568 1458 1
568 1674 1
568 1734 1
569 18 1
569 132 1
569 320 1
569 460 1
569 583 1
569 799 1
570 7 1
570 60 1
570 244 1
570 256 1
570 774 1
570 1786 1
570 2438 1
571 10 1
571 27 1
571 492 1
571 502 1
571 963 1
571 1804 1
571 1901 1
571 2198 1
572 75 1
572 86 1
572 134 1
572 364 1
572 646 1
572 664 1
572 724 1
572 1684 1
572 1689 1
572 1896 1
572 2938 1
573 10 1
573 90 1
573 131 1
573 533 1
573 1837 1
573 2723 1
574 76 1
574 151 1
574 331 1
574 495 1
574 956 1
574 1868 1
574 1918 1
574 2103 1
574 2157 1
574 2298 1
574 2816 1
575 36 1
575 115 1
575 411 1
575 466 1
575 757 1
575 1011 1
575 1228 1
575 1309 1
575 2364 1
575 2396 1
575 2653 1
575 2950 1
576 9 1
576 86 1
576 217 1
576 525 1
577 14 1
577 38 1
577 97 1
577 107 1
577 1084 1
577 1353 1
577 1457 1
577 1602 1
577 1660 1
577 1950 1
577 2027 1
577 2551 1
577 2724 1
578 40 1
578 41 1
578 104 1
578 132 1
578 764 1
578 2409 1
579 157 1
579 223 1
579 343 1
579 567 1
579 972 1
579 1040 1
579 1912 1
579 1957 1
579 2399 1
579 2427 1
579 2609 1
579 2779 1
580 15 1
580 24 1
580 471 1
580 544 1
580 1970 1
581 168 1
581 304 1
581 377 1
581 475 1
581 1681 1
581 2558 1
582 43 1
582 179 1
582 218 1
582 267 1
582 797 1
582 1356 1
582 1701 1
582 1957 1
582 2335 1
582 2757 1
583 1 1
583 175 1
583 438 1
583 569 1
583 752 1
583 1679 1
583 2071 1
583 2943 1
584 5 1
584 73 1
584 97 1
584 497 1
584 759 1
584 1017 1
584 1589 1
584 1730 1
584 1973 1
584 2034 1
584 2359 1
585 1 1
585 8 1
585 439 1
585 515 1
585 700 1
586 16 1
586 92 1
586 138 1
586 451 1
586 1663 1
586 2021 1
586 2635 1
587 8 1
587 282 1
587 340 1
587 531 1
587 1328 1
587 1503 1
587 1953 1
588 43 1
588 90 1
588 195 1
588 505 1
588 624 1
588 727 1
588 979 1
588 1303 1
588 2017 1
589 45 1
589 287 1
589 518 1
589 563 1
589 953 1
589 1139 1
589 1794 1
589 2080 1
590 138 1
590 152 1
590 168 1
590 238 1
590 2298 1
591 14 1
591 27 1
591 220 1
591 519 1
591 619 1
591 1249 1
591 1297 1
591 1607 1
591 1916 1
591 1972 1
592 74 1
592 131 1
592 358 1
592 444 1
593 4 1
593 132 1
593 295 1
593 340 1
593 826 1
593 1464 1
593 1539 1
593 2465 1
593 2618 1
593 2722 1
594 54 1
594 131 1
594 290 1
594 319 1
594 766 1
594 912 1
594 1046 1
594 1072 1
594 1677 1
594 2153 1
594 2686 1
595 27 1
595 62 1
595 79 1
595 363 1
595 617 1
595 752 1
595 1014 1
595 1189 1
595 2096 1
595 2326 1
595 2596 1
596 35 1
596 38 1
596 90 1
596 521 1
597 3 1
597 4 1
597 116 1
597 210 1
597 638 1
597 670 1
597 937 1
597 1289 1
597 1598 1
597 2196 1
597 2745 1
597 2764 1
598 40 1
598 177 1
598 468 1
598 563 1
598 791 1
598 851 1
598 1144 1
598 2048 1
598 2096 1
598 2103 1
598 2552 1
598 2576 1
599 7 1
599 16 1
599 22 1
599 37 1
599 803 1
599 1905 1
599 1962 1
599 2777 1
600 73 1
600 131 1
600 135 1
600 223 1
600 719 1
600 1819 1
600 2381 1
601 47 1
601 58 1
601 140 1
601 507 1
601 1328 1
601 1576 1
601 1975 1
601 2004 1
602 17 1
602 33 1
602 161 1
602 297 1
602 733 1
602 866 1
602 1730 1
602 1977 1
603 45 1
603 77 1
603 175 1
603 568 1
603 848 1
603 1043 1
603 1969 1
603 2726 1
604 3 1
604 119 1
604 162 1
604 494 1
604 619 1
604 888 1
604 1366 1
604 2627 1
604 2880 1
604 2907 1
605 261 1
605 274 1
605 306 1
605 393 1
606 6 1
606 97 1
606 178 1
606 547 1
606 1119 1
606 1372 1
606 2583 1
606 2601 1
606 2702 1
607 25 1
607 70 1
607 117 1
607 142 1
607 793 1
607 896 1
607 938 1
607 1263 1
607 1305 1
607 1407 1
607 1501 1
607 2314 1
608 6 1
608 41 1
608 56 1
608 369 1
608 710 1
608 1855 1
608 2151 1
608 2948 1
609 7 1
609 27 1
609 37 1
609 250 1
609 1439 1
609 1507 1
609 2532 1
609 2755 1
609 2949 1
610 90 1
610 258 1
610 473 1
610 495 1
610 922 1
610 1338 1
610 1775 1
610 1779 1
610 1968 1
610 2012 1
611 10 1
611 132 1
611 231 1
611 470 1
611 662 1
611 1203 1
612 23 1
612 39 1
612 406 1
612 444 1
612 1061 1
612 1528 1
612 2004 1
613 10 1
613 26 1
613 113 1
613 507 1
613 756 1
613 972 1
613 1413 1
613 1761 1
613 1896 1
613 2567 1
614 19 1
614 371 1
614 462 1
614 567 1
614 640 1
614 697 1
614 768 1
614 801 1
614 1006 1
614 1070 1
614 1100 1
614 1339 1
614 1346 1
614 1754 1
614 1769 1
614 1788 1
614 1826 1
614 2114 1
614 2280 1
614 2350 1
614 2456 1
614 2762 1
614 2877 1
615 5 1
615 6 1
615 301 1
615 357 1
615 2099 1
615 2208 1
615 2585 1
615 2983 1
616 23 1
616 154 1
616 353 1
616 484 1
617 33 1
617 240 1
617 486 1
617 595 1
617 1170 1
617 1243 1
617 2535 1
618 16 1
618 17 1
618 83 1
618 336 1
618 1384 1
618 1417 1
618 1641 1
618 2049 1
618 2196 1
618 2517 1
619 100 1
619 327 1
619 591 1
619 604 1
619 1049 1
619 1096 1
619 1119 1
619 1204 1
619 2069 1
620 6 1
620 9 1
620 82 1
620 437 1
620 652 1
620 679 1
620 1102 1
620 1428 1
620 1488 1
620 1492 1
620 1511 1
620 1919 1
620 2359 1
620 2619 1
621 5 1
621 41 1
621 93 1
621 210 1
621 702 1
621 1103 1
621 1185 1
621 1413 1
621 1667 1
622 84 1
622 131 1
622 154 1
622 185 1
622 1265 1
622 2128 1
622 2219 1
622 2290 1
622 2947 1
623 26 1
623 203 1
623 280 1
623 490 1
623 914 1
623 917 1
624 102 1
624 225 1
624 553 1
624 588 1
624 669 1
624 831 1
624 1612 1
624 2215 1
625 21 1
625 161 1
625 266 1
625 561 1
625 1010 1
625 1397 1
625 1443 1
625 1455 1
625 1570 1
625 2433 1
625 2538 1
626 19 1
626 23 1
626 44 1
626 302 1
626 662 1
626 1074 1
626 1086 1
627 2 1
627 7 1
627 12 1
627 410 1
627 1133 1
627 1508 1
627 2147 1
627 2267 1
627 2383 1
627 2877 1
627 2881 1
627 2890 1
628 22 1
628 78 1
628 104 1
628 417 1
628 1101 1
628 1831 1
628 1982 1
628 2361 1
629 9 1
629 10 1
629 58 1
629 324 1
629 645 1
629 869 1
629 1168 1
629 1347 1
629 1426 1
629 2490 1
630 33 1
630 284 1
630 515 1
630 533 1
630 1156 1
630 1183 1
630 1845 1
630 2028 1
630 2610 1
631 8 1
631 19 1
631 379 1
631 475 1
631 641 1
631 682 1
631 686 1
631 688 1
631 710 1
631 749 1
631 1138 1
631 1257 1
631 1618 1
631 1671 1
631 1689 1
631 1691 1
631 1899 1
631 2380 1
631 2985 1
632 41 1
632 152 1
632 189 1
632 325 1
632 1550 1
632 2129 1
632 2204 1
632 2977 1
632 3000 1
633 45 1
633 97 1
633 159 1
633 226 1
633 886 1
633 1304 1
633 1633 1
633 1642 1
634 6 1
634 23 1
634 154 1
634 519 1
634 1473 1
634 2680 1
635 14 1
635 138 1
635 165 1
635 531 1
635 742 1
635 1442 1
635 2669 1
636 105 1
636 114 1
636 204 1
636 468 1
636 992 1
636 1601 1
637 21 1
637 59 1
637 189 1
637 546 1
637 743 1
637 1167 1
637 1192 1
637 2049 1
638 5 1
638 154 1
638 189 1
638 597 1
638 1034 1
638 1613 1
638 2950 1
639 6 1
639 27 1
639 259 1
639 526 1
639 2524 1
640 15 1
640 84 1
640 86 1
640 614 1
640 945 1
640 1255 1
640 1279 1
640 1511 1
640 1661 1
640 1859 1
640 2494 1
641 1 1
641 103 1
641 213 1
641 631 1
641 833 1
641 1624 1
641 1667 1
641 1934 1
642 1 1
642 9 1
642 83 1
642 376 1
642 1181 1
642 1235 1
642 1997 1
642 2296 1
642 2937 1
643 296 1
643 384 1
643 439 1
643 526 1
643 1111 1
644 8 1
644 56 1
644 157 1
644 367 1
644 953 1
644 1508 1
644 1627 1
644 2102 1
644 2946 1
645 35 1
645 254 1
645 566 1
645 629 1
645 1620 1
645 2739 1
645 2960 1
646 20 1
646 79 1
646 297 1
646 572 1
646 1258 1
646 1742 1
646 1784 1
647 23 1
647 152 1
647 187 1
647 197 1
647 782 1
647 820 1
647 1027 1
647 1237 1
647 1365 1
647 1991 1
647 2086 1
647 2316 1
647 2378 1
647 2723 1
648 1 1
648 25 1
648 157 1
648 199 1
648 2073 1
649 368 1
649 385 1
649 445 1
649 506 1
649 657 1
649 1214 1
649 1228 1
649 1436 1
649 1650 1
649 1970 1
650 36 1
650 57 1
650 115 1
650 175 1
650 678 1
650 1012 1
650 1160 1
650 1929 1
650 2510 1
650 2973 1
651 58 1
651 115 1
651 131 1
651 370 1
651 730 1
651 807 1
651 874 1
651 1149 1
651 1866 1
652 4 1
652 454 1
652 476 1
652 620 1
652 885 1
652 1000 1
652 1062 1
652 1132 1
652 1208 1
652 1750 1
652 1765 1
652 2307 1
652 2599 1
652 2695 1
652 2824 1
653 61 1
653 103 1
653 131 1
653 206 1
653 972 1
653 1302 1
653 1327 1
653 1475 1
653 2293 1
653 2575 1
654 48 1
654 132 1
654 212 1
654 513 1
654 676 1
654 1410 1
654 1497 1
654 1676 1
654 2843 1
655 74 1
655 158 1
655 206 1
655 531 1
655 781 1
655 845 1
655 938 1
655 1731 1
655 2721 1
656 234 1
656 350 1
656 390 1
656 536 1
656 1253 1
656 1815 1
656 2659 1
656 2675 1
656 2719 1
657 17 1
657 86 1
657 139 1
657 649 1
657 915 1
657 1293 1
657 1587 1
658 131 1
658 162 1
658 405 1
658 525 1
658 1207 1
658 1473 1
658 1880 1
658 2546 1
659 13 1
659 201 1
659 289 1
659 323 1
659 777 1
659 901 1
659 1759 1
659 1989 1
659 2084 1
659 2116 1
659 2215 1
659 2311 1
659 2936 1
660 157 1
660 171 1
660 312 1
660 485 1
660 720 1
660 1720 1
661 44 1
661 200 1
661 556 1
661 568 1
661 880 1
661 988 1
661 1160 1
661 1249 1
661 1319 1
661 1865 1
661 2149 1
661 2382 1
661 2644 1
661 2816 1
662 306 1
662 464 1
662 611 1
662 626 1
662 1221 1
662 1317 1
662 1502 1
662 2041 1
663 19 1
663 25 1
663 26 1
663 319 1
664 240 1
664 259 1
664 324 1
664 572 1
664 752 1
664 1371 1
664 1643 1
664 2062 1
664 2232 1
664 2914 1
665 8 1
665 96 1
665 110 1
665 282 1
665 690 1
665 808 1
665 1298 1
665 1308 1
665 2012 1
665 2137 1
665 2941 1
665 2958 1
666 18 1
666 115 1
666 131 1
666 262 1
666 685 1
666 728 1
666 758 1
666 871 1
666 1086 1
666 1831 1
666 2972 1
667 19 1
667 49 1
667 232 1
667 393 1
667 2167 1
668 7 1
668 22 1
668 25 1
668 347 1
668 786 1
668 1574 1
669 4 1
669 159 1
669 462 1
669 624 1
669 993 1
669 2042 1
669 2205 1
670 28 1
670 376 1
670 481 1
670 597 1
670 937 1
670 999 1
670 1449 1
670 1670 1
670 1912 1
670 2283 1
670 2488 1
670 2688 1
670 2798 1
671 5 1
671 23 1
671 417 1
671 482 1
671 789 1
671 1426 1
671 2523 1
672 22 1
672 54 1
672 192 1
672 321 1
672 683 1
672 812 1
672 848 1
672 1549 1
672 2132 1
672 2205 1
672 2329 1
672 2354 1
672 2729 1
673 3 1
673 5 1
673 167 1
673 290 1
673 674 1
673 920 1
673 1271 1
673 1801 1
673 1963 1
673 2075 1
673 2634 1
673 2876 1
674 345 1
674 477 1
674 489 1
674 673 1
674 845 1
674 2399 1
674 2605 1
675 19 1
675 37 1
675 74 1
675 154 1
675 840 1
675 858 1
675 942 1
675 957 1
675 2970 1
675 2988 1
676 42 1
676 45 1
676 204 1
676 654 1
676 797 1
676 1393 1
676 1699 1
676 1782 1
676 2501 1
676 2730 1
677 3 1
677 6 1
677 201 1
677 485 1
677 1274 1
677 1304 1
677 1399 1
677 1534 1
677 1648 1
677 2160 1
678 38 1
678 118 1
678 156 1
678 650 1
678 822 1
678 1848 1
678 2751 1
679 45 1
679 161 1
679 303 1
679 620 1
679 1963 1
679 2189 1
679 2906 1
680 60 1
680 170 1
680 253 1
680 428 1
680 851 1
680 955 1
680 1125 1
680 1554 1
680 2224 1
680 2299 1
680 2692 1
681 21 1
681 38 1
681 69 1
681 314 1
681 918 1
681 1528 1
681 1774 1
681 2235 1
681 2336 1
681 2573 1
681 2815 1
682 207 1
682 215 1
682 414 1
682 631 1
682 842 1
682 939 1
682 1102 1
682 1150 1
682 1420 1
682 1520 1
682 1767 1
682 2217 1
682 2494 1
682 2756 1
682 2940 1
683 8 1
683 106 1
683 218 1
683 672 1
683 864 1
683 1195 1
683 2172 1
683 2185 1
684 3 1
684 50 1
684 139 1
684 289 1
684 1476 1
684 1514 1
685 59 1
685 161 1
685 455 1
685 666 1
685 1135 1
686 19 1
686 111 1
686 128 1
686 631 1
686 1629 1
686 1694 1
686 2423 1
686 2957 1
687 15 1
687 33 1
687 73 1
687 303 1
687 747 1
687 1492 1
687 2433 1
688 238 1
688 287 1
688 356 1
688 631 1
688 788 1
689 47 1
689 101 1
689 190 1
689 242 1
689 881 1
689 985 1
689 2881 1
690 4 1
690 143 1
690 159 1
690 665 1
690 834 1
690 1003 1
690 1176 1
690 1926 1
690 2123 1
691 1 1
691 92 1
691 365 1
691 438 1
691 1004 1
691 2153 1
691 2530 1
692 200 1
692 218 1
692 315 1
692 505 1
692 891 1
692 1059 1
692 1812 1
692 2547 1
692 2758 1
693 9 1
693 33 1
693 52 1
693 53 1
693 1170 1
693 1603 1
693 1940 1
693 2969 1
694 4 1
694 9 1
694 231 1
694 286 1
694 1101 1
694 1995 1
694 2016 1
694 2648 1
695 20 1
695 116 1
695 158 1
695 377 1
695 1564 1
695 1902 1
696 21 1
696 28 1
696 146 1
696 364 1
696 1119 1
696 1496 1
696 1750 1
696 2246 1
696 2652 1
696 2733 1
696 2804 1
697 175 1
697 198 1
697 567 1
697 614 1
698 23 1
698 88 1
698 174 1
698 287 1
698 2609 1
698 2741 1
699 3 1
699 125 1
699 143 1
699 495 1
699 770 1
699 1108 1
699 1371 1
699 1833 1
699 1919 1
699 2072 1
699 2298 1
699 2376 1
699 2412 1
699 2915 1
700 4 1
700 80 1
700 407 1
700 585 1
700 2320 1
700 2998 1
701 21 1
701 125 1
701 227 1
701 531 1
701 1144 1
701 1919 1
701 2016 1
701 2259 1
702 7 1
702 9 1
702 540 1
702 621 1
702 900 1
702 1564 1
703 71 1
703 179 1
703 413 1
703 479 1
703 2268 1
703 2333 1
704 6 1
704 24 1
704 46 1
704 300 1
704 886 1
704 1026 1
704 1082 1
704 1315 1
704 1369 1
704 1615 1
704 1783 1
704 2436 1
704 2444 1
704 2486 1
704 2738 1
705 6 1
705 18 1
705 205 1
705 511 1
705 1032 1
705 1064 1
705 1592 1
705 1639 1
705 1674 1
705 1850 1
705 1871 1
706 6 1
706 158 1
706 163 1
706 522 1
706 860 1
706 1608 1
706 2447 1
707 13 1
707 49 1
707 77 1
707 246 1
707 1396 1
707 2846 1
708 8 1
708 23 1
708 104 1
708 194 1
708 823 1
708 2046 1
708 2515 1
709 6 1
709 244 1
709 339 1
709 500 1
709 771 1
709 1012 1
709 1340 1
709 1417 1
709 2445 1
709 2579 1
709 2972 1
710 353 1
710 467 1
710 608 1
710 631 1
710 1260 1
710 1310 1
710 1671 1
710 2412 1
711 39 1
711 202 1
711 306 1
711 506 1
711 1223 1
711 2693 1
712 54 1
712 131 1
712 187 1
712 388 1
712 1031 1
712 1315 1
712 1345 1
712 1444 1
712 1454 1
712 2030 1
712 2654 1
713 9 1
713 131 1
713 139 1
713 180 1
713 1364 1
713 1481 1
713 1512 1
713 1917 1
713 1985 1
713 2613 1
714 12 1
714 23 1
714 83 1
714 87 1
714 2961 1
715 1 1
715 56 1
715 65 1
715 205 1
715 930 1
715 1801 1
716 3 1
716 14 1
716 187 1
716 369 1
716 761 1
716 803 1
716 1362 1
716 1553 1
716 1672 1
716 2031 1
716 2904 1
717 88 1
717 238 1
717 326 1
717 490 1
717 1116 1
717 1461 1
717 1665 1
718 114 1
718 115 1
718 159 1
718 182 1
718 1266 1
718 2725 1
719 75 1
719 133 1
719 525 1
719 600 1
719 1107 1
719 1299 1
719 2249 1
719 2473 1
720 40 1
720 257 1
720 398 1
720 660 1
720 1181 1
720 1512 1
720 1639 1
720 2323 1
721 5 1
721 28 1
721 89 1
721 559 1
721 974 1
721 1655 1
721 1894 1
722 9 1
722 23 1
722 138 1
722 232 1
722 1483 1
722 1625 1
722 1756 1
722 2073 1
722 2462 1
722 2522 1
723 3 1
723 16 1
723 77 1
723 86 1
723 2806 1
724 52 1
724 228 1
724 249 1
724 572 1
724 1235 1
725 52 1
725 168 1
725 261 1
725 369 1
725 1424 1
725 1766 1
725 2336 1
726 13 1
726 45 1
726 289 1
726 541 1
726 1134 1
726 1417 1
726 1537 1
726 1710 1
726 1823 1
726 2590 1
727 133 1
727 259 1
727 522 1
727 588 1
727 1998 1
728 6 1
728 15 1
728 22 1
728 666 1
728 908 1
728 971 1
728 1024 1
728 1055 1
728 1132 1
728 1580 1
728 1606 1
728 2917 1
729 32 1
729 45 1
729 65 1
729 325 1
729 783 1
729 788 1
729 1050 1
729 1161 1
729 2241 1
729 2734 1
729 2999 1
730 41 1
730 79 1
730 550 1
730 651 1
730 1379 1
731 25 1
731 45 1
731 79 1
731 161 1
731 1097 1
731 1411 1
731 2680 1
732 16 1
732 97 1
732 99 1
732 218 1
732 1834 1
732 2085 1
733 348 1
733 354 1
733 568 1
733 602 1
733 873 1
733 1007 1
733 1929 1
733 2367 1
733 2757 1
734 1 1
734 118 1
734 320 1
734 495 1
734 770 1
734 1774 1
734 2237 1
734 2295 1
734 2753 1
735 63 1
735 117 1
735 248 1
735 358 1
735 1085 1
735 1261 1
735 1262 1
736 7 1
736 38 1
736 168 1
736 282 1
736 1781 1
737 15 1
737 241 1
737 451 1
737 507 1
737 809 1
737 2099 1
737 2721 1
738 1 1
738 237 1
738 293 1
738 529 1
738 1634 1
738 1807 1
739 15 1
739 59 1
739 182 1
739 196 1
739 2448 1
740 9 1
740 139 1
740 272 1
740 401 1
740 1103 1
740 1635 1
740 2416 1
740 2830 1
740 2917 1
740 2985 1
741 3 1
741 103 1
741 111 1
741 288 1
741 1372 1
741 1587 1
741 2152 1
742 13 1
742 94 1
742 199 1
742 635 1
742 1899 1
742 2462 1
743 106 1
743 124 1
743 393 1
743 637 1
743 1158 1
743 2860 1
744 6 1
744 19 1
744 340 1
744 454 1
744 904 1
744 1322 1
744 1421 1
745 17 1
745 27 1
745 80 1
745 100 1
745 1215 1
745 1350 1
745 1570 1
745 1644 1
745 1873 1
745 2261 1
746 17 1
746 219 1
746 246 1
746 412 1
746 1126 1
747 78 1
747 125 1
747 386 1
747 687 1
747 2956 1
748 75 1
748 371 1
748 449 1
748 563 1
748 1058 1
748 1769 1
748 2044 1
748 2168 1
749 26 1
749 225 1
749 442 1
749 631 1
749 1242 1
749 2884 1
749 2896 1
750 6 1
750 267 1
750 376 1
750 493 1
750 785 1
750 1084 1
750 1199 1
751 27 1
751 41 1
751 140 1
751 153 1
751 1156 1
751 1285 1
751 1802 1
751 1885 1
751 2607 1
751 2680 1
752 388 1
752 583 1
752 595 1
752 664 1
752 1930 1
753 134 1
753 288 1
753 344 1
753 515 1
753 805 1
753 1013 1
754 3 1
754 105 1
754 233 1
754 464 1
754 2199 1
755 83 1
755 159 1
755 356 1
755 399 1
755 943 1
755 1674 1
755 1830 1
755 2932 1
756 20 1
756 455 1
756 530 1
756 613 1
756 1136 1
756 1821 1
756 2422 1
757 64 1
757 169 1
757 440 1
757 575 1
757 1349 1
757 2392 1
758 1 1
758 48 1
758 247 1
758 666 1
758 1892 1
758 2090 1
758 2730 1
759 239 1
759 252 1
759 325 1
759 584 1
759 1219 1
759 1412 1
759 1518 1
759 2011 1
759 2092 1
760 132 1
760 292 1
760 521 1
760 535 1
760 777 1
760 1086 1
760 1251 1
760 1369 1
760 2088 1
760 2566 1
760 2595 1
760 2603 1
760 2628 1
760 2766 1
760 2845 1
761 40 1
761 103 1
761 174 1
761 716 1
761 903 1
761 1104 1
761 1440 1
761 1692 1
761 2109 1
761 2370 1
762 3 1
762 4 1
762 39 1
762 378 1
762 2309 1
762 2441 1
762 2757 1
763 77 1
763 91 1
763 500 1
763 530 1
763 948 1
763 999 1
763 1164 1
763 1300 1
763 2375 1
763 2885 1
764 15 1
764 68 1
764 158 1
764 578 1
764 1033 1
764 1497 1
764 1798 1
765 1 1
765 3 1
765 126 1
765 234 1
765 897 1
765 1085 1
765 1523 1
765 2277 1
765 2492 1
765 2554 1
766 1 1
766 6 1
766 207 1
766 594 1
767 19 1
767 53 1
767 176 1
767 246 1
767 779 1
767 1676 1
767 2377 1
768 2 1
768 142 1
768 293 1
768 614 1
768 1105 1
768 1355 1
768 1501 1
768 2329 1
768 2481 1
768 2627 1
768 2741 1
768 2998 1
769 36 1
769 50 1
769 79 1
769 507 1
769 1139 1
769 1141 1
769 1390 1
769 2838 1
770 133 1
770 318 1
770 699 1
770 734 1
770 1416 1
770 1423 1
770 1429 1
770 1582 1
770 1998 1
770 2110 1
770 2381 1
770 2606 1
771 37 1
771 139 1
771 230 1
771 709 1
771 862 1
771 1017 1
771 1233 1
771 1256 1
771 1332 1
771 1419 1
771 2331 1
772 7 1
772 281 1
772 282 1
772 562 1
772 888 1
772 1076 1
772 1172 1
772 1194 1
772 1997 1
773 118 1
773 177 1
773 307 1
773 376 1
773 799 1
773 1450 1
773 1778 1
773 2420 1
773 2801 1
774 234 1
774 349 1
774 515 1
774 570 1
774 799 1
774 865 1
774 930 1
774 1043 1
774 1046 1
774 1270 1
774 1295 1
774 1311 1
774 2060 1
774 2192 1
774 2379 1
774 2828 1
775 21 1
775 181 1
775 472 1
775 530 1
775 976 1
775 1458 1
776 92 1
776 361 1
776 448 1
776 470 1
776 866 1
776 977 1
776 1871 1
776 2872 1
776 2968 1
777 19 1
777 153 1
777 659 1
777 760 1
777 889 1
777 960 1
777 1278 1
777 2450 1
777 2923 1
778 57 1
778 87 1
778 389 1
778 460 1
778 1102 1
778 1137 1
778 1567 1
778 1694 1
778 1753 1
778 1887 1
779 47 1
779 254 1
779 492 1
779 767 1
779 830 1
779 2683 1
780 74 1
780 163 1
780 402 1
780 515 1
780 1226 1
780 1487 1
780 2830 1
781 242 1
781 252 1
781 376 1
781 655 1
781 957 1
781 1077 1
781 1121 1
781 1623 1
781 1688 1
781 1709 1
781 2690 1
782 9 1
782 278 1
782 325 1
782 647 1
782 819 1
782 1433 1
782 2325 1
782 2469 1
783 38 1
783 51 1
783 61 1
783 729 1
783 1588 1
784 12 1
784 14 1
784 438 1
784 491 1
784 931 1
784 1037 1
784 2076 1
784 2586 1
785 3 1
785 17 1
785 125 1
785 750 1
785 810 1
785 1205 1
785 1284 1
785 1439 1
785 2087 1
786 1 1
786 19 1
786 60 1
786 668 1
786 1122 1
786 1125 1
786 2333 1
786 2997 1
787 64 1
787 83 1
787 194 1
787 341 1
787 1645 1
787 2030 1
787 2177 1
788 66 1
788 212 1
788 688 1
788 729 1
788 818 1
788 1071 1
788 1198 1
788 1245 1
788 1383 1
788 1877 1
788 1966 1
788 2280 1
788 2361 1
789 6 1
789 318 1
789 420 1
789 671 1
789 1108 1
789 2442 1
790 43 1
790 195 1
790 228 1
790 410 1
790 931 1
790 1220 1
790 1381 1
790 1764 1
790 1933 1
790 1973 1
790 2201 1
790 2556 1
791 32 1
791 161 1
791 275 1
791 598 1
792 164 1
792 213 1
792 275 1
792 541 1
792 892 1
792 904 1
792 1855 1
792 2078 1
792 2453 1
793 9 1
793 111 1
793 163 1
793 607 1
793 1473 1
793 1622 1
793 1757 1
793 1890 1
793 2357 1
794 113 1
794 179 1
794 260 1
794 472 1
794 855 1
794 1318 1
794 1995 1
794 2107 1
794 2178 1
794 2223 1
794 2725 1
795 25 1
795 49 1
795 99 1
795 536 1
795 1382 1
795 1478 1
795 2464 1
796 7 1
796 13 1
796 60 1
796 393 1
796 1023 1
796 2923 1
797 406 1
797 545 1
797 582 1
797 676 1
797 1306 1
797 2332 1
798 8 1
798 19 1
798 228 1
798 251 1
798 1287 1
799 179 1
799 569 1
799 773 1
799 774 1
799 1776 1
800 58 1
800 98 1
800 159 1
800 181 1
800 829 1
800 864 1
800 1647 1
801 6 1
801 111 1
801 285 1
801 614 1
801 1885 1
802 273 1
802 373 1
802 512 1
802 519 1
802 1104 1
802 1320 1
802 2430 1
802 2916 1
803 8 1
803 236 1
803 599 1
803 716 1
803 1197 1
803 1858 1
804 19 1
804 42 1
804 143 1
804 480 1
804 1425 1
804 1551 1
804 2565 1
805 185 1
805 225 1
805 243 1
805 753 1
805 922 1
805 2469 1
806 88 1
806 197 1
806 219 1
806 264 1
806 1270 1
806 1565 1
806 1809 1
806 2706 1
806 2763 1
806 2933 1
807 111 1
807 442 1
807 545 1
807 651 1
807 1221 1
807 1275 1
807 1382 1
807 2631 1
807 2688 1
807 2722 1
808 207 1
808 210 1
808 495 1
808 665 1
808 1599 1
808 2724 1
809 18 1
809 295 1
809 455 1
809 737 1
809 1000 1
809 1056 1
810 12 1
810 19 1
810 74 1
810 785 1
810 1332 1
811 69 1
811 70 1
811 153 1
811 391 1
811 2095 1
811 2226 1
811 2238 1
811 2371 1
811 2420 1
812 4 1
812 43 1
812 145 1
812 672 1
812 2009 1
813 18 1
813 183 1
813 385 1
813 484 1
813 970 1
813 1862 1
813 2321 1
814 38 1
814 59 1
814 255 1
814 545 1
814 1114 1
814 1662 1
814 2257 1
815 8 1
815 27 1
815 242 1
815 306 1
815 1011 1
815 1145 1
815 1195 1
815 2111 1
815 2162 1
815 2325 1
816 25 1
816 50 1
816 248 1
816 370 1
816 1357 1
816 1641 1
816 2083 1
816 2384 1
816 2865 1
817 1 1
817 14 1
817 49 1
817 215 1
817 1971 1
817 2009 1
817 2284 1
818 14 1
818 324 1
818 521 1
818 788 1
818 1124 1
818 1145 1
818 1732 1
818 2059 1
818 2124 1
819 9 1
819 12 1
819 175 1
819 782 1
819 1360 1
819 1880 1
819 2634 1
819 2953 1
820 60 1
820 130 1
820 131 1
820 647 1
820 832 1
820 871 1
820 1121 1
820 1762 1
820 2648 1
820 2903 1
821 6 1
821 79 1
821 88 1
821 357 1
821 849 1
821 973 1
821 1628 1
821 1827 1
821 1899 1
821 2032 1
821 2563 1
821 2821 1
822 6 1
822 169 1
822 395 1
822 678 1
822 827 1
822 960 1
822 1013 1
822 1828 1
822 2173 1
822 2754 1
823 4 1
823 99 1
823 115 1
823 708 1
823 1207 1
823 1342 1
823 1353 1
823 1535 1
823 1826 1
823 1840 1
823 1880 1
823 2013 1
823 2318 1
823 2597 1
823 2803 1
824 134 1
824 199 1
824 234 1
824 306 1
824 960 1
825 89 1
825 169 1
825 262 1
825 486 1
825 884 1
826 50 1
826 203 1
826 382 1
826 593 1
826 831 1
826 1048 1
827 41 1
827 244 1
827 465 1
827 822 1
827 857 1
827 1122 1
827 1920 1
827 2271 1
827 2400 1
828 56 1
828 117 1
828 207 1
828 550 1
828 1094 1
828 1327 1
828 1588 1
828 1680 1
828 2005 1
828 2314 1
828 2401 1
829 62 1
829 89 1
829 477 1
829 800 1
829 1134 1
829 1345 1
829 1446 1
829 2429 1
829 2845 1
829 2846 1
830 19 1
830 38 1
830 447 1
830 779 1
830 837 1
831 56 1
831 58 1
831 624 1
831 826 1
831 939 1
831 940 1
831 2327 1
831 2517 1
832 40 1
832 76 1
832 242 1
832 820 1
832 1975 1
833 158 1
833 297 1
833 457 1
833 641 1
833 1468 1
833 1520 1
833 1827 1
833 2244 1
833 2621 1
833 2984 1
834 19 1
834 252 1
834 507 1
834 690 1
834 1020 1
834 1097 1
834 1337 1
834 1685 1
834 2584 1
835 7 1
835 193 1
835 320 1
835 392 1
835 984 1
835 1745 1
835 1913 1
835 2302 1
835 2322 1
835 2862 1
836 14 1
836 72 1
836 306 1
836 543 1
836 1936 1
836 1946 1
836 2084 1
837 10 1
837 134 1
837 566 1
837 830 1
837 2819 1
838 81 1
838 202 1
838 462 1
838 497 1
839 2 1
839 83 1
839 206 1
839 320 1
839 1175 1
839 2484 1
840 173 1
840 175 1
840 365 1
840 675 1
840 1404 1
840 1438 1
840 1571 1
840 1704 1
841 20 1
841 103 1
841 143 1
841 506 1
841 1771 1
841 2023 1
841 2195 1
842 73 1
842 83 1
842 494 1
842 682 1
842 964 1
842 2370 1
843 6 1
843 90 1
843 146 1
843 149 1
843 2562 1
844 116 1
844 120 1
844 259 1
844 495 1
844 1203 1
844 1514 1
844 1577 1
844 2826 1
845 114 1
845 277 1
845 655 1
845 674 1
846 3 1
846 6 1
846 203 1
846 477 1
846 2743 1
847 14 1
847 81 1
847 281 1
847 422 1
847 936 1
847 1212 1
848 3 1
848 131 1
848 603 1
848 672 1
848 869 1
849 3 1
849 194 1
849 219 1
849 821 1
849 1076 1
849 1410 1
849 1578 1
849 2633 1
850 33 1
850 34 1
850 114 1
850 345 1
850 1555 1
851 64 1
851 252 1
851 598 1
851 680 1
851 1634 1
851 2174 1
852 17 1
852 87 1
852 267 1
852 567 1
852 1283 1
852 1399 1
852 2945 1
853 138 1
853 230 1
853 241 1
853 246 1
853 938 1
853 996 1
853 1114 1
853 1166 1
853 1316 1
853 1903 1
853 1995 1
854 8 1
854 354 1
854 373 1
854 539 1
854 888 1
854 1211 1
854 1276 1
854 1943 1
854 2386 1
854 2476 1
855 13 1
855 160 1
855 455 1
855 794 1
856 23 1
856 94 1
856 246 1
856 557 1
856 2537 1
857 1 1
857 8 1
857 79 1
857 827 1
858 7 1
858 11 1
858 120 1
858 675 1
858 1604 1
859 1 1
859 19 1
859 373 1
859 488 1
859 1432 1
859 2871 1
860 26 1
860 118 1
860 202 1
860 706 1
860 1330 1
860 1846 1
860 2170 1
861 1 1
861 132 1
861 168 1
861 277 1
861 2037 1
861 2991 1
862 41 1
862 83 1
862 477 1
862 771 1
862 1330 1
862 1655 1
862 1682 1
862 2053 1
862 2063 1
862 2369 1
863 13 1
863 22 1
863 86 1
863 565 1
863 1146 1
863 1505 1
863 1964 1
863 2532 1
863 2837 1
864 95 1
864 266 1
864 683 1
864 800 1
864 1397 1
864 1435 1
864 1628 1
864 1765 1
864 2201 1
864 2513 1
864 2643 1
865 8 1
865 10 1
865 519 1
865 774 1
865 1319 1
865 1534 1
865 1908 1
865 1938 1
865 2329 1
866 23 1
866 294 1
866 602 1
866 776 1
866 1091 1
866 1260 1
866 1702 1
866 2035 1
866 2539 1
867 41 1
867 377 1
867 383 1
867 512 1
867 984 1
867 988 1
867 1688 1
867 2074 1
867 2331 1
867 2882 1
868 95 1
868 168 1
868 213 1
868 343 1
868 1368 1
868 1511 1
868 1682 1
868 2145 1
868 2311 1
869 79 1
869 415 1
869 629 1
869 848 1
870 25 1
870 66 1
870 258 1
870 497 1
870 1005 1
870 1016 1
870 1180 1
870 1227 1
871 146 1
871 490 1
871 666 1
871 820 1
871 1565 1
871 2728 1
871 2852 1
872 65 1
872 80 1
872 87 1
872 426 1
872 905 1
872 1002 1
872 1179 1
872 1557 1
872 1733 1
872 2745 1
872 2835 1
873 46 1
873 307 1
873 404 1
873 733 1
873 1425 1
874 9 1
874 210 1
874 461 1
874 651 1
874 1611 1
874 1872 1
874 2070 1
874 2124 1
874 2970 1
875 1 1
875 10 1
875 73 1
875 286 1
875 1329 1
875 2596 1
876 39 1
876 453 1
876 493 1
876 516 1
876 1414 1
876 2893 1
877 13 1
877 119 1
877 362 1
877 437 1
877 2580 1
878 12 1
878 29 1
878 132 1
878 323 1
878 1419 1
878 1749 1
879 10 1
879 283 1
879 378 1
879 404 1
879 2936 1
880 161 1
880 176 1
880 529 1
880 661 1
880 1221 1
880 1266 1
880 1350 1
880 2116 1
880 2166 1
881 20 1
881 79 1
881 474 1
881 689 1
881 942 1
882 9 1
882 37 1
882 60 1
882 143 1
882 1883 1
883 50 1
883 343 1
883 428 1
883 449 1
883 1070 1
883 1234 1
883 1626 1
883 2440 1
884 1 1
884 193 1
884 537 1
884 825 1
884 964 1
884 1572 1
884 2532 1
885 10 1
885 264 1
885 475 1
885 652 1
885 897 1
885 1082 1
885 1300 1
885 1401 1
885 2273 1
886 21 1
886 221 1
886 633 1
886 704 1
886 1044 1
886 2784 1
887 45 1
887 341 1
887 457 1
887 560 1
887 1521 1
887 1739 1
887 2825 1
888 105 1
888 604 1
888 772 1
888 854 1
888 955 1
888 1177 1
888 1554 1
888 1993 1
888 2197 1
888 2805 1
888 2913 1
889 96 1
889 166 1
889 365 1
889 777 1
889 1182 1
889 1437 1
889 1570 1
889 1660 1
889 2780 1
890 25 1
890 28 1
890 353 1
890 535 1
890 1228 1
891 150 1
891 169 1
891 175 1
891 692 1
891 1094 1
891 1620 1
891 2278 1
891 2483 1
891 3000 1
892 60 1
892 74 1
892 254 1
892 792 1
892 1690 1
893 54 1
893 416 1
893 477 1
893 523 1
894 7 1
894 60 1
894 143 1
894 201 1
894 1504 1
894 1521 1
895 111 1
895 214 1
895 371 1
895 543 1
895 1618 1
895 1884 1
895 2236 1
896 25 1
896 65 1
896 217 1
896 607 1
896 2212 1
896 2227 1
897 50 1
897 56 1
897 765 1
897 885 1
897 1061 1
897 1222 1
897 1283 1
897 1606 1
898 5 1
898 154 1
898 359 1
898 565 1
898 1849 1
899 201 1
899 203 1
899 314 1
899 446 1
899 1067 1
899 1682 1
899 1792 1
899 2313 1
900 15 1
900 132 1
900 216 1
900 702 1
900 924 1
900 1603 1
900 2347 1
900 2505 1
901 23 1
901 80 1
901 507 1
901 659 1
901 964 1
901 1783 1
901 2150 1
901 2974 1
902 49 1
902 76 1
902 116 1
902 317 1
902 1403 1
902 1457 1
902 2546 1
903 2 1
903 9 1
903 210 1
903 761 1
903 1625 1
903 1659 1
903 1930 1
904 17 1
904 490 1
904 744 1
904 792 1
904 1323 1
905 128 1
905 145 1
905 156 1
905 872 1
905 2350 1
906 8 1
906 9 1
906 73 1
906 289 1
906 1162 1
906 1729 1
906 2098 1
907 1 1
907 230 1
907 382 1
907 553 1
907 1116 1
907 1442 1
907 2842 1
908 152 1
908 369 1
908 538 1
908 728 1
908 968 1
908 1561 1
908 2937 1
909 45 1
909 60 1
909 79 1
909 129 1
909 915 1
909 1079 1
909 1193 1
909 1248 1
909 2048 1
909 2177 1
909 2316 1
909 2572 1
909 2774 1
910 65 1
910 67 1
910 258 1
910 323 1
910 1361 1
910 1875 1
911 135 1
911 137 1
911 341 1
911 385 1
911 2506 1
911 2654 1
912 4 1
912 50 1
912 230 1
912 594 1
912 1660 1
912 1938 1
912 2882 1
913 40 1
913 160 1
913 290 1
913 337 1
913 1216 1
913 1822 1
913 1939 1
913 2264 1
913 2474 1
913 2749 1
914 179 1
914 189 1
914 567 1
914 623 1
914 1637 1
914 1744 1
914 2458 1
914 2672 1
915 26 1
915 38 1
915 657 1
915 909 1
915 2100 1
915 2183 1
915 2555 1
915 2677 1
916 70 1
916 269 1
916 283 1
916 373 1
916 1823 1
917 334 1
917 439 1
917 563 1
917 623 1
917 1157 1
917 1252 1
917 2000 1
917 2624 1
917 2842 1
918 247 1
918 346 1
918 449 1
918 681 1
918 1686 1
918 2276 1
918 2630 1
919 6 1
919 124 1
919 160 1
919 519 1
919 931 1
919 1092 1
919 1820 1
919 1915 1
919 2792 1
920 82 1
920 246 1
920 249 1
920 673 1
920 2310 1
920 2479 1
921 79 1
921 143 1
921 162 1
921 443 1
921 1203 1
921 1960 1
921 2120 1
922 291 1
922 400 1
922 610 1
922 805 1
922 1036 1
922 1399 1
922 2511 1
922 2635 1
922 2933 1
923 6 1
923 142 1
923 158 1
923 195 1
923 963 1
924 16 1
924 50 1
924 61 1
924 900 1
924 1777 1
925 149 1
925 311 1
925 364 1
925 436 1
925 1404 1
925 1614 1
925 1753 1
925 2521 1
926 58 1
926 150 1
926 206 1
926 411 1
926 948 1
926 986 1
926 1214 1
926 1268 1
926 1336 1
926 1538 1
926 1668 1
926 1765 1
926 1779 1
926 1881 1
926 2065 1
926 2169 1
926 2695 1
927 212 1
927 214 1
927 261 1
927 264 1
927 2986 1
928 29 1
928 79 1
928 237 1
928 460 1
929 21 1
929 33 1
929 51 1
929 482 1
929 1390 1
929 1642 1
929 1656 1
929 2623 1
930 212 1
930 490 1
930 715 1
930 774 1
930 1881 1
931 117 1
931 784 1
931 790 1
931 919 1
931 2113 1
931 2207 1
931 2455 1
932 34 1
932 35 1
932 43 1
932 262 1
932 992 1
932 1026 1
932 2020 1
932 2819 1
933 142 1
933 169 1
933 175 1
933 328 1
933 2219 1
934 16 1
934 124 1
934 217 1
934 222 1
934 1288 1
934 1692 1
934 2923 1
935 45 1
935 226 1
935 282 1
935 339 1
935 986 1
935 1019 1
935 1093 1
935 1521 1
935 2054 1
935 2214 1
935 2609 1
935 2734 1
936 13 1
936 80 1
936 357 1
936 847 1
936 945 1
936 1787 1
936 1817 1
936 2304 1
936 2911 1
937 147 1
937 280 1
937 597 1
937 670 1
937 1360 1
937 2355 1
937 2455 1
937 2498 1
937 2702 1
938 41 1
938 607 1
938 655 1
938 853 1
938 980 1
938 1180 1
938 1505 1
938 2188 1
939 111 1
939 143 1
939 682 1
939 831 1
939 1698 1
939 2076 1
939 2832 1
940 2 1
940 214 1
940 434 1
940 831 1
940 1124 1
941 37 1
941 43 1
941 115 1
941 222 1
941 951 1
941 959 1
941 1494 1
941 2277 1
941 2487 1
942 203 1
942 448 1
942 675 1
942 881 1
942 1031 1
942 1069 1
942 1093 1
942 1756 1
942 1864 1
942 2696 1
943 20 1
943 234 1
943 286 1
943 755 1
943 1283 1
943 2502 1
944 78 1
944 87 1
944 104 1
944 311 1
944 1264 1
944 1913 1
944 2050 1
945 73 1
945 76 1
945 640 1
945 936 1
945 975 1
945 1383 1
945 1480 1
945 1598 1
945 1860 1
945 2816 1
946 19 1
946 60 1
946 132 1
946 401 1
946 1510 1
946 2021 1
946 2087 1
947 9 1
947 58 1
947 427 1
947 565 1
948 58 1
948 129 1
948 763 1
948 926 1
948 1583 1
948 2848 1
949 69 1
949 117 1
949 362 1
949 477 1
949 2589 1
950 3 1
950 9 1
950 23 1
950 118 1
950 1088 1
951 5 1
951 45 1
951 438 1
951 941 1
951 1181 1
951 1468 1
951 1726 1
951 1940 1
951 2423 1
952 12 1
952 20 1
952 128 1
952 538 1
953 15 1
953 60 1
953 589 1
953 644 1
954 10 1
954 45 1
954 137 1
954 546 1
954 997 1
954 2720 1
955 325 1
955 355 1
955 680 1
955 888 1
955 1212 1
955 1225 1
955 1227 1
955 1291 1
955 1351 1
955 1666 1
955 2075 1
955 2111 1
956 9 1
956 242 1
956 567 1
956 574 1
956 1066 1
956 1472 1
956 1974 1
957 157 1
957 351 1
957 675 1
957 781 1
957 1395 1
958 2 1
958 198 1
958 227 1
958 283 1
958 1041 1
958 2954 1
959 13 1
959 242 1
959 244 1
959 941 1
960 203 1
960 777 1
960 822 1
960 824 1
960 986 1
960 1100 1
960 1380 1
960 1513 1
960 1653 1
961 88 1
961 102 1
961 241 1
961 266 1
961 1203 1
961 1445 1
961 2858 1
961 2928 1
962 21 1
962 153 1
962 175 1
962 250 1
962 1519 1
962 2485 1
963 128 1
963 556 1
963 571 1
963 923 1
963 1096 1
963 1200 1
963 1507 1
963 1663 1
963 1709 1
963 2599 1
963 2603 1
964 364 1
964 842 1
964 884 1
964 901 1
964 1255 1
964 2077 1
965 25 1
965 77 1
965 79 1
965 320 1
965 1772 1
965 2283 1
966 5 1
966 333 1
966 451 1
966 525 1
966 1470 1
966 1731 1
966 2094 1
966 2410 1
966 2844 1
967 56 1
967 199 1
967 457 1
967 526 1
967 1561 1
967 1609 1
967 1668 1
967 1725 1
967 2876 1
967 2948 1
968 10 1
968 117 1
968 305 1
968 908 1
968 1325 1
968 2414 1
969 48 1
969 118 1
969 270 1
969 336 1
969 2709 1
969 2800 1
970 1 1
970 181 1
970 455 1
970 813 1
970 1057 1
970 1071 1
970 1316 1
970 1985 1
970 2484 1
970 2663 1
970 2804 1
970 2883 1
971 19 1
971 197 1
971 449 1
971 728 1
971 1251 1
972 8 1
972 579 1
972 613 1
972 653 1
972 1031 1
972 1310 1
972 1543 1
972 1856 1
972 2037 1
972 2529 1
972 2788 1
973 6 1
973 13 1
973 280 1
973 821 1
973 1230 1
974 25 1
974 207 1
974 236 1
974 721 1
974 1076 1
974 1349 1
974 2195 1
974 2367 1
974 2978 1
975 6 1
975 69 1
975 248 1
975 945 1
975 1019 1
976 79 1
976 465 1
976 508 1
976 775 1
976 2052 1
977 1 1
977 60 1
977 128 1
977 776 1
978 38 1
978 50 1
978 77 1
978 192 1
978 993 1
978 1464 1
979 9 1
979 147 1
979 320 1
979 588 1
979 989 1
979 1280 1
979 1357 1
979 1677 1
979 1716 1
979 2318 1
979 2514 1
980 198 1
980 315 1
980 550 1
980 938 1
980 1193 1
980 1422 1
980 2310 1
980 2797 1
980 2891 1
981 3 1
981 49 1
981 136 1
981 182 1
981 2242 1
981 2731 1
981 2797 1
982 24 1
982 157 1
982 159 1
982 240 1
983 15 1
983 79 1
983 232 1
983 325 1
983 997 1
983 2073 1
983 2093 1
984 238 1
984 247 1
984 835 1
984 867 1
984 1646 1
984 1671 1
984 1886 1
985 9 1
985 60 1
985 287 1
985 689 1
985 2036 1
985 2239 1
985 2346 1
986 6 1
986 926 1
986 935 1
986 960 1
986 1718 1
986 1739 1
986 1741 1
986 1852 1
986 2719 1
987 5 1
987 66 1
987 172 1
987 281 1
988 199 1
988 213 1
988 661 1
988 867 1
988 2304 1
988 2645 1
989 130 1
989 195 1
989 275 1
989 979 1
989 1210 1
989 2223 1
989 2263 1
989 2265 1
989 2556 1
989 2904 1
990 26 1
990 94 1
990 159 1
990 339 1
990 1020 1
990 1099 1
990 1873 1
991 222 1
991 252 1
991 301 1
991 533 1
991 1555 1
991 2042 1
991 2093 1
992 1 1
992 288 1
992 636 1
992 932 1
992 1404 1
992 1557 1
992 1573 1
993 201 1
993 472 1
993 669 1
993 978 1
994 8 1
994 91 1
994 247 1
994 562 1
994 1363 1
994 2452 1
994 2503 1
995 40 1
995 73 1
995 125 1
995 205 1
995 1215 1
995 1297 1
995 1751 1
995 1788 1
995 2764 1
996 6 1
996 7 1
996 298 1
996 853 1
996 1036 1
996 1691 1
996 1915 1
996 2241 1
996 2636 1
997 83 1
997 194 1
997 954 1
997 983 1
997 1123 1
997 1476 1
997 1621 1
997 2795 1
998 19 1
998 78 1
998 102 1
998 462 1
998 1281 1
998 1977 1
998 2887 1
999 247 1
999 252 1
999 670 1
999 763 1
999 1676 1
999 2784 1
1000 93 1
1000 245 1
1000 652 1
1000 809 1
1000 2727 1
1001 67 1
1001 299 1
1001 350 1
1001 567 1
1001 1392 1
1001 1446 1
1001 2590 1
1001 2617 1
1001 2755 1
1001 2892 1
1002 9 1
1002 21 1
1002 474 1
1002 872 1
1002 1450 1
1002 1725 1
1002 1825 1
1003 10 1
1003 56 1
1003 475 1
1003 690 1
1003 1209 1
1003 1675 1
1003 2535 1
1003 2686 1
1004 8 1
1004 9 1
1004 234 1
1004 691 1
1005 125 1
1005 203 1
1005 449 1
1005 870 1
1005 1495 1
1006 31 1
1006 52 1
1006 58 1
1006 614 1
1006 1025 1
1006 1251 1
1006 1849 1
1006 1980 1
1007 13 1
1007 80 1
1007 96 1
1007 733 1
1008 2 1
1008 149 1
1008 235 1
1008 399 1
1008 2302 1
1009 72 1
1009 145 1
1009 240 1
1009 327 1
1009 1108 1
1009 1177 1
1010 5 1
1010 147 1
1010 198 1
1010 625 1
1010 1764 1
1010 2101 1
1010 2124 1
1010 2789 1
1011 19 1
1011 177 1
1011 575 1
1011 815 1
1011 1606 1
1011 2452 1
1012 182 1
1012 287 1
1012 650 1
1012 709 1
1012 1047 1
1012 1522 1
1012 1723 1
1012 1773 1
1012 2821 1
1013 16 1
1013 203 1
1013 753 1
1013 822 1
1013 1904 1
1014 13 1
1014 140 1
1014 502 1
1014 595 1
1015 28 1
1015 236 1
1015 325 1
1015 443 1
1016 46 1
1016 74 1
1016 220 1
1016 870 1
1016 1087 1
1016 1207 1
1016 1920 1
1016 2629 1
1017 294 1
1017 523 1
1017 584 1
1017 771 1
1017 2678 1
1018 62 1
1018 93 1
1018 193 1
1018 545 1
1018 1106 1
1019 5 1
1019 7 1
1019 935 1
1019 975 1
1019 1096 1
1019 2077 1
1020 4 1
1020 125 1
1020 834 1
1020 990 1
1020 1764 1
1020 1941 1
1021 2 1
1021 328 1
1021 524 1
1021 562 1
1021 2053 1
1021 2330 1
1021 2551 1
1022 1 1
1022 3 1
1022 14 1
1022 365 1
1022 1306 1
1022 1450 1
1022 1699 1
1022 1794 1
1022 2208 1
1022 2356 1
1023 35 1
1023 76 1
1023 79 1
1023 796 1
1023 2043 1
1023 2315 1
1024 13 1
1024 27 1
1024 321 1
1024 728 1
1024 1176 1
1024 1444 1
1024 1468 1
1025 242 1
1025 325 1
1025 425 1
1025 1006 1
1025 1135 1
1025 1322 1
1025 1507 1
1025 2992 1
1026 158 1
1026 336 1
1026 704 1
1026 932 1
1027 69 1
1027 84 1
1027 258 1
1027 647 1
1027 1265 1
1027 1427 1
1027 1582 1
1027 2065 1
1027 2325 1
1027 2608 1
1028 68 1
1028 114 1
1028 206 1
1028 568 1
1028 1163 1
1028 1202 1
1028 1495 1
1028 1807 1
1028 1863 1
1028 2824 1
1029 12 1
1029 70 1
1029 108 1
1029 454 1
1030 48 1
1030 53 1
1030 259 1
1030 410 1
1030 1292 1
1030 1321 1
1030 1942 1
1031 332 1
1031 712 1
1031 942 1
1031 972 1
1031 1275 1
1031 1487 1
1031 1965 1
1031 2284 1
1031 2675 1
1031 2905 1
1032 233 1
1032 453 1
1032 497 1
1032 705 1
1032 2920 1
1033 162 1
1033 179 1
1033 539 1
1033 764 1
1034 1 1
1034 320 1
1034 529 1
1034 638 1
1035 9 1
1035 55 1
1035 117 1
1035 549 1
1035 1589 1
1035 1591 1
1035 1888 1
1035 2672 1
1036 14 1
1036 420 1
1036 922 1
1036 996 1
1037 1 1
1037 266 1
1037 279 1
1037 784 1
1037 1091 1
1038 79 1
1038 100 1
1038 179 1
1038 493 1
1038 1804 1
1038 2375 1
1038 2523 1
1038 2553 1
1038 2698 1
1039 140 1
1039 398 1
1039 406 1
1039 441 1
1039 1732 1
1040 7 1
1040 146 1
1040 354 1
1040 579 1
1041 139 1
1041 460 1
1041 502 1
1041 958 1
1041 1621 1
1041 1870 1
1041 2285 1
1041 2396 1
1041 2600 1
1041 2617 1
1041 2685 1
1042 1 1
1042 5 1
1042 357 1
1042 428 1
1042 1770 1
1042 1857 1
1042 2068 1
1043 132 1
1043 328 1
1043 603 1
1043 774 1
1043 1230 1
1043 1538 1
1043 1665 1
1043 2443 1
1044 23 1
1044 77 1
1044 163 1
1044 886 1
1044 1134 1
1044 1343 1
1044 2996 1
1045 29 1
1045 169 1
1045 330 1
1045 447 1
1045 1105 1
1045 1674 1
1045 1728 1
1045 2193 1
1045 2385 1
1045 2824 1
1046 75 1
1046 80 1
1046 594 1
1046 774 1
1046 1729 1
1046 1767 1
1047 5 1
1047 32 1
1047 417 1
1047 1012 1
1047 1121 1
1047 1341 1
1047 1513 1
1047 1642 1
1047 1928 1
1047 2414 1
1047 2420 1
1047 2507 1
1048 6 1
1048 153 1
1048 451 1
1048 826 1
1049 51 1
1049 52 1
1049 506 1
1049 619 1
1049 1125 1
1049 1849 1
1049 2362 1
1050 1 1
1050 60 1
1050 326 1
1050 729 1
1050 2120 1
1051 12 1
1051 14 1
1051 25 1
1051 138 1
1051 2339 1
1052 32 1
1052 45 1
1052 464 1
1052 472 1
1053 6 1
1053 58 1
1053 100 1
1053 323 1
1054 31 1
1054 160 1
1054 205 1
1054 497 1
1054 1062 1
1055 4 1
1055 229 1
1055 426 1
1055 728 1
1055 2683 1
1056 27 1
1056 242 1
1056 264 1
1056 809 1
1056 1093 1
1056 1345 1
1056 1894 1
1056 2106 1
1056 2560 1
1056 2663 1
1057 8 1
1057 53 1
1057 121 1
1057 970 1
1057 1474 1
1057 2201 1
1058 76 1
1058 105 1
1058 262 1
1058 748 1
1058 2666 1
1059 141 1
1059 227 1
1059 259 1
1059 692 1
1059 1101 1
1059 1382 1
1059 1631 1
1059 1722 1
1059 2481 1
1060 64 1
1060 101 1
1060 114 1
1060 439 1
1060 1348 1
1061 10 1
1061 212 1
1061 612 1
1061 897 1
1061 1295 1
1062 108 1
1062 132 1
1062 652 1
1062 1054 1
1062 1344 1
1062 2649 1
1063 17 1
1063 51 1
1063 269 1
1063 519 1
1063 1438 1
1063 2257 1
1063 2891 1
1064 5 1
1064 34 1
1064 114 1
1064 705 1
1065 93 1
1065 103 1
1065 161 1
1065 365 1
1065 1184 1
1065 1187 1
1065 1777 1
1065 2492 1
1066 80 1
1066 166 1
1066 451 1
1066 956 1
1066 1286 1
1066 1717 1
1066 1768 1
1066 2481 1
1067 2 1
1067 32 1
1067 53 1
1067 899 1
1067 1707 1
1067 2061 1
1068 255 1
1068 262 1
1068 401 1
1068 485 1
1068 1154 1
1068 1164 1
1068 1963 1
1068 2363 1
1068 2578 1
1068 2942 1
1069 1 1
1069 8 1
1069 317 1
1069 942 1
1069 1951 1
1069 2323 1
1069 2939 1
1070 43 1
1070 104 1
1070 614 1
1070 883 1
1070 1652 1
1070 2268 1
1070 2404 1
1071 216 1
1071 301 1
1071 788 1
1071 970 1
1072 447 1
1072 540 1
1072 543 1
1072 594 1
1072 2817 1
1073 43 1
1073 45 1
1073 70 1
1073 86 1
1074 269 1
1074 348 1
1074 547 1
1074 626 1
1074 1301 1
1074 1516 1
1074 2644 1
1075 53 1
1075 162 1
1075 283 1
1075 338 1
1075 2646 1
1075 2966 1
1076 3 1
1076 772 1
1076 849 1
1076 974 1
1076 1192 1
1076 1556 1
1076 2656 1
1077 4 1
1077 12 1
1077 351 1
1077 781 1
1077 2998 1
1078 153 1
1078 210 1
1078 238 1
1078 551 1
1078 2714 1
1079 8 1
1079 248 1
1079 404 1
1079 909 1
1079 2623 1
1080 22 1
1080 50 1
1080 173 1
1080 371 1
1080 1438 1
1080 1453 1
1080 2090 1
1080 2246 1
1080 2383 1
1080 2804 1
1080 2839 1
1081 56 1
1081 62 1
1081 197 1
1081 320 1
1081 1682 1
1081 2279 1
1081 2388 1
1082 302 1
1082 346 1
1082 704 1
1082 885 1
1083 7 1
1083 225 1
1083 289 1
1083 439 1
1083 1564 1
1084 21 1
1084 62 1
1084 577 1
1084 750 1
1084 1416 1
1084 1586 1
1084 2243 1
1084 2496 1
1085 64 1
1085 454 1
1085 735 1
1085 765 1
1085 1475 1
1085 1808 1
1085 2833 1
1086 1 1
1086 626 1
1086 666 1
1086 760 1
1086 1984 1
1086 2437 1
1087 76 1
1087 299 1
1087 332 1
1087 1016 1
1087 2101 1
1087 2274 1
1087 2544 1
1088 85 1
1088 203 1
1088 268 1
1088 950 1
1088 1532 1
1088 2836 1
1089 21 1
1089 63 1
1089 140 1
1089 339 1
1089 1217 1
1089 1337 1
1089 1614 1
1089 2335 1
1089 2975 1
1090 41 1
1090 134 1
1090 490 1
1090 536 1
1090 1152 1
1090 2343 1
1091 34 1
1091 132 1
1091 866 1
1091 1037 1
1091 1614 1
1091 1679 1
1091 2705 1
1092 181 1
1092 299 1
1092 558 1
1092 919 1
1092 2175 1
1092 2826 1
1093 16 1
1093 935 1
1093 942 1
1093 1056 1
1093 1597 1
1093 1857 1
1094 23 1
1094 285 1
1094 828 1
1094 891 1
1094 1190 1
1094 2082 1
1094 2250 1
1095 77 1
1095 180 1
1095 201 1
1095 269 1
1096 1 1
1096 619 1
1096 963 1
1096 1019 1
1096 2180 1
1097 108 1
1097 258 1
1097 731 1
1097 834 1
1097 2391 1
1098 7 1
1098 33 1
1098 443 1
1098 444 1
1098 1461 1
1098 2172 1
1098 2210 1
1099 75 1
1099 76 1
1099 451 1
1099 990 1
1099 1189 1
1099 1459 1
1100 251 1
1100 420 1
1100 614 1
1100 960 1
1100 1616 1
1100 2661 1
1101 389 1
1101 628 1
1101 694 1
1101 1059 1
1101 1893 1
1101 2424 1
1101 2905 1
1102 547 1
1102 620 1
1102 682 1
1102 778 1
1102 2895 1
1103 128 1
1103 291 1
1103 621 1
1103 740 1
1103 1107 1
1103 1192 1
1104 8 1
1104 235 1
1104 761 1
1104 802 1
1105 12 1
1105 55 1
1105 768 1
1105 1045 1
1105 1528 1
1105 1877 1
1105 1878 1
1105 2515 1
1106 170 1
1106 371 1
1106 379 1
1106 1018 1
1107 1 1
1107 89 1
1107 719 1
1107 1103 1
1107 1636 1
1107 1672 1
1108 47 1
1108 699 1
1108 789 1
1108 1009 1
1108 1537 1
1108 2476 1
1108 2800 1
1109 222 1
1109 254 1
1109 385 1
1109 466 1
1109 1512 1
1109 1523 1
1110 117 1
1110 266 1
1110 269 1
1110 397 1
1110 1294 1
1111 15 1
1111 227 1
1111 560 1
1111 643 1
1111 1178 1
1111 2057 1
1111 2218 1
1111 2852 1
1112 8 1
1112 11 1
1112 347 1
1112 407 1
1112 1224 1
1113 77 1
1113 327 1
1113 401 1
1113 543 1
1113 2942 1
1114 20 1
1114 45 1
1114 814 1
1114 853 1
1114 1178 1
1114 2549 1
1115 14 1
1115 20 1
1115 427 1
1115 506 1
1115 1311 1
1115 1466 1
1115 1581 1
1115 2184 1
1116 31 1
1116 254 1
1116 717 1
1116 907 1
1116 1499 1
1116 2041 1
1116 2095 1
1116 2568 1
1117 59 1
1117 84 1
1117 289 1
1117 507 1
1117 1473 1
1118 13 1
1118 159 1
1118 238 1
1118 563 1
1118 1732 1
1118 2903 1
1119 225 1
1119 606 1
1119 619 1
1119 696 1
1120 18 1
1120 439 1
1120 441 1
1120 462 1
1121 244 1
1121 781 1
1121 820 1
1121 1047 1
1122 50 1
1122 59 1
1122 786 1
1122 827 1
1122 1270 1
1122 2411 1
1123 29 1
1123 316 1
1123 397 1
1123 997 1
1123 2240 1
1123 2493 1
1123 2853 1
1124 34 1
1124 467 1
1124 818 1
1124 940 1
1124 1934 1
1124 2217 1
1124 2406 1
1125 227 1
1125 680 1
1125 786 1
1125 1049 1
1126 10 1
1126 157 1
1126 495 1
1126 746 1
1126 1335 1
1126 1484 1
1126 2326 1
1127 79 1
1127 160 1
1127 527 1
1127 549 1
1127 2459 1
1128 368 1
1128 488 1
1128 499 1
1128 507 1
1128 1214 1
1128 1629 1
1128 2900 1
1129 9 1
1129 31 1
1129 198 1
1129 356 1
1129 1158 1
1129 1661 1
1130 86 1
1130 302 1
1130 473 1
1130 492 1
1131 92 1
1131 129 1
1131 227 1
1131 273 1
1131 1260 1
1131 1545 1
1131 1875 1
1131 2281 1
1132 254 1
1132 390 1
1132 652 1
1132 728 1
1132 2534 1
1132 2707 1
1133 1 1
1133 194 1
1133 454 1
1133 627 1
1133 1598 1
1134 3 1
1134 726 1
1134 829 1
1134 1044 1
1134 1218 1
1134 1623 1
1134 1960 1
1134 2128 1
1134 2366 1
1135 25 1
1135 136 1
1135 685 1
1135 1025 1
1135 1882 1
1135 2135 1
1135 2488 1
1135 2624 1
1136 10 1
1136 46 1
1136 73 1
1136 756 1
1136 1466 1
1137 9 1
1137 74 1
1137 241 1
1137 778 1
1137 1316 1
1137 1342 1
1137 2491 1
1138 60 1
1138 108 1
1138 348 1
1138 631 1
1139 29 1
1139 132 1
1139 589 1
1139 769 1
1139 1522 1
1139 2194 1
1139 2276 1
1139 2391 1
1140 26 1
1140 77 1
1140 328 1
1140 399 1
1141 108 1
1141 140 1
1141 233 1
1141 769 1
1141 1277 1
1141 2794 1
1142 28 1
1142 212 1
1142 216 1
1142 344 1
1142 1306 1
1142 1713 1
1142 1743 1
1142 2066 1
1142 2210 1
1142 2285 1
1143 38 1
1143 75 1
1143 88 1
1143 364 1
1143 2930 1
1144 100 1
1144 140 1
1144 598 1
1144 701 1
1144 1935 1
1145 6 1
1145 334 1
1145 815 1
1145 818 1
1145 1615 1
1145 1795 1
1145 2097 1
1145 2163 1
1146 16 1
1146 203 1
1146 538 1
1146 863 1
1146 2109 1
1147 47 1
1147 75 1
1147 162 1
1147 179 1
1148 56 1
1148 143 1
1148 184 1
1148 388 1
1148 1351 1
1148 1647 1
1148 1931 1
1148 2379 1
1149 6 1
1149 186 1
1149 365 1
1149 651 1
1149 1197 1
1149 1650 1
1150 34 1
1150 131 1
1150 428 1
1150 682 1
1150 1708 1
1151 41 1
1151 217 1
1151 273 1
1151 427 1
1152 10 1
1152 457 1
1152 558 1
1152 1090 1
1152 1854 1
1152 2195 1
1152 2310 1
1152 2377 1
1152 2641 1
1153 21 1
1153 25 1
1153 199 1
1153 394 1
1153 1630 1
1153 1637 1
1153 2267 1
1153 2397 1
1153 2542 1
1154 81 1
1154 384 1
1154 402 1
1154 1068 1
1154 2811 1
1154 2834 1
1155 67 1
1155 86 1
1155 101 1
1155 373 1
1155 1344 1
1155 1345 1
1156 37 1
1156 345 1
1156 630 1
1156 751 1
1156 1706 1
1156 2067 1
1156 2300 1
1156 2847 1
1157 73 1
1157 246 1
1157 253 1
1157 917 1
1157 1174 1
1157 1228 1
1157 1331 1
1157 1394 1
1157 1496 1
1157 1527 1
1157 1790 1
1157 2047 1
1157 2156 1
1157 2232 1
1157 2342 1
1157 2585 1
1157 2709 1
1158 9 1
1158 42 1
1158 743 1
1158 1129 1
1159 286 1
1159 408 1
1159 524 1
1159 539 1
1159 1613 1
1159 1715 1
1160 6 1
1160 76 1
1160 650 1
1160 661 1
1160 1227 1
1160 1858 1
1161 6 1
1161 197 1
1161 245 1
1161 729 1
1161 1970 1
1161 2081 1
1161 2610 1
1162 18 1
1162 210 1
1162 285 1
1162 906 1
1163 343 1
1163 388 1
1163 495 1
1163 1028 1
1163 1500 1
1163 1992 1
1163 2212 1
1163 2449 1
1163 2899 1
1164 7 1
1164 284 1
1164 763 1
1164 1068 1
1164 1740 1
1165 4 1
1165 69 1
1165 271 1
1165 431 1
1166 140 1
1166 435 1
1166 568 1
1166 853 1
1167 132 1
1167 162 1
1167 401 1
1167 637 1
1167 1476 1
1167 1533 1
1167 2161 1
1168 53 1
1168 333 1
1168 427 1
1168 629 1
1168 1775 1
1169 1 1
1169 2 1
1169 23 1
1169 463 1
1170 79 1
1170 210 1
1170 617 1
1170 693 1
1171 23 1
1171 73 1
1171 76 1
1171 515 1
1171 1216 1
1171 1529 1
1171 1869 1
1171 2230 1
1171 2314 1
1171 2985 1
1172 50 1
1172 209 1
1172 369 1
1172 772 1
1173 50 1
1173 75 1
1173 187 1
1173 215 1
1173 1377 1
1173 2382 1
1174 5 1
1174 7 1
1174 282 1
1174 1157 1
1174 1568 1
1174 2629 1
1175 125 1
1175 128 1
1175 427 1
1175 839 1
1175 1220 1
1175 1698 1
1176 44 1
1176 467 1
1176 690 1
1176 1024 1
1176 2264 1
1176 2584 1
1176 2840 1
1177 401 1
1177 479 1
1177 888 1
1177 1009 1
1177 1448 1
1178 147 1
1178 159 1
1178 1111 1
1178 1114 1
1178 2143 1
1179 5 1
1179 56 1
1179 276 1
1179 872 1
1179 2018 1
1179 2170 1
1180 47 1
1180 268 1
1180 870 1
1180 938 1
1180 1268 1
1180 1271 1
1180 1314 1
1180 1352 1
1180 1494 1
1180 1890 1
1180 2044 1
1180 2127 1
1180 2306 1
1180 2671 1
1181 6 1
1181 642 1
1181 720 1
1181 951 1
1182 131 1
1182 169 1
1182 282 1
1182 889 1
1182 1901 1
1182 2046 1
1182 2066 1
1182 2091 1
1183 117 1
1183 135 1
1183 497 1
1183 630 1
1183 1321 1
1183 1409 1
1183 1666 1
1183 2753 1
1184 203 1
1184 328 1
1184 470 1
1184 1065 1
1184 1733 1
1184 2457 1
1184 2853 1
1185 93 1
1185 352 1
1185 398 1
1185 621 1
1185 1907 1
1186 5 1
1186 158 1
1186 261 1
1186 383 1
1186 1992 1
1186 2959 1
1187 106 1
1187 351 1
1187 561 1
1187 1065 1
1187 1314 1
1188 5 1
1188 25 1
1188 329 1
1188 345 1
1189 443 1
1189 554 1
1189 595 1
1189 1099 1
1189 1612 1
1189 1719 1
1189 2720 1
1190 34 1
1190 83 1
1190 307 1
1190 1094 1
1190 1366 1
1191 13 1
1191 69 1
1191 116 1
1191 222 1
1191 1541 1
1191 1724 1
1191 1855 1
1191 2483 1
1192 307 1
1192 637 1
1192 1076 1
1192 1103 1
1192 1609 1
1192 1933 1
1192 2295 1
1193 73 1
1193 185 1
1193 909 1
1193 980 1
1193 1237 1
1193 2826 1
1194 10 1
1194 86 1
1194 242 1
1194 772 1
1194 2462 1
1194 2602 1
1194 2630 1
1194 2717 1
1194 2990 1
1195 25 1
1195 120 1
1195 683 1
1195 815 1
1195 1201 1
1195 1239 1
1195 1530 1
1195 1571 1
1195 1580 1
1195 1628 1
1195 1723 1
1195 1983 1
1195 2026 1
1195 2571 1
1195 2791 1
1195 2859 1
1195 2878 1
1195 2956 1
1195 2982 1
1196 117 1
1196 130 1
1196 561 1
1196 567 1
1197 60 1
1197 453 1
1197 803 1
1197 1149 1
1197 1347 1
1197 2004 1
1198 113 1
1198 359 1
1198 372 1
1198 788 1
1198 2002 1
1198 2623 1
1199 56 1
1199 65 1
1199 139 1
1199 750 1
1200 1 1
1200 6 1
1200 50 1
1200 963 1
1201 173 1
1201 421 1
1201 490 1
1201 1195 1
1201 2640 1
1201 2923 1
1202 24 1
1202 27 1
1202 143 1
1202 1028 1
1202 2918 1
1203 611 1
1203 844 1
1203 921 1
1203 961 1
1203 1654 1
1203 1831 1
1204 25 1
1204 255 1
1204 515 1
1204 619 1
1204 1811 1
1205 6 1
1205 18 1
1205 227 1
1205 785 1
1206 1 1
1206 56 1
1206 101 1
1206 485 1
1206 2465 1
1206 2558 1
1206 2813 1
1207 567 1
1207 658 1
1207 823 1
1207 1016 1
1207 1334 1
1207 2354 1
1208 291 1
1208 450 1
1208 480 1
1208 652 1
1208 2299 1
1208 2994 1
1209 62 1
1209 145 1
1209 207 1
1209 1003 1
1209 1262 1
1209 2293 1
1209 2408 1
1210 79 1
1210 175 1
1210 325 1
1210 989 1
1210 1665 1
1211 23 1
1211 56 1
1211 168 1
1211 854 1
1212 64 1
1212 79 1
1212 847 1
1212 955 1
1212 2867 1
1213 15 1
1213 22 1
1213 56 1
1213 203 1
1213 1713 1
1213 2952 1
1214 76 1
1214 649 1
1214 926 1
1214 1128 1
1214 1307 1
1214 1599 1
1214 2151 1
1215 15 1
1215 189 1
1215 745 1
1215 995 1
1216 10 1
1216 215 1
1216 913 1
1216 1171 1
1216 1892 1
1216 1916 1
1217 45 1
1217 49 1
1217 58 1
1217 1089 1
1217 1326 1
1217 1918 1
1217 2716 1
1217 2950 1
1218 230 1
1218 315 1
1218 377 1
1218 1134 1
1218 1364 1
1218 1516 1
1218 1557 1
1218 2029 1
1219 43 1
1219 412 1
1219 441 1
1219 759 1
1219 2138 1
1219 2151 1
1220 20 1
1220 544 1
1220 790 1
1220 1175 1
1220 1706 1
1220 1944 1
1220 2169 1
1220 2574 1
1221 328 1
1221 662 1
1221 807 1
1221 880 1
1222 48 1
1222 97 1
1222 453 1
1222 897 1
1222 1274 1
1222 1700 1
1222 2356 1
1223 4 1
1223 63 1
1223 124 1
1223 711 1
1223 1624 1
1223 1879 1
1224 40 1
1224 398 1
1224 400 1
1224 1112 1
1224 2238 1
1224 2537 1
1225 269 1
1225 286 1
1225 478 1
1225 955 1
1225 1246 1
1225 2571 1
1225 2715 1
1226 305 1
1226 339 1
1226 460 1
1226 780 1
1226 1733 1
1227 283 1
1227 870 1
1227 955 1
1227 1160 1
1227 1560 1
1227 2278 1
1227 2622 1
1228 575 1
1228 649 1
1228 890 1
1228 1157 1
1228 1617 1
1228 2261 1
1228 2415 1
1229 22 1
1229 79 1
1229 203 1
1229 241 1
1229 1244 1
1229 1252 1
1229 1378 1
1229 1548 1
1229 2138 1
1229 2166 1
1229 2266 1
1229 2898 1
1230 25 1
1230 503 1
1230 973 1
1230 1043 1
1230 1415 1
1231 5 1
1231 23 1
1231 249 1
1231 473 1
1231 1583 1
1231 1687 1
1231 2570 1
1232 51 1
1232 59 1
1232 67 1
1232 247 1
1232 1287 1
1232 1472 1
1232 2382 1
1233 5 1
1233 393 1
1233 452 1
1233 771 1
1233 2610 1
1234 79 1
1234 418 1
1234 455 1
1234 883 1
1234 1994 1
1234 2259 1
1234 2340 1
1234 2740 1
1234 2807 1
1235 25 1
1235 60 1
1235 642 1
1235 724 1
1235 1695 1
1235 2769 1
1236 6 1
1236 56 1
1236 97 1
1236 473 1
1236 2898 1
1237 44 1
1237 146 1
1237 647 1
1237 1193 1
1237 1388 1
1237 2715 1
1238 50 1
1238 99 1
1238 158 1
1238 315 1
1238 2325 1
1238 2783 1
1239 58 1
1239 102 1
1239 108 1
1239 1195 1
1239 1299 1
1240 14 1
1240 22 1
1240 87 1
1240 220 1
1240 2939 1
1241 1 1
1241 38 1
1241 139 1
1241 158 1
1241 1340 1
1241 2383 1
1241 2816 1
1242 9 1
1242 38 1
1242 59 1
1242 749 1
1242 2629 1
1243 97 1
1243 198 1
1243 218 1
1243 617 1
1244 20 1
1244 464 1
1244 523 1
1244 1229 1
1244 1358 1
1244 2063 1
1244 2269 1
1244 2786 1
1245 17 1
1245 35 1
1245 137 1
1245 788 1
1245 1318 1
1245 2049 1
1246 49 1
1246 87 1
1246 444 1
1246 1225 1
1246 1448 1
1247 27 1
1247 80 1
1247 359 1
1247 497 1
1247 2435 1
1248 46 1
1248 214 1
1248 371 1
1248 909 1
1248 1287 1
1248 1373 1
1248 1896 1
1249 29 1
1249 50 1
1249 591 1
1249 661 1
1249 2886 1
1250 38 1
1250 267 1
1250 386 1
1250 480 1
1250 1381 1
1251 261 1
1251 760 1
1251 971 1
1251 1006 1
1251 1609 1
1251 1621 1
1251 2044 1
1251 2143 1
1251 2480 1
1252 390 1
1252 507 1
1252 917 1
1252 1229 1
1252 1475 1
1252 1532 1
1252 1780 1
1252 2504 1
1252 2908 1
1253 25 1
1253 125 1
1253 242 1
1253 656 1
1253 1622 1
1253 2082 1
1253 2123 1
1253 2649 1
1254 6 1
1254 22 1
1254 198 1
1254 296 1
1254 1273 1
1254 2321 1
1255 312 1
1255 423 1
1255 640 1
1255 964 1
1255 1540 1
1256 219 1
1256 264 1
1256 568 1
1256 771 1
1256 1368 1
1257 6 1
1257 70 1
1257 194 1
1257 631 1
1258 43 1
1258 95 1
1258 438 1
1258 646 1
1258 1629 1
1258 2070 1
1259 3 1
1259 43 1
1259 120 1
1259 258 1
1260 398 1
1260 710 1
1260 866 1
1260 1131 1
1261 77 1
1261 128 1
1261 391 1
1261 735 1
1261 1448 1
1262 478 1
1262 532 1
1262 735 1
1262 1209 1
1262 1360 1
1262 2245 1
1263 33 1
1263 215 1
1263 228 1
1263 607 1
1263 1522 1
1263 2158 1
1263 2357 1
1264 32 1
1264 250 1
1264 264 1
1264 944 1
1265 24 1
1265 25 1
1265 622 1
1265 1027 1
1265 1581 1
1265 1811 1
1265 1932 1
1266 142 1
1266 526 1
1266 718 1
1266 880 1
1266 1283 1
1266 1702 1
1266 2845 1
1267 114 1
1267 218 1
1267 236 1
1267 531 1
1267 1435 1
1267 1464 1
1267 1755 1
1267 2323 1
1267 2927 1
1268 8 1
1268 420 1
1268 926 1
1268 1180 1
1268 1275 1
1268 2544 1
1269 19 1
1269 124 1
1269 496 1
1269 528 1
1270 25 1
1270 774 1
1270 806 1
1270 1122 1
1271 52 1
1271 286 1
1271 673 1
1271 1180 1
1271 1537 1
1271 2454 1
1272 65 1
1272 77 1
1272 274 1
1272 353 1
1272 1313 1
1272 1413 1
1272 2489 1
1272 2940 1
1273 183 1
1273 310 1
1273 361 1
1273 1254 1
1273 1733 1
1274 239 1
1274 283 1
1274 677 1
1274 1222 1
1275 151 1
1275 807 1
1275 1031 1
1275 1268 1
1275 1870 1
1276 100 1
1276 248 1
1276 453 1
1276 854 1
1276 2543 1
1277 13 1
1277 21 1
1277 302 1
1277 1141 1
1277 2351 1
1277 2819 1
1278 132 1
1278 389 1
1278 494 1
1278 777 1
1278 1742 1
1279 56 1
1279 159 1
1279 187 1
1279 640 1
1279 2538 1
1280 10 1
1280 13 1
1280 48 1
1280 979 1
1280 1410 1
1281 132 1
1281 234 1
1281 298 1
1281 998 1
1281 1559 1
1281 1622 1
1281 2168 1
1281 2295 1
1281 2845 1
1281 2946 1
1282 43 1
1282 308 1
1282 386 1
1282 529 1
1282 1584 1
1282 1890 1
1282 1908 1
1282 2393 1
1283 852 1
1283 897 1
1283 943 1
1283 1266 1
1283 1372 1
1283 1482 1
1284 277 1
1284 414 1
1284 563 1
1284 785 1
1284 1655 1
1284 1786 1
1285 42 1
1285 276 1
1285 536 1
1285 751 1
1286 4 1
1286 17 1
1286 264 1
1286 1066 1
1286 1352 1
1286 1470 1
1286 2183 1
1286 2216 1
1286 2252 1
1286 2349 1
1286 2395 1
1287 206 1
1287 798 1
1287 1232 1
1287 1248 1
1288 27 1
1288 94 1
1288 104 1
1288 934 1
1288 2647 1
1288 2689 1
1289 79 1
1289 128 1
1289 515 1
1289 597 1
1289 1747 1
1289 2507 1
1290 19 1
1290 33 1
1290 57 1
1290 220 1
1290 1464 1
1291 6 1
1291 76 1
1291 137 1
1291 955 1
1291 2324 1
1292 8 1
1292 18 1
1292 297 1
1292 1030 1
1292 2403 1
1293 52 1
1293 304 1
1293 350 1
1293 657 1
1293 1965 1
1293 2263 1
1294 134 1
1294 248 1
1294 506 1
1294 1110 1
1294 1357 1
1294 2357 1
1294 2439 1
1295 173 1
1295 200 1
1295 774 1
1295 1061 1
1295 1655 1
1295 2550 1
1295 2589 1
1296 6 1
1296 33 1
1296 401 1
1296 464 1
1296 2211 1
1296 2640 1
1297 219 1
1297 443 1
1297 591 1
1297 995 1
1297 1471 1
1297 1823 1
1298 103 1
1298 134 1
1298 194 1
1298 665 1
1298 2008 1
1298 2146 1
1298 2332 1
1298 2928 1
1299 133 1
1299 242 1
1299 719 1
1299 1239 1
1300 153 1
1300 224 1
1300 763 1
1300 885 1
1301 21 1
1301 134 1
1301 275 1
1301 1074 1
1302 2 1
1302 286 1
1302 489 1
1302 653 1
1302 1983 1
1302 2322 1
1303 100 1
1303 210 1
1303 239 1
1303 588 1
1304 256 1
1304 359 1
1304 633 1
1304 677 1
1304 1328 1
1305 8 1
1305 283 1
1305 285 1
1305 607 1
1305 2740 1
1305 2865 1
1306 34 1
1306 797 1
1306 1022 1
1306 1142 1
1306 2983 1
1307 1 1
1307 242 1
1307 547 1
1307 1214 1
1307 1563 1
1307 1917 1
1308 5 1
1308 8 1
1308 306 1
1308 665 1
1308 2039 1
1308 2390 1
1308 2448 1
1309 28 1
1309 81 1
1309 103 1
1309 575 1
1310 51 1
1310 248 1
1310 710 1
1310 972 1
1310 2479 1
1311 507 1
1311 519 1
1311 774 1
1311 1115 1
1311 1381 1
1311 1435 1
1311 1586 1
1311 1854 1
1311 2161 1
1312 1 1
1312 6 1
1312 352 1
1312 403 1
1312 1543 1
1312 1928 1
1313 24 1
1313 103 1
1313 239 1
1313 1272 1
1314 28 1
1314 225 1
1314 1180 1
1314 1187 1
1314 1730 1
1314 2041 1
1315 6 1
1315 269 1
1315 704 1
1315 712 1
1316 191 1
1316 853 1
1316 970 1
1316 1137 1
1316 1465 1
1316 1544 1
1316 1634 1
1317 13 1
1317 136 1
1317 169 1
1317 662 1
1317 1834 1
1317 2126 1
1317 2279 1
1317 2484 1
1317 2848 1
1318 105 1
1318 506 1
1318 794 1
1318 1245 1
1318 1945 1
1318 2130 1
1318 2226 1
1318 2320 1
1319 146 1
1319 236 1
1319 661 1
1319 865 1
1319 1991 1
1320 16 1
1320 18 1
1320 453 1
1320 802 1
1321 5 1
1321 539 1
1321 1030 1
1321 1183 1
1321 1597 1
1321 1887 1
1321 2142 1
1321 2308 1
1321 2660 1
1322 20 1
1322 51 1
1322 744 1
1322 1025 1
1322 1323 1
1322 1460 1
1322 2852 1
1323 18 1
1323 192 1
1323 904 1
1323 1322 1
1323 2234 1
1323 2478 1
1324 25 1
1324 169 1
1324 265 1
1324 520 1
1324 2202 1
1324 2728 1
1325 25 1
1325 151 1
1325 206 1
1325 968 1
1325 1371 1
1325 2706 1
1326 155 1
1326 172 1
1326 378 1
1326 1217 1
1326 2466 1
1327 50 1
1327 223 1
1327 653 1
1327 828 1
1327 2083 1
1328 118 1
1328 587 1
1328 601 1
1328 1304 1
1328 2148 1
1329 15 1
1329 378 1
1329 442 1
1329 875 1
1329 1982 1
1329 2402 1
1330 6 1
1330 46 1
1330 860 1
1330 862 1
1330 1626 1
1331 137 1
1331 139 1
1331 216 1
1331 1157 1
1331 1566 1
1331 2156 1
1331 2945 1
1332 80 1
1332 157 1
1332 771 1
1332 810 1
1332 2090 1
1332 2189 1
1333 82 1
1333 143 1
1333 421 1
1333 439 1
1333 1761 1
1333 2507 1
1334 6 1
1334 14 1
1334 484 1
1334 1207 1
1334 1335 1
1334 2164 1
1334 2929 1
1335 339 1
1335 428 1
1335 1126 1
1335 1334 1
1335 1988 1
1336 25 1
1336 52 1
1336 273 1
1336 926 1
1336 1726 1
1337 48 1
1337 136 1
1337 834 1
1337 1089 1
1337 1404 1
1338 1 1
1338 28 1
1338 269 1
1338 610 1
1338 1763 1
1338 2907 1
1339 12 1
1339 343 1
1339 376 1
1339 614 1
1339 2283 1
1339 2463 1
1339 2552 1
1340 386 1
1340 470 1
1340 709 1
1340 1241 1
1340 1761 1
1340 2426 1
1341 3 1
1341 285 1
1341 373 1
1341 1047 1
1341 1369 1
1341 2470 1
1342 1 1
1342 451 1
1342 823 1
1342 1137 1
1343 3 1
1343 145 1
1343 319 1
1343 1044 1
1343 1737 1
1344 60 1
1344 542 1
1344 1062 1
1344 1155 1
1345 712 1
1345 829 1
1345 1056 1
1345 1155 1
1345 1520 1
1346 363 1
1346 439 1
1346 447 1
1346 614 1
1346 1752 1
1347 78 1
1347 87 1
1347 629 1
1347 1197 1
1347 1566 1
1347 2635 1
1347 2955 1
1348 27 1
1348 257 1
1348 273 1
1348 1060 1
1348 1704 1
1348 1900 1
1348 2225 1
1348 2427 1
1349 62 1
1349 218 1
1349 757 1
1349 974 1
1349 1845 1
1349 2513 1
1350 40 1
1350 213 1
1350 745 1
1350 880 1
1350 2236 1
1351 392 1
1351 393 1
1351 955 1
1351 1148 1
1351 1385 1
1351 2055 1
1352 134 1
1352 399 1
1352 1180 1
1352 1286 1
1352 2126 1
1352 2868 1
1353 45 1
1353 143 1
1353 577 1
1353 823 1
1353 1701 1
1353 1950 1
1353 2398 1
1354 12 1
1354 58 1
1354 125 1
1354 411 1
1354 2712 1
1355 22 1
1355 32 1
1355 154 1
1355 768 1
1355 1429 1
1356 5 1
1356 19 1
1356 322 1
1356 582 1
1356 1739 1
1356 1906 1
1356 1960 1
1356 2764 1
1356 2810 1
1357 74 1
1357 816 1
1357 979 1
1357 1294 1
1357 1410 1
1357 2548 1
1358 13 1
1358 118 1
1358 352 1
1358 1244 1
1358 1754 1
1358 2869 1
1359 16 1
1359 199 1
1359 283 1
1359 410 1
1359 2303 1
1360 484 1
1360 819 1
1360 937 1
1360 1262 1
1360 2647 1
1361 16 1
1361 31 1
1361 431 1
1361 910 1
1361 1824 1
1361 1867 1
1361 2733 1
1362 10 1
1362 201 1
1362 265 1
1362 716 1
1363 3 1
1363 420 1
1363 472 1
1363 994 1
1363 1376 1
1363 2387 1
1364 184 1
1364 286 1
1364 713 1
1364 1218 1
1364 1683 1
1365 19 1
1365 347 1
1365 393 1
1365 647 1
1366 96 1
1366 240 1
1366 604 1
1366 1190 1
1366 2638 1
1367 6 1
1367 13 1
1367 79 1
1367 485 1
1367 1648 1
1367 1786 1
1367 2474 1
1368 3 1
1368 140 1
1368 868 1
1368 1256 1
1368 1627 1
1368 2338 1
1368 2352 1
1368 2594 1
1369 38 1
1369 704 1
1369 760 1
1369 1341 1
1369 1576 1
1370 11 1
1370 23 1
1370 67 1
1370 138 1
1370 1995 1
1370 2799 1
1370 2807 1
1371 142 1
1371 664 1
1371 699 1
1371 1325 1
1371 1489 1
1371 2595 1
1371 2742 1
1372 500 1
1372 606 1
1372 741 1
1372 1283 1
1372 1497 1
1372 1924 1
1372 2253 1
1372 2549 1
1372 2983 1
1373 7 1
1373 232 1
1373 242 1
1373 1248 1
1373 2837 1
1374 50 1
1374 65 1
1374 285 1
1374 323 1
1374 2018 1
1375 12 1
1375 13 1
1375 468 1
1375 563 1
1375 1640 1
1375 2712 1
1375 2922 1
1376 16 1
1376 179 1
1376 441 1
1376 1363 1
1376 2247 1
1377 350 1
1377 438 1
1377 558 1
1377 1173 1
1377 2419 1
1378 55 1
1378 140 1
1378 145 1
1378 1229 1
1378 1551 1
1379 313 1
1379 523 1
1379 531 1
1379 730 1
1379 1402 1
1379 2849 1
1380 100 1
1380 250 1
1380 561 1
1380 960 1
1380 1397 1
1380 1550 1
1380 1585 1
1380 1902 1
1380 2173 1
1381 234 1
1381 790 1
1381 1250 1
1381 1311 1
1381 1425 1
1381 2735 1
1382 9 1
1382 795 1
1382 807 1
1382 1059 1
1383 88 1
1383 117 1
1383 788 1
1383 945 1
1383 1744 1
1383 1828 1
1383 2620 1
1384 1 1
1384 107 1
1384 369 1
1384 618 1
1384 1988 1
1385 53 1
1385 75 1
1385 298 1
1385 1351 1
1385 1949 1
1385 2828 1
1386 6 1
1386 333 1
1386 453 1
1386 496 1
1386 2132 1
1386 2233 1
1386 2366 1
1386 2695 1
1386 2856 1
1387 72 1
1387 132 1
1387 177 1
1387 349 1
1387 1588 1
1387 1685 1
1387 1718 1
1387 1836 1
1387 2659 1
1388 52 1
1388 81 1
1388 272 1
1388 1237 1
1388 1876 1
1388 2001 1
1388 2219 1
1389 4 1
1389 69 1
1389 171 1
1389 230 1
1389 2233 1
1389 2269 1
1389 2536 1
1390 6 1
1390 206 1
1390 769 1
1390 929 1
1390 2478 1
1391 56 1
1391 285 1
1391 348 1
1391 366 1
1391 1403 1
1391 1990 1
1392 78 1
1392 95 1
1392 295 1
1392 1001 1
1392 1519 1
1392 2634 1
1393 125 1
1393 138 1
1393 262 1
1393 676 1
1394 337 1
1394 547 1
1394 554 1
1394 1157 1
1394 2672 1
1395 24 1
1395 150 1
1395 328 1
1395 957 1
1395 1787 1
1395 2121 1
1395 2342 1
1396 239 1
1396 451 1
1396 495 1
1396 707 1
1396 2002 1
1396 2177 1
1396 2426 1
1396 2707 1
1396 2967 1
1397 277 1
1397 625 1
1397 864 1
1397 1380 1
1397 1472 1
1398 4 1
1398 152 1
1398 364 1
1398 539 1
1398 1434 1
1398 1702 1
1398 1850 1
1398 1951 1
1398 2338 1
1399 563 1
1399 677 1
1399 852 1
1399 922 1
1399 1785 1
1400 90 1
1400 115 1
1400 320 1
1400 327 1
1401 24 1
1401 151 1
1401 560 1
1401 885 1
1401 1816 1
1402 22 1
1402 64 1
1402 376 1
1402 1379 1
1403 267 1
1403 289 1
1403 902 1
1403 1391 1
1403 1696 1
1403 1770 1
1403 2619 1
1403 2738 1
1403 2934 1
1404 840 1
1404 925 1
1404 992 1
1404 1337 1
1404 2017 1
1404 2756 1
1404 2976 1
1405 14 1
1405 15 1
1405 31 1
1405 283 1
1406 5 1
1406 13 1
1406 162 1
1406 434 1
1406 1727 1
1406 1737 1
1406 1750 1
1407 55 1
1407 70 1
1407 157 1
1407 607 1
1407 1743 1
1407 2511 1
1407 2765 1
1408 37 1
1408 45 1
1408 101 1
1408 105 1
1409 28 1
1409 66 1
1409 317 1
1409 1183 1
1409 2238 1
1409 2580 1
1410 654 1
1410 849 1
1410 1280 1
1410 1357 1
1410 2690 1
1411 21 1
1411 445 1
1411 472 1
1411 731 1
1411 1451 1
1411 1572 1
1411 1746 1
1411 1904 1
1411 2081 1
1411 2101 1
1411 2282 1
1411 2521 1
1412 1 1
1412 263 1
1412 393 1
1412 759 1
1412 2258 1
1412 2377 1
1412 2437 1
1412 2598 1
1412 2727 1
1413 51 1
1413 613 1
1413 621 1
1413 1272 1
1413 1555 1
1414 6 1
1414 61 1
1414 293 1
1414 876 1
1414 1703 1
1414 2621 1
1415 57 1
1415 68 1
1415 341 1
1415 1230 1
1415 1499 1
1415 1650 1
1416 138 1
1416 411 1
1416 770 1
1416 1084 1
1416 1735 1
1417 332 1
1417 618 1
1417 709 1
1417 726 1
1417 2237 1
1417 2245 1
1417 2458 1
1418 152 1
1418 158 1
1418 238 1
1418 430 1
1418 1910 1
1418 2511 1
1419 12 1
1419 460 1
1419 771 1
1419 878 1
1419 1437 1
1419 2454 1
1420 68 1
1420 89 1
1420 172 1
1420 682 1
1420 1463 1
1420 2351 1
1421 97 1
1421 227 1
1421 378 1
1421 744 1
1421 2593 1
1422 19 1
1422 81 1
1422 93 1
1422 980 1
1422 2711 1
1423 74 1
1423 128 1
1423 482 1
1423 770 1
1423 2175 1
1423 2669 1
1424 117 1
1424 225 1
1424 361 1
1424 725 1
1424 1508 1
1424 2692 1
1425 556 1
1425 804 1
1425 873 1
1425 1381 1
1425 2164 1
1426 6 1
1426 140 1
1426 629 1
1426 671 1
1426 2615 1
1426 2866 1
1427 24 1
1427 115 1
1427 298 1
1427 1027 1
1428 23 1
1428 73 1
1428 559 1
1428 620 1
1428 2966 1
1429 206 1
1429 219 1
1429 770 1
1429 1355 1
1429 2876 1
1430 6 1
1430 25 1
1430 97 1
1430 125 1
1430 1722 1
1431 60 1
1431 69 1
1431 174 1
1431 226 1
1431 2890 1
1432 7 1
1432 148 1
1432 343 1
1432 859 1
1432 1711 1
1432 2110 1
1432 2667 1
1432 2802 1
1433 39 1
1433 398 1
1433 419 1
1433 782 1
1433 1480 1
1433 1882 1
1433 2241 1
1434 26 1
1434 32 1
1434 532 1
1434 1398 1
1434 1577 1
1434 2317 1
1434 2732 1
1435 477 1
1435 864 1
1435 1267 1
1435 1311 1
1435 1470 1
1435 1477 1
1435 1832 1
1435 2438 1
1436 56 1
1436 283 1
1436 568 1
1436 649 1
1436 2278 1
1436 2803 1
1437 6 1
1437 238 1
1437 889 1
1437 1419 1
1437 1681 1
1437 1692 1
1438 83 1
1438 840 1
1438 1063 1
1438 1080 1
1438 1502 1
1438 2653 1
1438 2844 1
1439 127 1
1439 161 1
1439 609 1
1439 785 1
1439 1868 1
1439 2154 1
1439 2202 1
1439 2759 1
1440 318 1
1440 328 1
1440 556 1
1440 761 1
1440 2691 1
1440 2927 1
1441 23 1
1441 192 1
1441 259 1
1441 382 1
1441 1526 1
1441 1856 1
1441 2358 1
1442 72 1
1442 143 1
1442 635 1
1442 907 1
1443 203 1
1443 246 1
1443 354 1
1443 625 1
1444 40 1
1444 41 1
1444 712 1
1444 1024 1
1444 1994 1
1445 60 1
1445 81 1
1445 262 1
1445 961 1
1445 1485 1
1445 1604 1
1446 8 1
1446 450 1
1446 829 1
1446 1001 1
1446 1565 1
1446 1779 1
1446 1806 1
1446 1843 1
1446 1897 1
1446 2068 1
1446 2873 1
1447 136 1
1447 274 1
1447 379 1
1447 529 1
1447 1841 1
1448 225 1
1448 1177 1
1448 1246 1
1448 1261 1
1448 1575 1
1449 58 1
1449 275 1
1449 475 1
1449 670 1
1450 82 1
1450 773 1
1450 1002 1
1450 1022 1
1450 1797 1
1450 2047 1
1450 2159 1
1450 2269 1
1451 4 1
1451 56 1
1451 59 1
1451 1411 1
1451 1620 1
1451 1782 1
1451 1876 1
1451 2292 1
1451 2356 1
1451 2685 1
1451 2860 1
1452 1 1
1452 103 1
1452 115 1
1452 367 1
1452 2445 1
1452 2920 1
1453 23 1
1453 326 1
1453 425 1
1453 1080 1
1453 1725 1
1454 10 1
1454 83 1
1454 256 1
1454 712 1
1454 1694 1
1454 2179 1
1455 41 1
1455 187 1
1455 273 1
1455 625 1
1456 22 1
1456 23 1
1456 183 1
1456 425 1
1456 2306 1
1457 3 1
1457 491 1
1457 577 1
1457 902 1
1457 2813 1
1457 2982 1
1458 6 1
1458 10 1
1458 568 1
1458 775 1
1459 8 1
1459 115 1
1459 248 1
1459 1099 1
1459 1627 1
1459 2260 1
1459 2373 1
1459 2564 1
1460 21 1
1460 172 1
1460 354 1
1460 1322 1
1460 2534 1
1461 17 1
1461 190 1
1461 717 1
1461 1098 1
1462 7 1
1462 9 1
1462 10 1
1462 238 1
1463 7 1
1463 48 1
1463 64 1
1463 1420 1
1463 1805 1
1463 1975 1
1463 2022 1
1463 2080 1
1463 2129 1
1463 2186 1
1463 2198 1
1464 593 1
1464 978 1
1464 1267 1
1464 1290 1
1464 2096 1
1464 2663 1
1465 46 1
1465 66 1
1465 305 1
1465 1316 1
1465 1556 1
1465 2389 1
1466 114 1
1466 136 1
1466 1115 1
1466 1136 1
1467 128 1
1467 205 1
1467 319 1
1467 336 1
1467 2117 1
1467 2140 1
1467 2307 1
1467 2635 1
1468 9 1
1468 833 1
1468 951 1
1468 1024 1
1469 38 1
1469 41 1
1469 56 1
1469 151 1
1469 1519 1
1469 1881 1
1469 2138 1
1469 2996 1
1470 174 1
1470 966 1
1470 1286 1
1470 1435 1
1471 62 1
1471 118 1
1471 523 1
1471 1297 1
1471 1591 1
1472 70 1
1472 956 1
1472 1232 1
1472 1397 1
1473 634 1
1473 658 1
1473 793 1
1473 1117 1
1473 1815 1
1473 2568 1
1474 1 1
1474 217 1
1474 222 1
1474 1057 1
1475 290 1
1475 653 1
1475 1085 1
1475 1252 1
1476 129 1
1476 684 1
1476 997 1
1476 1167 1
1476 1512 1
1477 207 1
1477 428 1
1477 429 1
1477 1435 1
1477 1878 1
1477 2172 1
1478 31 1
1478 169 1
1478 245 1
1478 795 1
1478 2006 1
1479 13 1
1479 124 1
1479 317 1
1479 406 1
1479 1653 1
1480 38 1
1480 93 1
1480 945 1
1480 1433 1
1481 11 1
1481 217 1
1481 545 1
1481 713 1
1481 1768 1
1482 143 1
1482 156 1
1482 221 1
1482 1283 1
1482 1684 1
1482 2080 1
1482 2499 1
1482 2648 1
1482 2715 1
1483 77 1
1483 165 1
1483 193 1
1483 722 1
1483 1645 1
1484 158 1
1484 208 1
1484 321 1
1484 1126 1
1484 1535 1
1484 1628 1
1484 1993 1
1484 2927 1
1485 283 1
1485 290 1
1485 507 1
1485 1445 1
1485 1489 1
1485 1647 1
1485 1676 1
1485 1770 1
1485 1806 1
1486 6 1
1486 9 1
1486 332 1
1486 472 1
1486 2072 1
1486 2306 1
1486 2993 1
1487 40 1
1487 518 1
1487 780 1
1487 1031 1
1487 1966 1
1487 2203 1
1487 2375 1
1487 2692 1
1488 6 1
1488 56 1
1488 140 1
1488 620 1
1488 1524 1
1488 2492 1
1489 277 1
1489 350 1
1489 1371 1
1489 1485 1
1489 2944 1
1490 5 1
1490 79 1
1490 261 1
1490 343 1
1491 21 1
1491 143 1
1491 339 1
1491 544 1
1492 7 1
1492 523 1
1492 620 1
1492 687 1
1492 2895 1
1493 13 1
1493 278 1
1493 319 1
1493 503 1
1493 2134 1
1494 7 1
1494 331 1
1494 941 1
1494 1180 1
1494 1619 1
1494 2079 1
1494 2146 1
1494 2699 1
1495 199 1
1495 358 1
1495 1005 1
1495 1028 1
1495 1631 1
1495 2853 1
1496 34 1
1496 346 1
1496 696 1
1496 1157 1
1497 33 1
1497 654 1
1497 764 1
1497 1372 1
1497 2384 1
1498 438 1
1498 441 1
1498 545 1
1498 563 1
1499 104 1
1499 404 1
1499 1116 1
1499 1415 1
1499 1561 1
1499 2144 1
1499 2411 1
1500 65 1
1500 154 1
1500 249 1
1500 1163 1
1501 9 1
1501 80 1
1501 607 1
1501 768 1
1501 1687 1
1501 1701 1
1501 1893 1
1501 2721 1
1502 5 1
1502 273 1
1502 662 1
1502 1438 1
1502 2747 1
1502 2887 1
1503 143 1
1503 153 1
1503 329 1
1503 587 1
1503 1664 1
1504 1 1
1504 124 1
1504 490 1
1504 894 1
1504 2870 1
1505 7 1
1505 521 1
1505 863 1
1505 938 1
1505 2420 1
1506 1 1
1506 158 1
1506 301 1
1506 556 1
1506 1619 1
1506 2603 1
1507 5 1
1507 609 1
1507 963 1
1507 1025 1
1507 1781 1
1507 2608 1
1508 252 1
1508 627 1
1508 644 1
1508 1424 1
1508 1714 1
1508 2146 1
1508 2312 1
1508 2763 1
1508 2854 1
1509 52 1
1509 231 1
1509 333 1
1509 551 1
1509 1844 1
1509 2856 1
1510 23 1
1510 170 1
1510 354 1
1510 946 1
1510 1759 1
1511 47 1
1511 620 1
1511 640 1
1511 868 1
1511 2856 1
1511 2984 1
1512 713 1
1512 720 1
1512 1109 1
1512 1476 1
1512 2541 1
1513 170 1
1513 375 1
1513 960 1
1513 1047 1
1513 2150 1
1514 413 1
1514 554 1
1514 684 1
1514 844 1
1515 61 1
1515 66 1
1515 219 1
1515 411 1
1515 1839 1
1515 1862 1
1515 2019 1
1516 50 1
1516 87 1
1516 1074 1
1516 1218 1
1516 1932 1
1517 19 1
1517 153 1
1517 443 1
1517 523 1
1517 2308 1
1518 10 1
1518 125 1
1518 464 1
1518 759 1
1518 1663 1
1519 468 1
1519 962 1
1519 1392 1
1519 1469 1
1519 1971 1
1519 2487 1
1519 2547 1
1519 2791 1
1520 246 1
1520 682 1
1520 833 1
1520 1345 1
1520 1640 1
1521 60 1
1521 887 1
1521 894 1
1521 935 1
1522 172 1
1522 1012 1
1522 1139 1
1522 1263 1
1522 1549 1
1522 1999 1
1522 2210 1
1522 2250 1
1522 2814 1
1522 2998 1
1523 7 1
1523 424 1
1523 765 1
1523 1109 1
1523 1556 1
1524 17 1
1524 159 1
1524 323 1
1524 1488 1
1524 2562 1
1525 30 1
1525 62 1
1525 305 1
1525 503 1
1525 2118 1
1525 2121 1
1526 13 1
1526 425 1
1526 448 1
1526 1441 1
1527 166 1
1527 293 1
1527 370 1
1527 1157 1
1527 2096 1
1527 2759 1
1527 2879 1
1528 22 1
1528 612 1
1528 681 1
1528 1105 1
1528 2403 1
1529 3 1
1529 186 1
1529 473 1
1529 1171 1
1529 1675 1
1529 1874 1
1529 2587 1
1529 2973 1
1530 103 1
1530 132 1
1530 212 1
1530 1195 1
1531 38 1
1531 254 1
1531 300 1
1531 484 1
1532 8 1
1532 355 1
1532 1088 1
1532 1252 1
1532 2924 1
1533 29 1
1533 114 1
1533 558 1
1533 1167 1
1533 1565 1
1533 2027 1
1534 246 1
1534 531 1
1534 677 1
1534 865 1
1534 1738 1
1534 1818 1
1534 1945 1
1534 2444 1
1535 147 1
1535 476 1
1535 823 1
1535 1484 1
1535 1794 1
1535 2231 1
1535 2275 1
1535 2544 1
1535 2563 1
1535 2708 1
1535 2880 1
1536 196 1
1536 265 1
1536 407 1
1536 436 1
1536 1762 1
1537 213 1
1537 726 1
1537 1108 1
1537 1271 1
1538 58 1
1538 64 1
1538 926 1
1538 1043 1
1538 1632 1
1539 5 1
1539 66 1
1539 441 1
1539 593 1
1539 2172 1
1539 2467 1
1540 198 1
1540 199 1
1540 547 1
1540 1255 1
1540 2461 1
1540 2800 1
1541 7 1
1541 65 1
1541 465 1
1541 1191 1
1541 1718 1
1541 2318 1
1542 52 1
1542 68 1
1542 194 1
1542 439 1
1542 1673 1
1543 74 1
1543 454 1
1543 972 1
1543 1312 1
1543 2636 1
1544 25 1
1544 308 1
1544 467 1
1544 1316 1
1544 2742 1
1544 2810 1
1544 2989 1
1545 4 1
1545 124 1
1545 558 1
1545 1131 1
1545 2253 1
1546 34 1
1546 416 1
1546 493 1
1546 537 1
1547 38 1
1547 80 1
1547 189 1
1547 258 1
1547 2082 1
1547 2147 1
1547 2174 1
1547 2393 1
1547 2855 1
1548 111 1
1548 176 1
1548 363 1
1548 1229 1
1548 2211 1
1548 2274 1
1549 5 1
1549 390 1
1549 672 1
1549 1522 1
1549 2169 1
1549 2431 1
1550 14 1
1550 457 1
1550 632 1
1550 1380 1
1551 16 1
1551 255 1
1551 804 1
1551 1378 1
1551 1748 1
1551 2154 1
1551 2254 1
1551 2270 1
1552 124 1
1552 230 1
1552 258 1
1552 266 1
1552 1605 1
1552 1896 1
1553 9 1
1553 33 1
1553 238 1
1553 716 1
1553 2922 1
1554 9 1
1554 172 1
1554 680 1
1554 888 1
1554 2051 1
1555 199 1
1555 850 1
1555 991 1
1555 1413 1
1555 2618 1
1556 285 1
1556 1076 1
1556 1465 1
1556 1523 1
1556 1943 1
1557 74 1
1557 872 1
1557 992 1
1557 1218 1
1557 1650 1
1558 7 1
1558 9 1
1558 17 1
1558 212 1
1558 1670 1
1558 2883 1
1559 281 1
1559 398 1
1559 425 1
1559 1281 1
1559 1579 1
1559 2067 1
1560 23 1
1560 151 1
1560 472 1
1560 1227 1
1560 1703 1
1560 1791 1
1560 1925 1
1561 65 1
1561 908 1
1561 967 1
1561 1499 1
1561 2743 1
1562 25 1
1562 110 1
1562 158 1
1562 493 1
1563 74 1
1563 263 1
1563 420 1
1563 1307 1
1564 302 1
1564 695 1
1564 702 1
1564 1083 1
1564 2836 1
1565 806 1
1565 871 1
1565 1446 1
1565 1533 1
1566 32 1
1566 358 1
1566 1331 1
1566 1347 1
1566 2535 1
1566 2988 1
1566 2994 1
1567 26 1
1567 405 1
1567 464 1
1567 778 1
1567 2718 1
1568 173 1
1568 194 1
1568 217 1
1568 1174 1
1568 2529 1
1569 7 1
1569 116 1
1569 132 1
1569 274 1
1570 146 1
1570 625 1
1570 745 1
1570 889 1
1570 1886 1
1570 2131 1
1570 2470 1
1570 2877 1
1571 43 1
1571 238 1
1571 840 1
1571 1195 1
1571 1889 1
1571 2279 1
1572 252 1
1572 386 1
1572 884 1
1572 1411 1
1573 15 1
1573 59 1
1573 422 1
1573 992 1
1573 2248 1
1573 2906 1
1574 33 1
1574 131 1
1574 355 1
1574 668 1
1574 1586 1
1574 1913 1
1574 2643 1
1574 2884 1
1575 6 1
1575 13 1
1575 199 1
1575 1448 1
1575 2171 1
1575 2799 1
1575 2833 1
1575 2836 1
1576 38 1
1576 351 1
1576 601 1
1576 1369 1
1576 2463 1
1577 3 1
1577 85 1
1577 844 1
1577 1434 1
1578 254 1
1578 337 1
1578 345 1
1578 849 1
1578 1610 1
1578 2130 1
1579 462 1
1579 524 1
1579 560 1
1579 1559 1
1579 1760 1
1579 2754 1
1579 2990 1
1580 9 1
1580 56 1
1580 728 1
1580 1195 1
1581 97 1
1581 103 1
1581 1115 1
1581 1265 1
1581 2105 1
1582 50 1
1582 489 1
1582 770 1
1582 1027 1
1582 2666 1
1582 2839 1
1583 6 1
1583 143 1
1583 948 1
1583 1231 1
1583 2335 1
1583 2701 1
1584 91 1
1584 187 1
1584 210 1
1584 1282 1
1584 2232 1
1584 2563 1
1585 33 1
1585 440 1
1585 463 1
1585 1380 1
1585 2167 1
1585 2295 1
1586 162 1
1586 1084 1
1586 1311 1
1586 1574 1
1586 2488 1
1587 51 1
1587 392 1
1587 657 1
1587 741 1
1588 185 1
1588 783 1
1588 828 1
1588 1387 1
1588 1607 1
1588 2098 1
1589 298 1
1589 377 1
1589 584 1
1589 1035 1
1589 2091 1
1589 2240 1
1589 2654 1
1590 145 1
1590 206 1
1590 263 1
1590 334 1
1590 2335 1
1590 2526 1
1591 5 1
1591 101 1
1591 1035 1
1591 1471 1
1591 1812 1
1591 2681 1
1591 2966 1
1592 45 1
1592 62 1
1592 290 1
1592 705 1
1592 1778 1
1592 1852 1
1592 1949 1
1592 2394 1
1592 2550 1
1592 2645 1
1593 159 1
1593 203 1
1593 326 1
1593 533 1
1594 10 1
1594 155 1
1594 367 1
1594 409 1
1595 15 1
1595 86 1
1595 94 1
1595 372 1
1595 1599 1
1595 1789 1
1595 2589 1
1596 30 1
1596 298 1
1596 442 1
1596 474 1
1597 36 1
1597 183 1
1597 1093 1
1597 1321 1
1597 1644 1
1597 2495 1
1597 2581 1
1598 217 1
1598 597 1
1598 945 1
1598 1133 1
1598 2518 1
1599 115 1
1599 808 1
1599 1214 1
1599 1595 1
1600 153 1
1600 168 1
1600 210 1
1600 247 1
1600 2744 1
1601 8 1
1601 64 1
1601 133 1
1601 636 1
1601 1864 1
1602 40 1
1602 53 1
1602 431 1
1602 577 1
1603 58 1
1603 79 1
1603 693 1
1603 900 1
1603 1709 1
1604 81 1
1604 133 1
1604 858 1
1604 1445 1
1605 62 1
1605 132 1
1605 461 1
1605 1552 1
1606 448 1
1606 728 1
1606 897 1
1606 1011 1
1606 2191 1
1607 59 1
1607 386 1
1607 591 1
1607 1588 1
1607 1633 1
1608 19 1
1608 21 1
1608 73 1
1608 706 1
1608 1766 1
1608 2100 1
1608 2118 1
1608 2250 1
1608 2310 1
1609 222 1
1609 967 1
1609 1192 1
1609 1251 1
1610 45 1
1610 143 1
1610 488 1
1610 1578 1
1610 1680 1
1611 10 1
1611 217 1
1611 477 1
1611 874 1
1612 9 1
1612 103 1
1612 624 1
1612 1189 1
1612 1638 1
1612 1967 1
1613 5 1
1613 175 1
1613 638 1
1613 1159 1
1613 1734 1
1613 2519 1
1614 323 1
1614 925 1
1614 1089 1
1614 1091 1
1615 75 1
1615 239 1
1615 704 1
1615 1145 1
1615 2092 1
1615 2275 1
1615 2646 1
1615 2988 1
1616 7 1
1616 28 1
1616 199 1
1616 1100 1
1616 1791 1
1616 2355 1
1616 2466 1
1617 17 1
1617 87 1
1617 519 1
1617 1228 1
1617 1807 1
1617 2037 1
1617 2330 1
1617 2459 1
1618 105 1
1618 170 1
1618 631 1
1618 895 1
1619 9 1
1619 183 1
1619 1494 1
1619 1506 1
1619 2401 1
1620 203 1
1620 645 1
1620 891 1
1620 1451 1
1620 2112 1
1621 115 1
1621 997 1
1621 1041 1
1621 1251 1
1621 1982 1
1621 2593 1
1622 54 1
1622 793 1
1622 1253 1
1622 1281 1
1623 179 1
1623 291 1
1623 781 1
1623 1134 1
1623 1720 1
1624 9 1
1624 143 1
1624 641 1
1624 1223 1
1624 1934 1
1624 2316 1
1624 2861 1
1625 298 1
1625 558 1
1625 722 1
1625 903 1
1626 19 1
1626 551 1
1626 883 1
1626 1330 1
1626 1710 1
1626 2171 1
1627 13 1
1627 644 1
1627 1368 1
1627 1459 1
1627 1645 1
1628 821 1
1628 864 1
1628 1195 1
1628 1484 1
1628 1760 1
1628 2085 1
1628 2681 1
1629 343 1
1629 686 1
1629 1128 1
1629 1258 1
1629 1917 1
1629 2649 1
1630 9 1
1630 100 1
1630 462 1
1630 1153 1
1631 226 1
1631 325 1
1631 1059 1
1631 1495 1
1631 1984 1
1632 19 1
1632 140 1
1632 319 1
1632 1538 1
1632 2430 1
1633 6 1
1633 549 1
1633 633 1
1633 1607 1
1633 1717 1
1634 67 1
1634 738 1
1634 851 1
1634 1316 1
1634 2358 1
1635 20 1
1635 137 1
1635 545 1
1635 740 1
1636 67 1
1636 70 1
1636 329 1
1636 1107 1
1637 81 1
1637 386 1
1637 914 1
1637 1153 1
1638 14 1
1638 227 1
1638 496 1
1638 1612 1
1638 2142 1
1639 33 1
1639 171 1
1639 705 1
1639 720 1
1640 145 1
1640 154 1
1640 1375 1
1640 1520 1
1641 5 1
1641 370 1
1641 618 1
1641 816 1
1641 1654 1
1642 21 1
1642 633 1
1642 929 1
1642 1047 1
1643 6 1
1643 86 1
1643 197 1
1643 664 1
1643 2823 1
1644 171 1
1644 308 1
1644 745 1
1644 1597 1
1644 1798 1
1645 128 1
1645 787 1
1645 1483 1
1645 1627 1
1645 2986 1
1646 16 1
1646 86 1
1646 203 1
1646 984 1
1646 1965 1
1646 2841 1
1647 221 1
1647 800 1
1647 1148 1
1647 1485 1
1647 2901 1
1648 37 1
1648 369 1
1648 677 1
1648 1367 1
1648 1663 1
1649 59 1
1649 247 1
1649 356 1
1649 451 1
1649 1851 1
1650 649 1
1650 1149 1
1650 1415 1
1650 1557 1
1650 1739 1
1650 2409 1
1650 2497 1
1651 27 1
1651 160 1
1651 287 1
1651 399 1
1651 1909 1
1652 220 1
1652 414 1
1652 550 1
1652 1070 1
1652 2770 1
1653 176 1
1653 272 1
1653 960 1
1653 1479 1
1653 2675 1
1654 7 1
1654 332 1
1654 1203 1
1654 1641 1
1654 2639 1
1654 2964 1
1655 721 1
1655 862 1
1655 1284 1
1655 1295 1
1655 1712 1
1655 2114 1
1656 109 1
1656 315 1
1656 539 1
1656 929 1
1656 2400 1
1656 2650 1
1656 2951 1
1657 5 1
1657 171 1
1657 187 1
1657 520 1
1657 2954 1
1658 23 1
1658 50 1
1658 261 1
1658 345 1
1659 291 1
1659 354 1
1659 440 1
1659 903 1
1659 1802 1
1659 2221 1
1659 2300 1
1659 2732 1
1660 132 1
1660 577 1
1660 889 1
1660 912 1
1660 1926 1
1660 2081 1
1660 2099 1
1661 38 1
1661 157 1
1661 640 1
1661 1129 1
1661 1854 1
1661 2440 1
1662 5 1
1662 408 1
1662 548 1
1662 814 1
1662 2019 1
1662 2756 1
1663 586 1
1663 963 1
1663 1518 1
1663 1648 1
1664 10 1
1664 125 1
1664 328 1
1664 1503 1
1664 1737 1
1664 2145 1
1665 306 1
1665 717 1
1665 1043 1
1665 1210 1
1665 1773 1
1665 1837 1
1666 87 1
1666 94 1
1666 955 1
1666 1183 1
1666 2277 1
1667 8 1
1667 348 1
1667 621 1
1667 641 1
1668 20 1
1668 261 1
1668 926 1
1668 967 1
1668 2489 1
1669 84 1
1669 186 1
1669 254 1
1669 388 1
1670 150 1
1670 512 1
1670 670 1
1670 1558 1
1671 97 1
1671 631 1
1671 710 1
1671 984 1
1671 2638 1
1672 79 1
1672 151 1
1672 716 1
1672 1107 1
1672 1751 1
1673 63 1
1673 131 1
1673 461 1
1673 1542 1
1674 568 1
1674 705 1
1674 755 1
1674 1045 1
1675 2 1
1675 50 1
1675 1003 1
1675 1529 1
1675 1909 1
1675 1977 1
1675 2448 1
1675 2582 1
1676 654 1
1676 767 1
1676 999 1
1676 1485 1
1676 2902 1
1677 162 1
1677 567 1
1677 594 1
1677 979 1
1677 2835 1
1678 36 1
1678 49 1
1678 62 1
1678 345 1
1678 2628 1
1679 87 1
1679 300 1
1679 583 1
1679 1091 1
1679 1769 1
1679 1872 1
1679 2519 1
1679 2553 1
1680 38 1
1680 365 1
1680 828 1
1680 1610 1
1681 15 1
1681 323 1
1681 581 1
1681 1437 1
1681 1726 1
1681 2014 1
1682 862 1
1682 868 1
1682 899 1
1682 1081 1
1682 2150 1
1683 3 1
1683 56 1
1683 62 1
1683 1364 1
1684 57 1
1684 177 1
1684 572 1
1684 1482 1
1684 1829 1
1685 7 1
1685 26 1
1685 834 1
1685 1387 1
1686 1 1
1686 378 1
1686 480 1
1686 918 1
1686 2569 1
1687 378 1
1687 465 1
1687 1231 1
1687 1501 1
1687 2144 1
1687 2439 1
1687 2482 1
1688 117 1
1688 372 1
1688 781 1
1688 867 1
1688 2409 1
1689 25 1
1689 273 1
1689 572 1
1689 631 1
1689 1741 1
1690 3 1
1690 270 1
1690 319 1
1690 892 1
1690 1724 1
1690 1958 1
1690 2662 1
1691 130 1
1691 276 1
1691 631 1
1691 996 1
1691 2151 1
1691 2286 1
1691 2828 1
1691 2860 1
1692 68 1
1692 761 1
1692 934 1
1692 1437 1
1692 1937 1
1692 2703 1
1692 2746 1
1692 2774 1
1693 3 1
1693 51 1
1693 55 1
1693 201 1
1693 2410 1
1694 370 1
1694 686 1
1694 778 1
1694 1454 1
1695 244 1
1695 466 1
1695 472 1
1695 1235 1
1695 2052 1
1695 2802 1
1696 242 1
1696 321 1
1696 368 1
1696 1403 1
1696 2031 1
1697 17 1
1697 275 1
1697 325 1
1697 424 1
1698 9 1
1698 226 1
1698 939 1
1698 1175 1
1698 2004 1
1699 60 1
1699 114 1
1699 676 1
1699 1022 1
1700 79 1
1700 247 1
1700 406 1
1700 1222 1
1701 205 1
1701 582 1
1701 1353 1
1701 1501 1
1702 125 1
1702 866 1
1702 1266 1
1702 1398 1
1702 1780 1
1702 1971 1
1702 1973 1
1702 2454 1
1702 2457 1
1703 132 1
1703 182 1
1703 1414 1
1703 1560 1
1703 1839 1
1703 1847 1
1703 1920 1
1704 41 1
1704 50 1
1704 840 1
1704 1348 1
1704 2981 1
1705 7 1
1705 117 1
1705 199 1
1705 406 1
1706 40 1
1706 233 1
1706 1156 1
1706 1220 1
1706 1776 1
1706 2405 1
1707 180 1
1707 345 1
1707 547 1
1707 1067 1
1707 1860 1
1707 2735 1
1708 6 1
1708 174 1
1708 317 1
1708 1150 1
1709 217 1
1709 781 1
1709 963 1
1709 1603 1
1709 2105 1
1710 58 1
1710 97 1
1710 726 1
1710 1626 1
1710 2324 1
1710 2495 1
1710 2658 1
1710 2729 1
1710 2913 1
1711 180 1
1711 367 1
1711 472 1
1711 1432 1
1712 87 1
1712 98 1
1712 345 1
1712 1655 1
1712 1857 1
1713 76 1
1713 86 1
1713 1142 1
1713 1213 1
1713 2152 1
1713 2526 1
1714 50 1
1714 190 1
1714 283 1
1714 1508 1
1715 56 1
1715 118 1
1715 172 1
1715 1159 1
1715 1956 1
1715 2035 1
1715 2485 1
1715 2674 1
1715 2811 1
1716 13 1
1716 250 1
1716 413 1
1716 979 1
1716 2927 1
1717 2 1
1717 220 1
1717 1066 1
1717 1633 1
1718 125 1
1718 986 1
1718 1387 1
1718 1541 1
1718 2276 1
1719 26 1
1719 168 1
1719 256 1
1719 1189 1
1719 2633 1
1720 336 1
1720 410 1
1720 660 1
1720 1623 1
1721 4 1
1721 31 1
1721 41 1
1721 135 1
1722 12 1
1722 246 1
1722 1059 1
1722 1430 1
1723 174 1
1723 355 1
1723 1012 1
1723 1195 1
1724 42 1
1724 378 1
1724 1191 1
1724 1690 1
1724 2202 1
1725 323 1
1725 967 1
1725 1002 1
1725 1453 1
1725 2256 1
1726 406 1
1726 951 1
1726 1336 1
1726 1681 1
1726 2611 1
1727 43 1
1727 247 1
1727 353 1
1727 1406 1
1727 2219 1
1727 2401 1
1727 2480 1
1728 41 1
1728 86 1
1728 89 1
1728 1045 1
1729 23 1
1729 32 1
1729 906 1
1729 1046 1
1729 2161 1
1730 19 1
1730 584 1
1730 602 1
1730 1314 1
1730 1906 1
1730 2322 1
1730 2432 1
1730 2682 1
1731 14 1
1731 70 1
1731 655 1
1731 966 1
1731 1997 1
1731 2155 1
1731 2346 1
1732 95 1
1732 818 1
1732 1039 1
1732 1118 1
1733 872 1
1733 1184 1
1733 1226 1
1733 1273 1
1733 1954 1
1734 175 1
1734 273 1
1734 568 1
1734 1613 1
1735 2 1
1735 357 1
1735 364 1
1735 1416 1
1735 1862 1
1735 2089 1
1735 2371 1
1736 25 1
1736 212 1
1736 266 1
1736 282 1
1736 2076 1
1736 2432 1
1736 2708 1
1737 56 1
1737 1343 1
1737 1406 1
1737 1664 1
1737 2360 1
1737 2818 1
1738 6 1
1738 63 1
1738 78 1
1738 1534 1
1738 1747 1
1738 2520 1
1739 887 1
1739 986 1
1739 1356 1
1739 1650 1
1739 1772 1
1739 1845 1
1739 2521 1
1740 76 1
1740 188 1
1740 467 1
1740 1164 1
1740 2657 1
1740 2674 1
1741 48 1
1741 539 1
1741 986 1
1741 1689 1
1741 1945 1
1742 2 1
1742 357 1
1742 646 1
1742 1278 1
1743 32 1
1743 41 1
1743 1142 1
1743 1407 1
1743 1922 1
1743 2824 1
1744 85 1
1744 199 1
1744 914 1
1744 1383 1
1744 2193 1
1745 97 1
1745 334 1
1745 466 1
1745 835 1
1746 31 1
1746 165 1
1746 395 1
1746 1411 1
1746 2472 1
1747 7 1
1747 191 1
1747 1289 1
1747 1738 1
1747 2630 1
1748 2 1
1748 25 1
1748 242 1
1748 1551 1
1748 2187 1
1748 2271 1
1749 2 1
1749 56 1
1749 74 1
1749 878 1
1749 2834 1
1749 2917 1
1750 187 1
1750 652 1
1750 696 1
1750 1406 1
1750 1925 1
1750 2137 1
1750 2639 1
1751 162 1
1751 203 1
1751 995 1
1751 1672 1
1751 1946 1
1751 2334 1
1752 104 1
1752 217 1
1752 390 1
1752 1346 1
1753 1 1
1753 153 1
1753 778 1
1753 925 1
1753 1832 1
1753 1975 1
1753 2296 1
1754 172 1
1754 537 1
1754 614 1
1754 1358 1
1754 2113 1
1754 2734 1
1755 38 1
1755 57 1
1755 451 1
1755 1267 1
1756 27 1
1756 56 1
1756 722 1
1756 942 1
1756 1797 1
1757 110 1
1757 118 1
1757 563 1
1757 793 1
1757 2783 1
1758 6 1
1758 113 1
1758 246 1
1758 449 1
1758 2032 1
1759 9 1
1759 132 1
1759 659 1
1759 1510 1
1759 2639 1
1760 87 1
1760 227 1
1760 1579 1
1760 1628 1
1760 1816 1
1760 2358 1
1761 46 1
1761 613 1
1761 1333 1
1761 1340 1
1761 1846 1
1761 1877 1
1761 2092 1
1761 2249 1
1761 2367 1
1761 2449 1
1761 2977 1
1762 128 1
1762 222 1
1762 820 1
1762 1536 1
1762 2793 1
1763 116 1
1763 269 1
1763 503 1
1763 1338 1
1763 2188 1
1764 388 1
1764 790 1
1764 1010 1
1764 1020 1
1764 2740 1
1765 280 1
1765 652 1
1765 864 1
1765 926 1
1765 2450 1
1766 86 1
1766 201 1
1766 725 1
1766 1608 1
1766 1801 1
1766 1874 1
1766 2234 1
1766 2640 1
1766 2770 1
1766 2846 1
1767 14 1
1767 41 1
1767 682 1
1767 1046 1
1767 2651 1
1768 73 1
1768 343 1
1768 1066 1
1768 1481 1
1768 1783 1
1768 2061 1
1768 2141 1
1769 7 1
1769 614 1
1769 748 1
1769 1679 1
1769 2541 1
1770 56 1
1770 1042 1
1770 1403 1
1770 1485 1
1771 7 1
1771 52 1
1771 55 1
1771 841 1
1772 300 1
1772 478 1
1772 965 1
1772 1739 1
1772 1878 1
1772 2714 1
1773 117 1
1773 276 1
1773 1012 1
1773 1665 1
1774 19 1
1774 182 1
1774 681 1
1774 734 1
1774 1922 1
1774 2613 1
1774 2624 1
1775 19 1
1775 432 1
1775 610 1
1775 1168 1
1776 244 1
1776 437 1
1776 799 1
1776 1706 1
1776 1837 1
1777 34 1
1777 171 1
1777 924 1
1777 1065 1
1777 2228 1
1777 2802 1
1778 66 1
1778 306 1
1778 773 1
1778 1592 1
1779 187 1
1779 610 1
1779 926 1
1779 1446 1
1779 2263 1
1780 248 1
1780 295 1
1780 1252 1
1780 1702 1
1781 93 1
1781 134 1
1781 736 1
1781 1507 1
1781 1886 1
1781 1911 1
1781 2074 1
1781 2307 1
1781 2497 1
1781 2693 1
1782 96 1
1782 234 1
1782 676 1
1782 1451 1
1783 36 1
1783 704 1
1783 901 1
1783 1768 1
1783 1925 1
1783 2909 1
1784 95 1
1784 392 1
1784 533 1
1784 646 1
1785 27 1
1785 59 1
1785 162 1
1785 1399 1
1785 2617 1
1786 86 1
1786 570 1
1786 1284 1
1786 1367 1
1787 82 1
1787 275 1
1787 936 1
1787 1395 1
1787 1789 1
1788 4 1
1788 40 1
1788 614 1
1788 995 1
1788 1824 1
1788 2069 1
1788 2176 1
1789 162 1
1789 550 1
1789 1595 1
1789 1787 1
1789 2355 1
1789 2650 1
1790 1 1
1790 13 1
1790 176 1
1790 1157 1
1791 318 1
1791 525 1
1791 1560 1
1791 1616 1
1791 2461 1
1792 4 1
1792 8 1
1792 376 1
1792 899 1
1792 1811 1
1793 25 1
1793 63 1
1793 145 1
1793 261 1
1793 1875 1
1794 27 1
1794 589 1
1794 1022 1
1794 1535 1
1794 1813 1
1794 1852 1
1794 2739 1
1795 5 1
1795 127 1
1795 259 1
1795 1145 1
1795 2161 1
1795 2638 1
1796 17 1
1796 31 1
1796 56 1
1796 132 1
1796 1838 1
1796 1957 1
1796 2559 1
1796 2693 1
1797 307 1
1797 391 1
1797 1450 1
1797 1756 1
1797 2235 1
1798 1 1
1798 267 1
1798 764 1
1798 1644 1
1799 6 1
1799 9 1
1799 149 1
1799 243 1
1799 1979 1
1800 159 1
1800 163 1
1800 194 1
1800 382 1
1800 1854 1
1801 78 1
1801 673 1
1801 715 1
1801 1766 1
1801 2220 1
1801 2534 1
1801 2593 1
1801 2724 1
1802 66 1
1802 370 1
1802 751 1
1802 1659 1
1803 21 1
1803 60 1
1803 157 1
1803 169 1
1803 2512 1
1804 13 1
1804 131 1
1804 571 1
1804 1038 1
1804 2213 1
1804 2932 1
1805 156 1
1805 254 1
1805 324 1
1805 1463 1
1805 2809 1
1806 33 1
1806 38 1
1806 1446 1
1806 1485 1
1807 472 1
1807 738 1
1807 1028 1
1807 1617 1
1807 2025 1
1808 23 1
1808 83 1
1808 520 1
1808 1085 1
1808 1848 1
1809 18 1
1809 31 1
1809 244 1
1809 806 1
1809 2034 1
1809 2460 1
1809 2515 1
1810 15 1
1810 125 1
1810 160 1
1810 507 1
1811 162 1
1811 1204 1
1811 1265 1
1811 1792 1
1811 1820 1
1811 2400 1
1812 298 1
1812 398 1
1812 692 1
1812 1591 1
1813 102 1
1813 108 1
1813 564 1
1813 1794 1
1814 15 1
1814 60 1
1814 216 1
1814 296 1
1815 22 1
1815 448 1
1815 656 1
1815 1473 1
1816 6 1
1816 159 1
1816 1401 1
1816 1760 1
1817 17 1
1817 219 1
1817 286 1
1817 936 1
1818 45 1
1818 79 1
1818 219 1
1818 1534 1
1818 1825 1
1819 8 1
1819 75 1
1819 175 1
1819 600 1
1819 1826 1
1820 205 1
1820 444 1
1820 919 1
1820 1811 1
1821 86 1
1821 104 1
1821 199 1
1821 756 1
1821 1887 1
1822 10 1
1822 219 1
1822 408 1
1822 913 1
1823 169 1
1823 726 1
1823 916 1
1823 1297 1
1824 25 1
1824 285 1
1824 1361 1
1824 1788 1
1825 10 1
1825 28 1
1825 1002 1
1825 1818 1
1825 2204 1
1826 104 1
1826 614 1
1826 823 1
1826 1819 1
1826 2445 1
1826 2773 1
1827 199 1
1827 276 1
1827 821 1
1827 833 1
1827 2528 1
1828 132 1
1828 289 1
1828 822 1
1828 1383 1
1829 6 1
1829 10 1
1829 60 1
1829 1684 1
1829 2135 1
1830 27 1
1830 84 1
1830 228 1
1830 755 1
1830 2342 1
1831 9 1
1831 628 1
1831 666 1
1831 1203 1
1831 2284 1
1831 2352 1
1832 119 1
1832 259 1
1832 1435 1
1832 1753 1
1832 2186 1
1832 2787 1
1832 2903 1
1833 257 1
1833 440 1
1833 539 1
1833 699 1
1833 1872 1
1834 93 1
1834 140 1
1834 732 1
1834 1317 1
1835 7 1
1835 159 1
1835 232 1
1835 280 1
1835 2233 1
1836 1 1
1836 60 1
1836 61 1
1836 1387 1
1837 258 1
1837 573 1
1837 1665 1
1837 1776 1
1838 169 1
1838 191 1
1838 470 1
1838 1796 1
1838 2167 1
1838 2378 1
1838 2466 1
1839 1 1
1839 477 1
1839 1515 1
1839 1703 1
1839 2818 1
1840 16 1
1840 185 1
1840 293 1
1840 823 1
1840 2446 1
1840 2453 1
1841 46 1
1841 184 1
1841 301 1
1841 1447 1
1842 23 1
1842 347 1
1842 395 1
1842 442 1
1842 1867 1
1842 1990 1
1843 8 1
1843 19 1
1843 80 1
1843 1446 1
1844 77 1
1844 220 1
1844 254 1
1844 1509 1
1844 2884 1
1845 355 1
1845 630 1
1845 1349 1
1845 1739 1
1846 233 1
1846 472 1
1846 860 1
1846 1761 1
1846 2221 1
1847 127 1
1847 160 1
1847 179 1
1847 1703 1
1847 2024 1
1848 152 1
1848 192 1
1848 678 1
1848 1808 1
1848 2454 1
1849 451 1
1849 898 1
1849 1006 1
1849 1049 1
1849 1903 1
1849 1987 1
1849 2103 1
1849 2874 1
1850 234 1
1850 401 1
1850 705 1
1850 1398 1
1850 2194 1
1851 26 1
1851 222 1
1851 336 1
1851 1649 1
1852 13 1
1852 986 1
1852 1592 1
1852 1794 1
1853 4 1
1853 127 1
1853 332 1
1853 432 1
1853 2133 1
1853 2957 1
1854 1152 1
1854 1311 1
1854 1661 1
1854 1800 1
1854 2676 1
1855 463 1
1855 608 1
1855 792 1
1855 1191 1
1855 2506 1
1856 73 1
1856 328 1
1856 972 1
1856 1441 1
1856 1893 1
1857 354 1
1857 1042 1
1857 1093 1
1857 1712 1
1857 2010 1
1858 6 1
1858 19 1
1858 803 1
1858 1160 1
1858 2604 1
1859 29 1
1859 45 1
1859 398 1
1859 640 1
1859 2000 1
1859 2914 1
1860 24 1
1860 406 1
1860 945 1
1860 1707 1
1860 2011 1
1861 8 1
1861 201 1
1861 327 1
1861 475 1
1861 2286 1
1862 153 1
1862 813 1
1862 1515 1
1862 1735 1
1862 2091 1
1862 2149 1
1862 2309 1
1862 2578 1
1862 2733 1
1862 2762 1
1862 2785 1
1863 5 1
1863 38 1
1863 155 1
1863 1028 1
1863 2455 1
1864 4 1
1864 70 1
1864 942 1
1864 1601 1
1864 2798 1
1865 5 1
1865 83 1
1865 245 1
1865 661 1
1865 2347 1
1865 2422 1
1866 7 1
1866 462 1
1866 488 1
1866 651 1
1867 266 1
1867 416 1
1867 1361 1
1867 1842 1
1867 2888 1
1868 404 1
1868 507 1
1868 574 1
1868 1439 1
1869 52 1
1869 107 1
1869 261 1
1869 1171 1
1870 9 1
1870 21 1
1870 1041 1
1870 1275 1
1871 54 1
1871 75 1
1871 705 1
1871 776 1
1872 262 1
1872 874 1
1872 1679 1
1872 1833 1
1873 345 1
1873 564 1
1873 745 1
1873 990 1
1873 2602 1
1874 1 1
1874 14 1
1874 1529 1
1874 1766 1
1874 1893 1
1874 2451 1
1874 2572 1
1874 2625 1
1875 47 1
1875 910 1
1875 1131 1
1875 1793 1
1875 1964 1
1875 2394 1
1875 2895 1
1876 349 1
1876 484 1
1876 1388 1
1876 1451 1
1876 1877 1
1876 1965 1
1876 2956 1
1877 788 1
1877 1105 1
1877 1761 1
1877 1876 1
1877 1907 1
1877 2397 1
1878 283 1
1878 1105 1
1878 1477 1
1878 1772 1
1878 2530 1
1878 2710 1
1878 2862 1
1878 2995 1
1879 8 1
1879 15 1
1879 131 1
1879 1223 1
1880 23 1
1880 658 1
1880 819 1
1880 823 1
1881 80 1
1881 926 1
1881 930 1
1881 1469 1
1882 149 1
1882 354 1
1882 1135 1
1882 1433 1
1882 2079 1
1882 2841 1
1883 28 1
1883 138 1
1883 159 1
1883 882 1
1884 79 1
1884 104 1
1884 312 1
1884 895 1
1885 47 1
1885 316 1
1885 751 1
1885 801 1
1885 2034 1
1886 15 1
1886 984 1
1886 1570 1
1886 1781 1
1886 2388 1
1886 2778 1
1887 12 1
1887 778 1
1887 1321 1
1887 1821 1
1887 2919 1
1888 69 1
1888 141 1
1888 343 1
1888 1035 1
1888 2684 1
1889 28 1
1889 91 1
1889 398 1
1889 1571 1
1889 2140 1
1889 2885 1
1890 124 1
1890 793 1
1890 1180 1
1890 1282 1
1890 2033 1
1891 2 1
1891 272 1
1891 276 1
1891 539 1
1892 49 1
1892 442 1
1892 758 1
1892 1216 1
1892 2609 1
1892 2980 1
1893 1101 1
1893 1501 1
1893 1856 1
1893 1874 1
1893 2255 1
1893 2562 1
1893 2676 1
1894 267 1
1894 391 1
1894 721 1
1894 1056 1
1894 2062 1
1894 2736 1
1895 6 1
1895 13 1
1895 32 1
1895 210 1
1896 572 1
1896 613 1
1896 1248 1
1896 1552 1
1896 2235 1
1897 9 1
1897 31 1
1897 551 1
1897 1446 1
1898 25 1
1898 69 1
1898 70 1
1898 132 1
1899 7 1
1899 631 1
1899 742 1
1899 821 1
1900 146 1
1900 492 1
1900 562 1
1900 1348 1
1901 40 1
1901 269 1
1901 571 1
1901 1182 1
1901 2204 1
1901 2658 1
1902 23 1
1902 67 1
1902 695 1
1902 1380 1
1903 47 1
1903 403 1
1903 853 1
1903 1849 1
1903 2229 1
1903 2837 1
1903 2854 1
1904 25 1
1904 404 1
1904 1013 1
1904 1411 1
1904 2294 1
1905 132 1
1905 276 1
1905 354 1
1905 599 1
1905 2602 1
1906 104 1
1906 289 1
1906 1356 1
1906 1730 1
1906 2291 1
1907 88 1
1907 306 1
1907 1185 1
1907 1877 1
1908 156 1
1908 345 1
1908 865 1
1908 1282 1
1908 2831 1
1909 19 1
1909 248 1
1909 1651 1
1909 1675 1
1910 86 1
1910 252 1
1910 293 1
1910 1418 1
1910 2680 1
1911 2 1
1911 158 1
1911 234 1
1911 1781 1
1912 183 1
1912 266 1
1912 579 1
1912 670 1
1913 290 1
1913 835 1
1913 944 1
1913 1574 1
1913 2398 1
1913 2429 1
1913 2665 1
1914 21 1
1914 41 1
1914 183 1
1914 507 1
1914 1991 1
1915 252 1
1915 314 1
1915 919 1
1915 996 1
1916 39 1
1916 377 1
1916 591 1
1916 1216 1
1916 2880 1
1917 5 1
1917 713 1
1917 1307 1
1917 1629 1
1917 1968 1
1918 13 1
1918 482 1
1918 574 1
1918 1217 1
1918 2417 1
1919 16 1
1919 620 1
1919 699 1
1919 701 1
1919 2688 1
1919 2776 1
1920 270 1
1920 827 1
1920 1016 1
1920 1703 1
1920 2355 1
1921 224 1
1921 373 1
1921 529 1
1921 564 1
1921 2333 1
1922 49 1
1922 331 1
1922 1743 1
1922 1774 1
1922 2404 1
1922 2470 1
1923 1 1
1923 3 1
1923 7 1
1923 405 1
1923 2408 1
1924 56 1
1924 143 1
1924 204 1
1924 1372 1
1925 201 1
1925 1560 1
1925 1750 1
1925 1783 1
1925 2945 1
1926 376 1
1926 402 1
1926 690 1
1926 1660 1
1926 2018 1
1927 74 1
1927 167 1
1927 261 1
1927 421 1
1927 2695 1
1928 40 1
1928 313 1
1928 1047 1
1928 1312 1
1928 2714 1
1929 9 1
1929 19 1
1929 650 1
1929 733 1
1929 2129 1
1929 2833 1
1929 2936 1
1930 60 1
1930 297 1
1930 752 1
1930 903 1
1930 2677 1
1931 10 1
1931 85 1
1931 563 1
1931 1148 1
1932 5 1
1932 37 1
1932 1265 1
1932 1516 1
1933 10 1
1933 85 1
1933 790 1
1933 1192 1
1934 186 1
1934 641 1
1934 1124 1
1934 1624 1
1934 2157 1
1935 2 1
1935 153 1
1935 187 1
1935 1144 1
1935 2261 1
1935 2529 1
1936 31 1
1936 50 1
1936 186 1
1936 836 1
1936 1980 1
1936 2028 1
1936 2144 1
1937 10 1
1937 70 1
1937 259 1
1937 1692 1
1937 1940 1
1938 213 1
1938 516 1
1938 865 1
1938 912 1
1939 1 1
1939 255 1
1939 501 1
1939 913 1
1939 2100 1
1939 2223 1
1939 2292 1
1939 2617 1
1939 2781 1
1940 6 1
1940 693 1
1940 951 1
1940 1937 1
1940 2517 1
1940 2577 1
1941 21 1
1941 132 1
1941 331 1
1941 1020 1
1941 2038 1
1942 132 1
1942 382 1
1942 519 1
1942 1030 1
1942 2117 1
1942 2171 1
1942 2281 1
1942 2341 1
1942 2786 1
1943 160 1
1943 374 1
1943 854 1
1943 1556 1
1944 6 1
1944 15 1
1944 281 1
1944 1220 1
1944 2294 1
1945 244 1
1945 1318 1
1945 1534 1
1945 1741 1
1945 2771 1
1946 283 1
1946 416 1
1946 836 1
1946 1751 1
1947 33 1
1947 162 1
1947 282 1
1947 297 1
1947 2713 1
1947 2748 1
1948 1 1
1948 73 1
1948 99 1
1948 323 1
1948 2893 1
1949 7 1
1949 203 1
1949 1385 1
1949 1592 1
1949 2266 1
1950 9 1
1950 242 1
1950 577 1
1950 1353 1
1950 2418 1
1951 173 1
1951 398 1
1951 1069 1
1951 1398 1
1952 2 1
1952 4 1
1952 76 1
1952 217 1
1952 2337 1
1952 2712 1
1952 2975 1
1952 2991 1
1953 15 1
1953 19 1
1953 138 1
1953 587 1
1953 2173 1
1953 2604 1
1953 2641 1
1954 63 1
1954 180 1
1954 472 1
1954 1733 1
1955 2 1
1955 119 1
1955 128 1
1955 177 1
1956 117 1
1956 205 1
1956 531 1
1956 1715 1
1956 2652 1
1957 1 1
1957 579 1
1957 582 1
1957 1796 1
1957 2408 1
1957 2815 1
1957 2985 1
1958 84 1
1958 495 1
1958 543 1
1958 1690 1
1958 2067 1
1959 99 1
1959 175 1
1959 189 1
1959 462 1
1959 2803 1
1960 25 1
1960 921 1
1960 1134 1
1960 1356 1
1960 2130 1
1960 2838 1
1961 3 1
1961 23 1
1961 241 1
1961 563 1
1962 21 1
1962 48 1
1962 392 1
1962 599 1
1962 2385 1
1963 153 1
1963 673 1
1963 679 1
1963 1068 1
1964 146 1
1964 398 1
1964 863 1
1964 1875 1
1965 1031 1
1965 1293 1
1965 1646 1
1965 1876 1
1965 2015 1
1965 2248 1
1966 299 1
1966 380 1
1966 788 1
1966 1487 1
1967 26 1
1967 82 1
1967 290 1
1967 1612 1
1968 47 1
1968 70 1
1968 610 1
1968 1917 1
1968 2007 1
1968 2832 1
1969 17 1
1969 302 1
1969 507 1
1969 603 1
1969 2627 1
1970 372 1
1970 580 1
1970 649 1
1970 1161 1
1970 2012 1
1971 165 1
1971 817 1
1971 1519 1
1971 1702 1
1972 64 1
1972 499 1
1972 501 1
1972 591 1
1972 1978 1
1973 134 1
1973 584 1
1973 790 1
1973 1702 1
1973 2590 1
1974 23 1
1974 80 1
1974 119 1
1974 956 1
1975 601 1
1975 832 1
1975 1463 1
1975 1753 1
1975 2372 1
1976 1 1
1976 37 1
1976 93 1
1976 116 1
1976 2533 1
1976 2809 1
1977 545 1
1977 602 1
1977 998 1
1977 1675 1
1977 2038 1
1978 60 1
1978 192 1
1978 539 1
1978 1972 1
1979 1 1
1979 2 1
1979 21 1
1979 1799 1
1979 2225 1
1979 2629 1
1980 7 1
1980 529 1
1980 1006 1
1980 1936 1
1981 10 1
1981 48 1
1981 257 1
1981 279 1
1982 391 1
1982 628 1
1982 1329 1
1982 1621 1
1983 25 1
1983 85 1
1983 1195 1
1983 1302 1
1983 2160 1
1984 50 1
1984 207 1
1984 1086 1
1984 1631 1
1985 6 1
1985 24 1
1985 713 1
1985 970 1
1986 9 1
1986 12 1
1986 345 1
1986 480 1
1986 2113 1
1986 2665 1
1987 434 1
1987 506 1
1987 519 1
1987 1849 1
1987 2951 1
1988 36 1
1988 201 1
1988 1335 1
1988 1384 1
1988 2807 1
1988 2987 1
1989 1 1
1989 35 1
1989 56 1
1989 659 1
1989 2091 1
1989 2622 1
1990 62 1
1990 377 1
1990 1391 1
1990 1842 1
1990 2911 1
1991 9 1
1991 647 1
1991 1319 1
1991 1914 1
1992 1 1
1992 140 1
1992 1163 1
1992 1186 1
1993 79 1
1993 558 1
1993 888 1
1993 1484 1
1994 59 1
1994 179 1
1994 1234 1
1994 1444 1
1995 694 1
1995 794 1
1995 853 1
1995 1370 1
1996 6 1
1996 142 1
1996 306 1
1996 539 1
1996 2339 1
1996 2659 1
1996 2770 1
1997 19 1
1997 642 1
1997 772 1
1997 1731 1
1997 2057 1
1998 376 1
1998 482 1
1998 727 1
1998 770 1
1999 79 1
1999 156 1
1999 198 1
1999 1522 1
1999 2997 1
2000 151 1
2000 286 1
2000 917 1
2000 1859 1
2001 76 1
2001 142 1
2001 401 1
2001 1388 1
2002 222 1
2002 323 1
2002 1198 1
2002 1396 1
2002 2582 1
2003 3 1
2003 71 1
2003 313 1
2003 503 1
2004 601 1
2004 612 1
2004 1197 1
2004 1698 1
2004 2676 1
2004 2899 1
2005 131 1
2005 181 1
2005 512 1
2005 828 1
2006 287 1
2006 462 1
2006 476 1
2006 1478 1
2007 15 1
2007 213 1
2007 254 1
2007 1968 1
2007 2400 1
2008 13 1
2008 145 1
2008 295 1
2008 1298 1
2008 2699 1
2009 139 1
2009 258 1
2009 812 1
2009 817 1
2009 2125 1
2010 49 1
2010 134 1
2010 357 1
2010 1857 1
2011 38 1
2011 59 1
2011 759 1
2011 1860 1
2012 273 1
2012 610 1
2012 665 1
2012 1970 1
2012 2137 1
2013 19 1
2013 343 1
2013 385 1
2013 823 1
2014 10 1
2014 76 1
2014 157 1
2014 1681 1
2015 148 1
2015 466 1
2015 490 1
2015 1965 1
2015 2165 1
2015 2413 1
2016 66 1
2016 139 1
2016 694 1
2016 701 1
2016 2456 1
2016 2490 1
2016 2556 1
2017 13 1
2017 44 1
2017 588 1
2017 1404 1
2017 2528 1
2017 2781 1
2018 9 1
2018 1179 1
2018 1374 1
2018 1926 1
2018 2656 1
2019 25 1
2019 175 1
2019 1515 1
2019 1662 1
2019 2088 1
2020 81 1
2020 205 1
2020 371 1
2020 932 1
2021 87 1
2021 134 1
2021 586 1
2021 946 1
2022 115 1
2022 200 1
2022 327 1
2022 1463 1
2023 20 1
2023 21 1
2023 276 1
2023 841 1
2023 2359 1
2023 2568 1
2024 9 1
2024 63 1
2024 173 1
2024 1847 1
2025 7 1
2025 13 1
2025 74 1
2025 1807 1
2026 25 1
2026 60 1
2026 316 1
2026 1195 1
2027 4 1
2027 7 1
2027 577 1
2027 1533 1
2027 2334 1
2027 2569 1
2028 194 1
2028 315 1
2028 630 1
2028 1936 1
2028 2374 1
2029 9 1
2029 347 1
2029 563 1
2029 1218 1
2030 1 1
2030 62 1
2030 712 1
2030 787 1
2030 2376 1
2030 2543 1
2031 75 1
2031 345 1
2031 716 1
2031 1696 1
2031 2296 1
2032 17 1
2032 25 1
2032 821 1
2032 1758 1
2033 178 1
2033 266 1
2033 359 1
2033 1890 1
2034 60 1
2034 584 1
2034 1809 1
2034 1885 1
2034 2239 1
2034 2817 1
2035 129 1
2035 376 1
2035 866 1
2035 1715 1
2036 159 1
2036 283 1
2036 290 1
2036 985 1
2037 162 1
2037 861 1
2037 972 1
2037 1617 1
2037 2693 1
2037 2829 1
2038 204 1
2038 439 1
2038 1941 1
2038 1977 1
2038 2735 1
2039 27 1
2039 117 1
2039 203 1
2039 1308 1
2039 2218 1
2039 2796 1
2040 86 1
2040 221 1
2040 492 1
2040 520 1
2041 42 1
2041 662 1
2041 1116 1
2041 1314 1
2042 40 1
2042 347 1
2042 669 1
2042 991 1
2043 32 1
2043 106 1
2043 349 1
2043 1023 1
2043 2341 1
2043 2386 1
2044 60 1
2044 748 1
2044 1180 1
2044 1251 1
2044 2113 1
2044 2737 1
2045 8 1
2045 258 1
2045 369 1
2045 448 1
2046 1 1
2046 120 1
2046 708 1
2046 1182 1
2047 4 1
2047 182 1
2047 1157 1
2047 1450 1
2047 2162 1
2048 132 1
2048 264 1
2048 598 1
2048 909 1
2049 74 1
2049 618 1
2049 637 1
2049 1245 1
2049 2550 1
2050 35 1
2050 255 1
2050 460 1
2050 944 1
2050 2520 1
2051 93 1
2051 340 1
2051 345 1
2051 1554 1
2051 2356 1
2052 25 1
2052 258 1
2052 976 1
2052 1695 1
2052 2702 1
2053 198 1
2053 381 1
2053 862 1
2053 1021 1
2053 2148 1
2054 19 1
2054 50 1
2054 352 1
2054 935 1
2055 169 1
2055 259 1
2055 472 1
2055 1351 1
2056 17 1
2056 24 1
2056 104 1
2056 398 1
2057 255 1
2057 318 1
2057 1111 1
2057 1997 1
2057 2063 1
2058 5 1
2058 24 1
2058 150 1
2058 364 1
2058 2235 1
2058 2761 1
2059 79 1
2059 257 1
2059 473 1
2059 818 1
2060 13 1
2060 230 1
2060 289 1
2060 774 1
2060 2526 1
2061 257 1
2061 296 1
2061 1067 1
2061 1768 1
2061 2882 1
2062 14 1
2062 23 1
2062 664 1
2062 1894 1
2062 2847 1
2063 471 1
2063 862 1
2063 1244 1
2063 2057 1
2063 2086 1
2063 2498 1
2064 6 1
2064 9 1
2064 207 1
2064 492 1
2064 2673 1
2064 2701 1
2064 2795 1
2064 2868 1
2065 27 1
2065 275 1
2065 926 1
2065 1027 1
2065 2215 1
2065 2746 1
2065 2982 1
2066 76 1
2066 464 1
2066 1142 1
2066 1182 1
2066 2433 1
2066 2780 1
2067 485 1
2067 1156 1
2067 1559 1
2067 1958 1
2068 1 1
2068 211 1
2068 1042 1
2068 1446 1
2069 104 1
2069 210 1
2069 619 1
2069 1788 1
2069 2207 1
2069 2465 1
2070 420 1
2070 437 1
2070 874 1
2070 1258 1
2071 55 1
2071 103 1
2071 515 1
2071 583 1
2072 162 1
2072 336 1
2072 699 1
2072 1486 1
2072 2159 1
2073 201 1
2073 648 1
2073 722 1
2073 983 1
2073 2074 1
2074 261 1
2074 867 1
2074 1781 1
2074 2073 1
2075 77 1
2075 513 1
2075 673 1
2075 955 1
2075 2555 1
2076 272 1
2076 784 1
2076 939 1
2076 1736 1
2076 2387 1
2077 247 1
2077 355 1
2077 964 1
2077 1019 1
2077 2319 1
2078 68 1
2078 199 1
2078 322 1
2078 792 1
2078 2436 1
2079 59 1
2079 131 1
2079 1494 1
2079 1882 1
2080 119 1
2080 589 1
2080 1463 1
2080 1482 1
2080 2095 1
2081 82 1
2081 1161 1
2081 1411 1
2081 1660 1
2081 2303 1
2082 65 1
2082 1094 1
2082 1253 1
2082 1547 1
2082 2507 1
2082 2750 1
2083 104 1
2083 439 1
2083 816 1
2083 1327 1
2083 2385 1
2084 40 1
2084 289 1
2084 659 1
2084 836 1
2084 2353 1
2085 9 1
2085 32 1
2085 732 1
2085 1628 1
2085 2518 1
2086 38 1
2086 556 1
2086 647 1
2086 2063 1
2087 356 1
2087 378 1
2087 785 1
2087 946 1
2087 2589 1
2088 177 1
2088 368 1
2088 760 1
2088 2019 1
2089 65 1
2089 161 1
2089 492 1
2089 1735 1
2089 2817 1
2089 2903 1
2090 478 1
2090 758 1
2090 1080 1
2090 1332 1
2090 2112 1
2091 1182 1
2091 1589 1
2091 1862 1
2091 1989 1
2092 48 1
2092 759 1
2092 1615 1
2092 1761 1
2093 19 1
2093 223 1
2093 983 1
2093 991 1
2093 2572 1
2094 117 1
2094 241 1
2094 322 1
2094 966 1
2095 75 1
2095 811 1
2095 1116 1
2095 2080 1
2096 595 1
2096 598 1
2096 1464 1
2096 1527 1
2096 2265 1
2097 2 1
2097 6 1
2097 38 1
2097 1145 1
2097 2118 1
2097 2222 1
2097 2576 1
2098 40 1
2098 521 1
2098 906 1
2098 1588 1
2098 2685 1
2099 102 1
2099 615 1
2099 737 1
2099 1660 1
2099 2468 1
2100 345 1
2100 915 1
2100 1608 1
2100 1939 1
2101 124 1
2101 1010 1
2101 1087 1
2101 1411 1
2101 2269 1
2102 23 1
2102 371 1
2102 567 1
2102 644 1
2102 2108 1
2102 2909 1
2103 56 1
2103 574 1
2103 598 1
2103 1849 1
2103 2312 1
2104 246 1
2104 253 1
2104 377 1
2104 420 1
2105 242 1
2105 257 1
2105 1581 1
2105 1709 1
2105 2332 1
2106 169 1
2106 280 1
2106 343 1
2106 1056 1
2106 2395 1
2107 66 1
2107 77 1
2107 285 1
2107 794 1
2107 2246 1
2107 2778 1
2108 79 1
2108 198 1
2108 429 1
2108 2102 1
2108 2595 1
2109 64 1
2109 125 1
2109 761 1
2109 1146 1
2110 19 1
2110 25 1
2110 770 1
2110 1432 1
2111 147 1
2111 494 1
2111 815 1
2111 955 1
2112 73 1
2112 254 1
2112 1620 1
2112 2090 1
2112 2867 1
2113 931 1
2113 1754 1
2113 1986 1
2113 2044 1
2114 74 1
2114 287 1
2114 614 1
2114 1655 1
2114 2960 1
2115 10 1
2115 133 1
2115 297 1
2115 559 1
2116 95 1
2116 231 1
2116 659 1
2116 880 1
2116 2340 1
2117 6 1
2117 380 1
2117 1467 1
2117 1942 1
2118 128 1
2118 1525 1
2118 1608 1
2118 2097 1
2118 2947 1
2119 5 1
2119 102 1
2119 171 1
2119 326 1
2119 2126 1
2119 2195 1
2120 23 1
2120 125 1
2120 921 1
2120 1050 1
2120 2416 1
2120 2835 1
2121 3 1
2121 8 1
2121 1395 1
2121 1525 1
2121 2387 1
2122 13 1
2122 34 1
2122 79 1
2122 152 1
2123 135 1
2123 158 1
2123 690 1
2123 1253 1
2123 2232 1
2124 28 1
2124 818 1
2124 874 1
2124 1010 1
2124 2444 1
2124 2497 1
2125 171 1
2125 230 1
2125 481 1
2125 2009 1
2125 2286 1
2125 2588 1
2125 2713 1
2125 2814 1
2125 2894 1
2126 133 1
2126 1317 1
2126 1352 1
2126 2119 1
2126 2158 1
2126 2186 1
2127 45 1
2127 125 1
2127 256 1
2127 1180 1
2128 98 1
2128 259 1
2128 622 1
2128 1134 1
2129 386 1
2129 632 1
2129 1463 1
2129 1929 1
2130 27 1
2130 1318 1
2130 1578 1
2130 1960 1
2131 1 1
2131 475 1
2131 493 1
2131 1570 1
2132 134 1
2132 267 1
2132 672 1
2132 1386 1
2132 2272 1
2133 68 1
2133 126 1
2133 146 1
2133 1853 1
2134 25 1
2134 119 1
2134 242 1
2134 1493 1
2135 118 1
2135 128 1
2135 1135 1
2135 1829 1
2135 2256 1
2135 2545 1
2136 1 1
2136 13 1
2136 196 1
2136 450 1
2137 321 1
2137 665 1
2137 1750 1
2137 2012 1
2138 388 1
2138 1219 1
2138 1229 1
2138 1469 1
2138 2291 1
2139 23 1
2139 114 1
2139 145 1
2139 271 1
2139 2929 1
2140 141 1
2140 401 1
2140 1467 1
2140 1889 1
2141 25 1
2141 51 1
2141 343 1
2141 1768 1
2142 127 1
2142 398 1
2142 1321 1
2142 1638 1
2143 223 1
2143 530 1
2143 1178 1
2143 1251 1
2144 398 1
2144 1499 1
2144 1687 1
2144 1936 1
2145 1 1
2145 179 1
2145 868 1
2145 1664 1
2146 402 1
2146 1298 1
2146 1494 1
2146 1508 1
2146 2209 1
2146 2807 1
2147 36 1
2147 130 1
2147 627 1
2147 1547 1
2147 2404 1
2148 111 1
2148 212 1
2148 1328 1
2148 2053 1
2149 54 1
2149 374 1
2149 661 1
2149 1862 1
2150 6 1
2150 901 1
2150 1513 1
2150 1682 1
2150 2659 1
2151 608 1
2151 1214 1
2151 1219 1
2151 1691 1
2152 79 1
2152 192 1
2152 741 1
2152 1713 1
2152 2871 1
2153 1 1
2153 23 1
2153 594 1
2153 691 1
2153 2558 1
2154 8 1
2154 25 1
2154 1439 1
2154 1551 1
2154 2446 1
2155 8 1
2155 281 1
2155 347 1
2155 1731 1
2156 427 1
2156 439 1
2156 1157 1
2156 1331 1
2157 6 1
2157 159 1
2157 574 1
2157 1934 1
2158 7 1
2158 203 1
2158 1263 1
2158 2126 1
2159 57 1
2159 286 1
2159 1450 1
2159 2072 1
2160 377 1
2160 415 1
2160 677 1
2160 1983 1
2160 2453 1
2160 2495 1
2161 1167 1
2161 1311 1
2161 1729 1
2161 1795 1
2161 2418 1
2162 21 1
2162 134 1
2162 815 1
2162 2047 1
2163 9 1
2163 45 1
2163 307 1
2163 1145 1
2163 2594 1
2164 238 1
2164 556 1
2164 1334 1
2164 1425 1
2165 75 1
2165 145 1
2165 220 1
2165 2015 1
2165 2536 1
2165 2711 1
2166 223 1
2166 401 1
2166 880 1
2166 1229 1
2166 2227 1
2167 52 1
2167 667 1
2167 1585 1
2167 1838 1
2168 87 1
2168 340 1
2168 748 1
2168 1281 1
2169 1 1
2169 926 1
2169 1220 1
2169 1549 1
2169 2851 1
2170 257 1
2170 480 1
2170 860 1
2170 1179 1
2170 2636 1
2171 6 1
2171 1575 1
2171 1626 1
2171 1942 1
2172 683 1
2172 1098 1
2172 1477 1
2172 1539 1
2172 2328 1
2172 2624 1
2173 242 1
2173 822 1
2173 1380 1
2173 1953 1
2173 2390 1
2173 2440 1
2173 2714 1
2173 2920 1
2174 113 1
2174 177 1
2174 851 1
2174 1547 1
2174 2510 1
2175 25 1
2175 454 1
2175 1092 1
2175 1423 1
2175 2234 1
2176 179 1
2176 320 1
2176 456 1
2176 1788 1
2176 2614 1
2176 2774 1
2177 413 1
2177 787 1
2177 909 1
2177 1396 1
2178 155 1
2178 198 1
2178 451 1
2178 794 1
2178 2665 1
2178 2732 1
2179 54 1
2179 145 1
2179 556 1
2179 1454 1
2180 4 1
2180 134 1
2180 139 1
2180 1096 1
2180 2716 1
2181 22 1
2181 34 1
2181 36 1
2181 473 1
2182 118 1
2182 210 1
2182 258 1
2182 379 1
2183 200 1
2183 215 1
2183 915 1
2183 1286 1
2184 23 1
2184 254 1
2184 483 1
2184 1115 1
2185 125 1
2185 495 1
2185 502 1
2185 683 1
2185 2200 1
2186 73 1
2186 1463 1
2186 1832 1
2186 2126 1
2186 2198 1
2187 1 1
2187 10 1
2187 562 1
2187 1748 1
2187 2408 1
2188 34 1
2188 114 1
2188 938 1
2188 1763 1
2188 2590 1
2189 142 1
2189 518 1
2189 679 1
2189 1332 1
2190 8 1
2190 261 1
2190 507 1
2190 554 1
2191 343 1
2191 369 1
2191 378 1
2191 1606 1
2191 2360 1
2192 132 1
2192 158 1
2192 269 1
2192 774 1
2193 306 1
2193 547 1
2193 1045 1
2193 1744 1
2193 2287 1
2194 398 1
2194 508 1
2194 1139 1
2194 1850 1
2195 841 1
2195 974 1
2195 1152 1
2195 2119 1
2196 115 1
2196 473 1
2196 597 1
2196 618 1
2197 22 1
2197 79 1
2197 190 1
2197 888 1
2198 326 1
2198 571 1
2198 1463 1
2198 2186 1
2198 2859 1
2198 2881 1
2199 4 1
2199 35 1
2199 402 1
2199 754 1
2200 8 1
2200 24 1
2200 502 1
2200 2185 1
2200 2344 1
2201 26 1
2201 790 1
2201 864 1
2201 1057 1
2202 212 1
2202 1324 1
2202 1439 1
2202 1724 1
2202 2340 1
2203 80 1
2203 226 1
2203 472 1
2203 1487 1
2204 6 1
2204 632 1
2204 1825 1
2204 1901 1
2204 2797 1
2205 19 1
2205 75 1
2205 669 1
2205 672 1
2206 6 1
2206 16 1
2206 273 1
2206 356 1
2207 9 1
2207 10 1
2207 931 1
2207 2069 1
2208 45 1
2208 95 1
2208 615 1
2208 1022 1
2208 2830 1
2209 6 1
2209 156 1
2209 486 1
2209 2146 1
2210 25 1
2210 1098 1
2210 1142 1
2210 1522 1
2211 163 1
2211 491 1
2211 1296 1
2211 1548 1
2212 219 1
2212 473 1
2212 896 1
2212 1163 1
2213 267 1
2213 356 1
2213 381 1
2213 1804 1
2213 2472 1
2213 2809 1
2214 8 1
2214 214 1
2214 481 1
2214 935 1
2215 56 1
2215 624 1
2215 659 1
2215 2065 1
2215 2828 1
2216 360 1
2216 460 1
2216 475 1
2216 1286 1
2217 28 1
2217 48 1
2217 682 1
2217 1124 1
2218 100 1
2218 163 1
2218 1111 1
2218 2039 1
2219 622 1
2219 933 1
2219 1388 1
2219 1727 1
2219 2848 1
2220 10 1
2220 23 1
2220 305 1
2220 1801 1
2221 40 1
2221 343 1
2221 1659 1
2221 1846 1
2222 40 1
2222 372 1
2222 526 1
2222 2097 1
2222 2787 1
2223 4 1
2223 794 1
2223 989 1
2223 1939 1
2224 4 1
2224 56 1
2224 561 1
2224 680 1
2225 6 1
2225 264 1
2225 1348 1
2225 1979 1
2225 2438 1
2225 2700 1
2226 207 1
2226 272 1
2226 811 1
2226 1318 1
2227 96 1
2227 195 1
2227 896 1
2227 2166 1
2228 6 1
2228 86 1
2228 475 1
2228 1777 1
2229 10 1
2229 297 1
2229 412 1
2229 1903 1
2229 2237 1
2229 2349 1
2230 115 1
2230 273 1
2230 434 1
2230 1171 1
2231 9 1
2231 201 1
2231 447 1
2231 1535 1
2232 664 1
2232 1157 1
2232 1584 1
2232 2123 1
2233 5 1
2233 1386 1
2233 1389 1
2233 1835 1
2234 406 1
2234 1323 1
2234 1766 1
2234 2175 1
2235 681 1
2235 1797 1
2235 1896 1
2235 2058 1
2235 2634 1
2236 1 1
2236 536 1
2236 895 1
2236 1350 1
2237 131 1
2237 734 1
2237 1417 1
2237 2229 1
2237 2370 1
2238 79 1
2238 811 1
2238 1224 1
2238 1409 1
2239 62 1
2239 546 1
2239 985 1
2239 2034 1
2239 2447 1
2240 112 1
2240 535 1
2240 1123 1
2240 1589 1
2241 160 1
2241 729 1
2241 996 1
2241 1433 1
2241 2508 1
2241 2989 1
2242 113 1
2242 127 1
2242 427 1
2242 981 1
2242 2432 1
2243 81 1
2243 151 1
2243 475 1
2243 1084 1
2244 3 1
2244 65 1
2244 359 1
2244 833 1
2244 2371 1
2244 2542 1
2244 2588 1
2244 2801 1
2245 41 1
2245 208 1
2245 1262 1
2245 1417 1
2246 59 1
2246 696 1
2246 1080 1
2246 2107 1
2247 104 1
2247 132 1
2247 431 1
2247 1376 1
2247 2398 1
2248 169 1
2248 398 1
2248 1573 1
2248 1965 1
2248 2362 1
2249 33 1
2249 79 1
2249 719 1
2249 1761 1
2250 43 1
2250 1094 1
2250 1522 1
2250 1608 1
2250 2552 1
2251 165 1
2251 218 1
2251 264 1
2251 486 1
2251 2993 1
2252 220 1
2252 320 1
2252 348 1
2252 1286 1
2252 2678 1
2253 183 1
2253 203 1
2253 1372 1
2253 1545 1
2254 6 1
2254 239 1
2254 427 1
2254 1551 1
2255 33 1
2255 50 1
2255 124 1
2255 1893 1
2256 6 1
2256 19 1
2256 1725 1
2256 2135 1
2256 2731 1
2257 239 1
2257 258 1
2257 814 1
2257 1063 1
2258 41 1
2258 86 1
2258 173 1
2258 1412 1
2258 2516 1
2259 33 1
2259 328 1
2259 701 1
2259 1234 1
2260 7 1
2260 13 1
2260 185 1
2260 1459 1
2260 2949 1
2261 67 1
2261 745 1
2261 1228 1
2261 1935 1
2262 55 1
2262 200 1
2262 244 1
2262 326 1
2262 2360 1
2262 2460 1
2263 8 1
2263 989 1
2263 1293 1
2263 1779 1
2263 2650 1
2263 2721 1
2263 2775 1
2263 2953 1
2264 204 1
2264 336 1
2264 913 1
2264 1176 1
2265 62 1
2265 78 1
2265 989 1
2265 2096 1
2265 2528 1
2265 2685 1
2266 73 1
2266 244 1
2266 1229 1
2266 1949 1
2267 199 1
2267 367 1
2267 627 1
2267 1153 1
2268 12 1
2268 26 1
2268 703 1
2268 1070 1
2269 1244 1
2269 1389 1
2269 1450 1
2269 2101 1
2269 2425 1
2269 2577 1
2269 2623 1
2270 7 1
2270 54 1
2270 104 1
2270 1551 1
2271 4 1
2271 451 1
2271 827 1
2271 1748 1
2272 45 1
2272 64 1
2272 208 1
2272 2132 1
2272 2735 1
2273 67 1
2273 135 1
2273 326 1
2273 885 1
2273 2771 1
2274 23 1
2274 40 1
2274 1087 1
2274 1548 1
2275 134 1
2275 245 1
2275 1535 1
2275 1615 1
2275 2921 1
2276 562 1
2276 918 1
2276 1139 1
2276 1718 1
2276 2477 1
2276 2494 1
2277 472 1
2277 765 1
2277 941 1
2277 1666 1
2277 2979 1
2278 454 1
2278 891 1
2278 1227 1
2278 1436 1
2278 2385 1
2279 204 1
2279 1081 1
2279 1317 1
2279 1571 1
2279 2585 1
2280 283 1
2280 394 1
2280 614 1
2280 788 1
2281 8 1
2281 100 1
2281 1131 1
2281 1942 1
2282 5 1
2282 25 1
2282 396 1
2282 1411 1
2283 25 1
2283 670 1
2283 965 1
2283 1339 1
2283 2559 1
2284 79 1
2284 817 1
2284 1031 1
2284 1831 1
2285 200 1
2285 207 1
2285 1041 1
2285 1142 1
2286 355 1
2286 1691 1
2286 1861 1
2286 2125 1
2286 2467 1
2287 115 1
2287 119 1
2287 305 1
2287 2193 1
2287 2341 1
2288 4 1
2288 171 1
2288 307 1
2288 413 1
2289 175 1
2289 203 1
2289 302 1
2289 401 1
2290 22 1
2290 87 1
2290 458 1
2290 622 1
2291 177 1
2291 369 1
2291 1906 1
2291 2138 1
2291 2348 1
2292 105 1
2292 473 1
2292 1451 1
2292 1939 1
2293 177 1
2293 560 1
2293 653 1
2293 1209 1
2294 5 1
2294 475 1
2294 1904 1
2294 1944 1
2295 734 1
2295 1192 1
2295 1281 1
2295 1585 1
2296 15 1
2296 642 1
2296 1753 1
2296 2031 1
2296 2670 1
2297 26 1
2297 168 1
2297 254 1
2297 261 1
2298 194 1
2298 574 1
2298 590 1
2298 699 1
2299 20 1
2299 78 1
2299 680 1
2299 1208 1
2300 34 1
2300 192 1
2300 1156 1
2300 1659 1
2300 2755 1
2301 78 1
2301 171 1
2301 396 1
2301 465 1
2302 85 1
2302 336 1
2302 835 1
2302 1008 1
2302 2479 1
2302 2860 1
2303 8 1
2303 203 1
2303 1359 1
2303 2081 1
2304 398 1
2304 517 1
2304 936 1
2304 988 1
2305 9 1
2305 47 1
2305 267 1
2305 519 1
2306 158 1
2306 1180 1
2306 1456 1
2306 1486 1
2307 280 1
2307 652 1
2307 1467 1
2307 1781 1
2308 56 1
2308 103 1
2308 1321 1
2308 1517 1
2308 2916 1
2309 17 1
2309 497 1
2309 762 1
2309 1862 1
2309 2762 1
2310 920 1
2310 980 1
2310 1152 1
2310 1608 1
2311 1 1
2311 15 1
2311 659 1
2311 868 1
2311 2896 1
2312 16 1
2312 238 1
2312 1508 1
2312 2103 1
2312 2569 1
2313 69 1
2313 377 1
2313 433 1
2313 899 1
2314 6 1
2314 607 1
2314 828 1
2314 1171 1
2314 2584 1
2315 162 1
2315 474 1
2315 538 1
2315 1023 1
2316 242 1
2316 647 1
2316 909 1
2316 1624 1
2317 7 1
2317 118 1
2317 400 1
2317 1434 1
2318 261 1
2318 823 1
2318 979 1
2318 1541 1
2319 64 1
2319 83 1
2319 264 1
2319 2077 1
2319 2392 1
2319 2440 1
2319 2501 1
2320 382 1
2320 465 1
2320 700 1
2320 1318 1
2321 104 1
2321 444 1
2321 813 1
2321 1254 1
2321 2581 1
2322 56 1
2322 835 1
2322 1302 1
2322 1730 1
2322 2839 1
2323 41 1
2323 720 1
2323 1069 1
2323 1267 1
2323 2399 1
2324 194 1
2324 265 1
2324 1291 1
2324 1710 1
2324 2965 1
2325 782 1
2325 815 1
2325 1027 1
2325 1238 1
2326 132 1
2326 233 1
2326 595 1
2326 1126 1
2326 2548 1
2326 2818 1
2327 50 1
2327 157 1
2327 450 1
2327 831 1
2328 60 1
2328 376 1
2328 414 1
2328 2172 1
2329 77 1
2329 672 1
2329 768 1
2329 865 1
2330 175 1
2330 385 1
2330 1021 1
2330 1617 1
2331 287 1
2331 519 1
2331 771 1
2331 867 1
2331 2533 1
2332 277 1
2332 797 1
2332 1298 1
2332 2105 1
2333 1 1
2333 703 1
2333 786 1
2333 1921 1
2333 2422 1
2334 74 1
2334 238 1
2334 1751 1
2334 2027 1
2334 2347 1
2335 582 1
2335 1089 1
2335 1583 1
2335 1590 1
2335 2973 1
2336 23 1
2336 257 1
2336 681 1
2336 725 1
2336 2508 1
2336 2878 1
2337 14 1
2337 286 1
2337 414 1
2337 1952 1
2337 2782 1
2338 60 1
2338 296 1
2338 1368 1
2338 1398 1
2339 18 1
2339 502 1
2339 1051 1
2339 1996 1
2340 343 1
2340 1234 1
2340 2116 1
2340 2202 1
2341 164 1
2341 1942 1
2341 2043 1
2341 2287 1
2342 296 1
2342 1157 1
2342 1395 1
2342 1830 1
2343 5 1
2343 321 1
2343 523 1
2343 1090 1
2343 2568 1
2343 2766 1
2344 117 1
2344 345 1
2344 386 1
2344 2200 1
2345 24 1
2345 43 1
2345 79 1
2345 566 1
2345 2794 1
2346 15 1
2346 315 1
2346 985 1
2346 1731 1
2347 7 1
2347 900 1
2347 1865 1
2347 2334 1
2347 2525 1
2348 3 1
2348 4 1
2348 143 1
2348 2291 1
2349 79 1
2349 315 1
2349 1286 1
2349 2229 1
2350 8 1
2350 249 1
2350 614 1
2350 905 1
2351 25 1
2351 480 1
2351 1277 1
2351 1420 1
2352 10 1
2352 39 1
2352 1368 1
2352 1831 1
2353 37 1
2353 146 1
2353 542 1
2353 2084 1
2353 2462 1
2354 51 1
2354 361 1
2354 672 1
2354 1207 1
2354 2619 1
2355 937 1
2355 1616 1
2355 1789 1
2355 1920 1
2355 2749 1
2356 1022 1
2356 1222 1
2356 1451 1
2356 2051 1
2357 21 1
2357 793 1
2357 1263 1
2357 1294 1
2358 6 1
2358 1441 1
2358 1634 1
2358 1760 1
2359 10 1
2359 584 1
2359 620 1
2359 2023 1
2360 319 1
2360 1737 1
2360 2191 1
2360 2262 1
2361 34 1
2361 295 1
2361 628 1
2361 788 1
2361 2870 1
2361 2875 1
2362 21 1
2362 232 1
2362 1049 1
2362 2248 1
2362 2553 1
2363 49 1
2363 69 1
2363 506 1
2363 1068 1
2363 2836 1
2364 6 1
2364 103 1
2364 389 1
2364 575 1
2365 49 1
2365 54 1
2365 179 1
2365 247 1
2365 2405 1
2365 2691 1
2366 36 1
2366 43 1
2366 1134 1
2366 1386 1
2366 2961 1
2367 194 1
2367 733 1
2367 974 1
2367 1761 1
2368 63 1
2368 73 1
2368 362 1
2368 542 1
2369 12 1
2369 15 1
2369 439 1
2369 862 1
2370 18 1
2370 761 1
2370 842 1
2370 2237 1
2371 386 1
2371 811 1
2371 1735 1
2371 2244 1
2372 24 1
2372 40 1
2372 113 1
2372 1975 1
2373 41 1
2373 90 1
2373 177 1
2373 1459 1
2374 32 1
2374 67 1
2374 516 1
2374 2028 1
2375 481 1
2375 763 1
2375 1038 1
2375 1487 1
2376 225 1
2376 270 1
2376 699 1
2376 2030 1
2376 2752 1
2377 105 1
2377 767 1
2377 1152 1
2377 1412 1
2377 2541 1
2378 283 1
2378 343 1
2378 647 1
2378 1838 1
2379 14 1
2379 386 1
2379 774 1
2379 1148 1
2380 19 1
2380 443 1
2380 468 1
2380 631 1
2381 10 1
2381 201 1
2381 600 1
2381 770 1
2382 490 1
2382 661 1
2382 1173 1
2382 1232 1
2383 13 1
2383 627 1
2383 1080 1
2383 1241 1
2384 157 1
2384 472 1
2384 816 1
2384 1497 1
2385 1045 1
2385 1962 1
2385 2083 1
2385 2278 1
2386 206 1
2386 473 1
2386 854 1
2386 2043 1
2387 391 1
2387 1363 1
2387 2076 1
2387 2121 1
2387 2460 1
2387 2857 1
2388 76 1
2388 328 1
2388 1081 1
2388 1886 1
2388 2709 1
2388 2943 1
2389 247 1
2389 352 1
2389 440 1
2389 1465 1
2389 2532 1
2390 153 1
2390 323 1
2390 1308 1
2390 2173 1
2390 2434 1
2391 70 1
2391 369 1
2391 1097 1
2391 1139 1
2392 58 1
2392 137 1
2392 757 1
2392 2319 1
2392 2503 1
2392 2866 1
2393 341 1
2393 499 1
2393 1282 1
2393 1547 1
2394 13 1
2394 310 1
2394 1592 1
2394 1875 1
2394 2741 1
2395 21 1
2395 150 1
2395 1286 1
2395 2106 1
2396 129 1
2396 398 1
2396 575 1
2396 1041 1
2397 17 1
2397 60 1
2397 1153 1
2397 1877 1
2398 50 1
2398 1353 1
2398 1913 1
2398 2247 1
2398 2979 1
2399 169 1
2399 579 1
2399 674 1
2399 2323 1
2400 827 1
2400 1656 1
2400 1811 1
2400 2007 1
2401 19 1
2401 828 1
2401 1619 1
2401 1727 1
2402 16 1
2402 124 1
2402 341 1
2402 1329 1
2403 205 1
2403 232 1
2403 1292 1
2403 1528 1
2404 34 1
2404 1070 1
2404 1922 1
2404 2147 1
2405 67 1
2405 74 1
2405 1706 1
2405 2365 1
2406 67 1
2406 125 1
2406 161 1
2406 1124 1
2406 2647 1
2406 2809 1
2406 2872 1
2406 2989 1
2407 281 1
2407 299 1
2407 412 1
2407 490 1
2408 1209 1
2408 1923 1
2408 1957 1
2408 2187 1
2408 2759 1
2409 357 1
2409 578 1
2409 1650 1
2409 1688 1
2410 19 1
2410 58 1
2410 966 1
2410 1693 1
2410 2460 1
2410 2919 1
2411 10 1
2411 485 1
2411 1122 1
2411 1499 1
2412 251 1
2412 322 1
2412 699 1
2412 710 1
2412 2582 1
2413 10 1
2413 399 1
2413 557 1
2413 2015 1
2414 50 1
2414 128 1
2414 968 1
2414 1047 1
2415 1 1
2415 179 1
2415 273 1
2415 1228 1
2416 148 1
2416 444 1
2416 740 1
2416 2120 1
2417 65 1
2417 225 1
2417 321 1
2417 1918 1
2417 2482 1
2417 2499 1
2417 2663 1
2418 31 1
2418 189 1
2418 1950 1
2418 2161 1
2419 77 1
2419 84 1
2419 342 1
2419 1377 1
2420 773 1
2420 811 1
2420 1047 1
2420 1505 1
2420 2790 1
2421 2 1
2421 79 1
2421 132 1
2421 270 1
2421 2979 1
2422 125 1
2422 756 1
2422 1865 1
2422 2333 1
2423 54 1
2423 218 1
2423 686 1
2423 951 1
2423 2773 1
2424 23 1
2424 114 1
2424 194 1
2424 1101 1
2425 16 1
2425 57 1
2425 73 1
2425 2269 1
2426 66 1
2426 547 1
2426 1340 1
2426 1396 1
2427 2 1
2427 19 1
2427 579 1
2427 1348 1
2428 56 1
2428 194 1
2428 212 1
2428 287 1
2429 258 1
2429 313 1
2429 829 1
2429 1913 1
2430 41 1
2430 457 1
2430 802 1
2430 1632 1
2431 1 1
2431 218 1
2431 432 1
2431 1549 1
2432 5 1
2432 1730 1
2432 1736 1
2432 2242 1
2433 470 1
2433 625 1
2433 687 1
2433 2066 1
2434 79 1
2434 82 1
2434 89 1
2434 2390 1
2435 5 1
2435 16 1
2435 38 1
2435 1247 1
2435 2925 1
2436 114 1
2436 259 1
2436 704 1
2436 2078 1
2436 2592 1
2436 2988 1
2437 272 1
2437 467 1
2437 1086 1
2437 1412 1
2438 80 1
2438 570 1
2438 1435 1
2438 2225 1
2439 94 1
2439 117 1
2439 1294 1
2439 1687 1
2440 883 1
2440 1661 1
2440 2173 1
2440 2319 1
2440 2843 1
2441 31 1
2441 168 1
2441 219 1
2441 762 1
2442 6 1
2442 77 1
2442 140 1
2442 789 1
2442 2495 1
2442 2971 1
2443 12 1
2443 16 1
2443 268 1
2443 1043 1
2444 533 1
2444 704 1
2444 1534 1
2444 2124 1
2445 496 1
2445 709 1
2445 1452 1
2445 1826 1
2446 14 1
2446 159 1
2446 1840 1
2446 2154 1
2446 2949 1
2447 6 1
2447 34 1
2447 706 1
2447 2239 1
2448 38 1
2448 739 1
2448 1308 1
2448 1675 1
2449 25 1
2449 183 1
2449 1163 1
2449 1761 1
2449 2729 1
2450 49 1
2450 132 1
2450 777 1
2450 1765 1
2451 203 1
2451 258 1
2451 556 1
2451 1874 1
2452 328 1
2452 424 1
2452 994 1
2452 1011 1
2453 70 1
2453 792 1
2453 1840 1
2453 2160 1
2454 1271 1
2454 1419 1
2454 1702 1
2454 1848 1
2454 2977 1
2455 161 1
2455 931 1
2455 937 1
2455 1863 1
2456 33 1
2456 169 1
2456 614 1
2456 2016 1
2456 2621 1
2456 2670 1
2456 2748 1
2457 15 1
2457 334 1
2457 1184 1
2457 1702 1
2457 2804 1
2457 2885 1
2458 66 1
2458 455 1
2458 914 1
2458 1417 1
2458 2850 1
2458 2980 1
2459 6 1
2459 206 1
2459 1127 1
2459 1617 1
2459 2797 1
2460 1809 1
2460 2262 1
2460 2387 1
2460 2410 1
2461 214 1
2461 428 1
2461 1540 1
2461 1791 1
2462 722 1
2462 742 1
2462 1194 1
2462 2353 1
2462 2479 1
2463 142 1
2463 223 1
2463 1339 1
2463 1576 1
2463 2743 1
2464 7 1
2464 136 1
2464 275 1
2464 795 1
2465 270 1
2465 593 1
2465 1206 1
2465 2069 1
2466 292 1
2466 1326 1
2466 1616 1
2466 1838 1
2467 171 1
2467 194 1
2467 1539 1
2467 2286 1
2468 24 1
2468 286 1
2468 326 1
2468 2099 1
2469 31 1
2469 190 1
2469 782 1
2469 805 1
2470 328 1
2470 1341 1
2470 1570 1
2470 1922 1
2470 2744 1
2470 2808 1
2471 3 1
2471 7 1
2471 14 1
2471 122 1
2472 381 1
2472 503 1
2472 1746 1
2472 2213 1
2473 237 1
2473 357 1
2473 524 1
2473 719 1
2474 1 1
2474 267 1
2474 913 1
2474 1367 1
2474 2516 1
2475 1 1
2475 109 1
2475 138 1
2475 329 1
2476 7 1
2476 385 1
2476 854 1
2476 1108 1
2476 2504 1
2477 77 1
2477 158 1
2477 332 1
2477 2276 1
2478 290 1
2478 355 1
2478 1323 1
2478 1390 1
2478 2769 1
2479 920 1
2479 1310 1
2479 2302 1
2479 2462 1
2480 40 1
2480 169 1
2480 1251 1
2480 1727 1
2481 90 1
2481 768 1
2481 1059 1
2481 1066 1
2482 29 1
2482 100 1
2482 1687 1
2482 2417 1
2483 40 1
2483 341 1
2483 891 1
2483 1191 1
2484 3 1
2484 839 1
2484 970 1
2484 1317 1
2485 6 1
2485 539 1
2485 962 1
2485 1715 1
2486 47 1
2486 199 1
2486 382 1
2486 704 1
2486 2943 1
2487 443 1
2487 460 1
2487 941 1
2487 1519 1
2487 2499 1
2488 21 1
2488 670 1
2488 1135 1
2488 1586 1
2489 169 1
2489 259 1
2489 1272 1
2489 1668 1
2489 2930 1
2490 12 1
2490 187 1
2490 629 1
2490 2016 1
2490 2892 1
2491 7 1
2491 42 1
2491 476 1
2491 1137 1
2492 377 1
2492 765 1
2492 1065 1
2492 1488 1
2493 8 1
2493 280 1
2493 522 1
2493 1123 1
2494 87 1
2494 640 1
2494 682 1
2494 2276 1
2495 1597 1
2495 1710 1
2495 2160 1
2495 2442 1
2496 27 1
2496 114 1
2496 127 1
2496 1084 1
2497 158 1
2497 1650 1
2497 1781 1
2497 2124 1
2498 26 1
2498 115 1
2498 937 1
2498 2063 1
2499 482 1
2499 1482 1
2499 2417 1
2499 2487 1
2500 49 1
2500 168 1
2500 284 1
2500 294 1
2500 2673 1
2501 131 1
2501 277 1
2501 676 1
2501 2319 1
2501 2605 1
2502 1 1
2502 175 1
2502 196 1
2502 943 1
2502 2525 1
2503 129 1
2503 324 1
2503 994 1
2503 2392 1
2504 7 1
2504 192 1
2504 1252 1
2504 2476 1
2505 174 1
2505 210 1
2505 368 1
2505 900 1
2506 87 1
2506 122 1
2506 911 1
2506 1855 1
2507 1047 1
2507 1289 1
2507 1333 1
2507 2082 1
2508 285 1
2508 547 1
2508 2241 1
2508 2336 1
2509 8 1
2509 199 1
2509 283 1
2509 461 1
2510 161 1
2510 526 1
2510 650 1
2510 2174 1
2511 153 1
2511 922 1
2511 1407 1
2511 1418 1
2512 103 1
2512 109 1
2512 420 1
2512 1803 1
2513 43 1
2513 203 1
2513 864 1
2513 1349 1
2514 75 1
2514 115 1
2514 222 1
2514 979 1
2515 254 1
2515 708 1
2515 1105 1
2515 1809 1
2516 78 1
2516 172 1
2516 2258 1
2516 2474 1
2517 497 1
2517 618 1
2517 831 1
2517 1940 1
2518 20 1
2518 226 1
2518 1598 1
2518 2085 1
2519 265 1
2519 332 1
2519 1613 1
2519 1679 1
2520 52 1
2520 83 1
2520 1738 1
2520 2050 1
2521 79 1
2521 925 1
2521 1411 1
2521 1739 1
2521 2811 1
2521 2894 1
2522 4 1
2522 7 1
2522 387 1
2522 722 1
2523 463 1
2523 473 1
2523 671 1
2523 1038 1
2523 2736 1
2524 203 1
2524 398 1
2524 490 1
2524 639 1
2525 17 1
2525 23 1
2525 2347 1
2525 2502 1
2526 217 1
2526 1590 1
2526 1713 1
2526 2060 1
2527 4 1
2527 197 1
2527 223 1
2527 563 1
2528 25 1
2528 1827 1
2528 2017 1
2528 2265 1
2529 38 1
2529 972 1
2529 1568 1
2529 1935 1
2529 2912 1
2530 248 1
2530 497 1
2530 691 1
2530 1878 1
2531 31 1
2531 187 1
2531 388 1
2531 413 1
2532 609 1
2532 863 1
2532 884 1
2532 2389 1
2533 45 1
2533 91 1
2533 1976 1
2533 2331 1
2534 326 1
2534 1132 1
2534 1460 1
2534 1801 1
2535 301 1
2535 617 1
2535 1003 1
2535 1566 1
2536 120 1
2536 147 1
2536 1389 1
2536 2165 1
2537 58 1
2537 471 1
2537 856 1
2537 1224 1
2537 2799 1
2537 2930 1
2538 10 1
2538 287 1
2538 625 1
2538 1279 1
2538 2873 1
2539 58 1
2539 175 1
2539 261 1
2539 866 1
2540 12 1
2540 283 1
2540 394 1
2540 447 1
2541 339 1
2541 1512 1
2541 1769 1
2541 2377 1
2542 135 1
2542 442 1
2542 1153 1
2542 2244 1
2542 2786 1
2543 25 1
2543 66 1
2543 1276 1
2543 2030 1
2544 3 1
2544 1087 1
2544 1268 1
2544 1535 1
2544 2913 1
2545 23 1
2545 326 1
2545 497 1
2545 2135 1
2545 2842 1
2546 6 1
2546 134 1
2546 658 1
2546 902 1
2547 1 1
2547 77 1
2547 692 1
2547 1519 1
2548 128 1
2548 242 1
2548 1357 1
2548 2326 1
2549 124 1
2549 140 1
2549 1114 1
2549 1372 1
2550 406 1
2550 1295 1
2550 1592 1
2550 2049 1
2551 70 1
2551 429 1
2551 577 1
2551 1021 1
2552 8 1
2552 598 1
2552 1339 1
2552 2250 1
2553 5 1
2553 1038 1
2553 1679 1
2553 2362 1
2554 53 1
2554 95 1
2554 540 1
2554 765 1
2555 24 1
2555 419 1
2555 915 1
2555 2075 1
2556 345 1
2556 790 1
2556 989 1
2556 2016 1
2557 3 1
2557 4 1
2557 132 1
2557 275 1
2557 2740 1
2558 392 1
2558 581 1
2558 1206 1
2558 2153 1
2559 479 1
2559 493 1
2559 1796 1
2559 2283 1
2560 56 1
2560 283 1
2560 436 1
2560 1056 1
2561 10 1
2561 14 1
2561 89 1
2561 507 1
2562 73 1
2562 843 1
2562 1524 1
2562 1893 1
2562 2769 1
2563 7 1
2563 821 1
2563 1535 1
2563 1584 1
2564 7 1
2564 86 1
2564 124 1
2564 1459 1
2565 48 1
2565 74 1
2565 323 1
2565 804 1
2566 5 1
2566 42 1
2566 302 1
2566 760 1
2567 19 1
2567 141 1
2567 212 1
2567 613 1
2567 2782 1
2568 1116 1
2568 1473 1
2568 2023 1
2568 2343 1
2569 244 1
2569 1686 1
2569 2027 1
2569 2312 1
2570 41 1
2570 157 1
2570 197 1
2570 1231 1
2571 9 1
2571 231 1
2571 1195 1
2571 1225 1
2572 35 1
2572 909 1
2572 1874 1
2572 2093 1
2572 2763 1
2572 2918 1
2573 19 1
2573 179 1
2573 213 1
2573 681 1
2573 2788 1
2574 103 1
2574 140 1
2574 371 1
2574 1220 1
2575 14 1
2575 117 1
2575 512 1
2575 653 1
2576 45 1
2576 132 1
2576 598 1
2576 2097 1
2577 23 1
2577 247 1
2577 1940 1
2577 2269 1
2577 2955 1
2578 1 1
2578 6 1
2578 1068 1
2578 1862 1
2579 39 1
2579 75 1
2579 153 1
2579 709 1
2580 318 1
2580 503 1
2580 877 1
2580 1409 1
2581 71 1
2581 298 1
2581 1597 1
2581 2321 1
2582 125 1
2582 1675 1
2582 2002 1
2582 2412 1
2583 23 1
2583 203 1
2583 369 1
2583 606 1
2583 2958 1
2584 28 1
2584 834 1
2584 1176 1
2584 2314 1
2585 255 1
2585 615 1
2585 1157 1
2585 2279 1
2585 2999 1
2586 137 1
2586 226 1
2586 458 1
2586 784 1
2587 87 1
2587 113 1
2587 276 1
2587 1529 1
2587 2767 1
2588 175 1
2588 439 1
2588 2125 1
2588 2244 1
2589 949 1
2589 1295 1
2589 1595 1
2589 2087 1
2589 2745 1
2589 2752 1
2589 2865 1
2590 726 1
2590 1001 1
2590 1973 1
2590 2188 1
2591 6 1
2591 14 1
2591 128 1
2591 140 1
2591 2945 1
2592 27 1
2592 524 1
2592 526 1
2592 2436 1
2593 133 1
2593 1421 1
2593 1621 1
2593 1801 1
2594 225 1
2594 461 1
2594 1368 1
2594 2163 1
2594 2872 1
2595 378 1
2595 760 1
2595 1371 1
2595 2108 1
2596 313 1
2596 470 1
2596 595 1
2596 875 1
2596 2965 1
2597 34 1
2597 69 1
2597 141 1
2597 823 1
2597 2863 1
2598 50 1
2598 94 1
2598 529 1
2598 1412 1
2599 22 1
2599 50 1
2599 652 1
2599 963 1
2599 2677 1
2600 6 1
2600 129 1
2600 290 1
2600 1041 1
2601 406 1
2601 412 1
2601 554 1
2601 606 1
2602 463 1
2602 1194 1
2602 1873 1
2602 1905 1
2602 2785 1
2603 10 1
2603 760 1
2603 963 1
2603 1506 1
2604 200 1
2604 497 1
2604 1858 1
2604 1953 1
2605 86 1
2605 287 1
2605 674 1
2605 2501 1
2606 60 1
2606 72 1
2606 186 1
2606 770 1
2607 261 1
2607 421 1
2607 455 1
2607 751 1
2608 8 1
2608 250 1
2608 1027 1
2608 1507 1
2608 2931 1
2609 579 1
2609 698 1
2609 935 1
2609 1892 1
2609 2943 1
2610 64 1
2610 630 1
2610 1161 1
2610 1233 1
2611 9 1
2611 262 1
2611 519 1
2611 1726 1
2612 116 1
2612 261 1
2612 467 1
2612 523 1
2613 242 1
2613 462 1
2613 713 1
2613 1774 1
2614 38 1
2614 43 1
2614 160 1
2614 2176 1
2615 9 1
2615 59 1
2615 371 1
2615 1426 1
2615 2765 1
2616 65 1
2616 138 1
2616 234 1
2616 385 1
2617 1001 1
2617 1041 1
2617 1785 1
2617 1939 1
2618 161 1
2618 417 1
2618 593 1
2618 1555 1
2619 75 1
2619 620 1
2619 1403 1
2619 2354 1
2620 9 1
2620 153 1
2620 207 1
2620 1383 1
2621 498 1
2621 833 1
2621 1414 1
2621 2456 1
2622 285 1
2622 493 1
2622 1227 1
2622 1989 1
2622 2684 1
2623 929 1
2623 1079 1
2623 1198 1
2623 2269 1
2623 2801 1
2624 917 1
2624 1135 1
2624 1774 1
2624 2172 1
2625 8 1
2625 35 1
2625 86 1
2625 1874 1
2626 1 1
2626 16 1
2626 522 1
2626 567 1
2627 129 1
2627 604 1
2627 768 1
2627 1969 1
2628 149 1
2628 151 1
2628 760 1
2628 1678 1
2629 1016 1
2629 1174 1
2629 1242 1
2629 1979 1
2630 258 1
2630 918 1
2630 1194 1
2630 1747 1
2631 5 1
2631 90 1
2631 160 1
2631 807 1
2631 2711 1
2632 35 1
2632 37 1
2632 56 1
2632 203 1
2633 79 1
2633 303 1
2633 849 1
2633 1719 1
2634 673 1
2634 819 1
2634 1392 1
2634 2235 1
2635 586 1
2635 922 1
2635 1347 1
2635 1467 1
2636 35 1
2636 996 1
2636 1543 1
2636 2170 1
2637 2 1
2637 54 1
2637 58 1
2637 159 1
2638 382 1
2638 1366 1
2638 1671 1
2638 1795 1
2639 98 1
2639 1654 1
2639 1750 1
2639 1759 1
2640 320 1
2640 1201 1
2640 1296 1
2640 1766 1
2641 3 1
2641 114 1
2641 1152 1
2641 1953 1
2642 105 1
2642 252 1
2642 267 1
2642 379 1
2643 7 1
2643 438 1
2643 864 1
2643 1574 1
2644 69 1
2644 139 1
2644 661 1
2644 1074 1
2644 2937 1
2645 21 1
2645 282 1
2645 988 1
2645 1592 1
2646 247 1
2646 285 1
2646 1075 1
2646 1615 1
2647 281 1
2647 1288 1
2647 1360 1
2647 2406 1
2648 329 1
2648 694 1
2648 820 1
2648 1482 1
2649 10 1
2649 1062 1
2649 1253 1
2649 1629 1
2650 247 1
2650 1656 1
2650 1789 1
2650 2263 1
2651 36 1
2651 160 1
2651 374 1
2651 1767 1
2652 259 1
2652 562 1
2652 696 1
2652 1956 1
2653 23 1
2653 59 1
2653 575 1
2653 1438 1
2654 387 1
2654 712 1
2654 911 1
2654 1589 1
2655 19 1
2655 48 1
2655 104 1
2655 246 1
2656 35 1
2656 101 1
2656 1076 1
2656 2018 1
2657 3 1
2657 359 1
2657 440 1
2657 1740 1
2658 157 1
2658 158 1
2658 1710 1
2658 1901 1
2659 656 1
2659 1387 1
2659 1996 1
2659 2150 1
2660 3 1
2660 6 1
2660 24 1
2660 1321 1
2660 2726 1
2661 49 1
2661 158 1
2661 567 1
2661 1100 1
2661 2736 1
2662 173 1
2662 283 1
2662 378 1
2662 1690 1
2663 970 1
2663 1056 1
2663 1464 1
2663 2417 1
2664 4 1
2664 58 1
2664 128 1
2664 382 1
2664 2743 1
2665 554 1
2665 1913 1
2665 1986 1
2665 2178 1
2666 26 1
2666 88 1
2666 1058 1
2666 1582 1
2666 2911 1
2667 194 1
2667 438 1
2667 451 1
2667 1432 1
2668 2 1
2668 56 1
2668 84 1
2668 212 1
2669 35 1
2669 359 1
2669 635 1
2669 1423 1
2670 23 1
2670 59 1
2670 2296 1
2670 2456 1
2670 2908 1
2671 179 1
2671 219 1
2671 248 1
2671 1180 1
2672 82 1
2672 914 1
2672 1035 1
2672 1394 1
2673 6 1
2673 9 1
2673 2064 1
2673 2500 1
2674 515 1
2674 544 1
2674 1715 1
2674 1740 1
2675 436 1
2675 656 1
2675 1031 1
2675 1653 1
2676 300 1
2676 1854 1
2676 1893 1
2676 2004 1
2677 390 1
2677 915 1
2677 1930 1
2677 2599 1
2678 14 1
2678 79 1
2678 1017 1
2678 2252 1
2679 5 1
2679 12 1
2679 169 1
2679 254 1
2680 634 1
2680 731 1
2680 751 1
2680 1910 1
2681 4 1
2681 373 1
2681 1591 1
2681 1628 1
2682 9 1
2682 184 1
2682 201 1
2682 1730 1
2682 2737 1
2683 19 1
2683 162 1
2683 779 1
2683 1055 1
2684 45 1
2684 563 1
2684 1888 1
2684 2622 1
2685 1041 1
2685 1451 1
2685 2098 1
2685 2265 1
2686 163 1
2686 523 1
2686 594 1
2686 1003 1
2687 153 1
2687 159 1
2687 339 1
2687 416 1
2688 431 1
2688 670 1
2688 807 1
2688 1919 1
2689 60 1
2689 179 1
2689 183 1
2689 1288 1
2690 5 1
2690 13 1
2690 781 1
2690 1410 1
2691 6 1
2691 539 1
2691 1440 1
2691 2365 1
2692 239 1
2692 680 1
2692 1424 1
2692 1487 1
2692 2874 1
2693 711 1
2693 1781 1
2693 1796 1
2693 2037 1
2694 12 1
2694 17 1
2694 497 1
2694 540 1
2694 2789 1
2695 652 1
2695 926 1
2695 1386 1
2695 1927 1
2695 2948 1
2696 28 1
2696 429 1
2696 555 1
2696 942 1
2697 45 1
2697 236 1
2697 306 1
2697 534 1
2698 7 1
2698 118 1
2698 486 1
2698 1038 1
2699 22 1
2699 169 1
2699 1494 1
2699 2008 1
2700 9 1
2700 35 1
2700 269 1
2700 2225 1
2701 4 1
2701 333 1
2701 1583 1
2701 2064 1
2701 2980 1
2702 475 1
2702 606 1
2702 937 1
2702 2052 1
2703 30 1
2703 162 1
2703 276 1
2703 1692 1
2704 124 1
2704 155 1
2704 281 1
2704 325 1
2705 17 1
2705 125 1
2705 302 1
2705 1091 1
2706 1 1
2706 52 1
2706 806 1
2706 1325 1
2706 2768 1
2707 56 1
2707 414 1
2707 1132 1
2707 1396 1
2708 8 1
2708 246 1
2708 1535 1
2708 1736 1
2709 324 1
2709 969 1
2709 1157 1
2709 2388 1
2709 2954 1
2710 64 1
2710 219 1
2710 417 1
2710 1878 1
2711 124 1
2711 1422 1
2711 2165 1
2711 2631 1
2712 291 1
2712 1354 1
2712 1375 1
2712 1952 1
2713 75 1
2713 523 1
2713 1947 1
2713 2125 1
2714 1078 1
2714 1772 1
2714 1928 1
2714 2173 1
2715 45 1
2715 1225 1
2715 1237 1
2715 1482 1
2716 108 1
2716 140 1
2716 1217 1
2716 2180 1
2717 1 1
2717 24 1
2717 46 1
2717 1194 1
2718 4 1
2718 336 1
2718 379 1
2718 1567 1
2719 1 1
2719 340 1
2719 656 1
2719 986 1
2720 23 1
2720 224 1
2720 954 1
2720 1189 1
2720 2842 1
2721 655 1
2721 737 1
2721 1501 1
2721 2263 1
2722 26 1
2722 274 1
2722 593 1
2722 807 1
2722 2742 1
2723 84 1
2723 115 1
2723 573 1
2723 647 1
2723 2760 1
2723 2849 1
2724 315 1
2724 577 1
2724 808 1
2724 1801 1
2725 139 1
2725 204 1
2725 718 1
2725 794 1
2725 2775 1
2726 38 1
2726 380 1
2726 603 1
2726 2660 1
2726 2987 1
2726 3000 1
2727 24 1
2727 190 1
2727 1000 1
2727 1412 1
2728 21 1
2728 306 1
2728 871 1
2728 1324 1
2729 256 1
2729 672 1
2729 1710 1
2729 2449 1
2730 13 1
2730 372 1
2730 676 1
2730 758 1
2731 169 1
2731 320 1
2731 981 1
2731 2256 1
2732 244 1
2732 1434 1
2732 1659 1
2732 2178 1
2733 35 1
2733 696 1
2733 1361 1
2733 1862 1
2734 115 1
2734 729 1
2734 935 1
2734 1754 1
2735 1381 1
2735 1707 1
2735 2038 1
2735 2272 1
2736 43 1
2736 1894 1
2736 2523 1
2736 2661 1
2736 2833 1
2737 32 1
2737 125 1
2737 2044 1
2737 2682 1
2738 25 1
2738 100 1
2738 704 1
2738 1403 1
2739 65 1
2739 200 1
2739 645 1
2739 1794 1
2740 1234 1
2740 1305 1
2740 1764 1
2740 2557 1
2741 194 1
2741 698 1
2741 768 1
2741 2394 1
2741 2863 1
2742 93 1
2742 1371 1
2742 1544 1
2742 2722 1
2743 846 1
2743 1561 1
2743 2463 1
2743 2664 1
2744 3 1
2744 124 1
2744 1600 1
2744 2470 1
2745 548 1
2745 597 1
2745 872 1
2745 2589 1
2746 81 1
2746 354 1
2746 1692 1
2746 2065 1
2747 20 1
2747 25 1
2747 219 1
2747 1502 1
2748 15 1
2748 339 1
2748 1947 1
2748 2456 1
2748 2867 1
2749 369 1
2749 453 1
2749 913 1
2749 2355 1
2750 2 1
2750 52 1
2750 356 1
2750 2082 1
2750 2859 1
2751 20 1
2751 186 1
2751 194 1
2751 678 1
2752 70 1
2752 399 1
2752 2376 1
2752 2589 1
2753 194 1
2753 352 1
2753 734 1
2753 1183 1
2754 525 1
2754 556 1
2754 822 1
2754 1579 1
2754 2981 1
2755 10 1
2755 609 1
2755 1001 1
2755 2300 1
2755 2792 1
2755 2992 1
2756 127 1
2756 682 1
2756 1404 1
2756 1662 1
2757 9 1
2757 582 1
2757 733 1
2757 762 1
2758 124 1
2758 291 1
2758 357 1
2758 692 1
2758 2929 1
2759 81 1
2759 1439 1
2759 1527 1
2759 2408 1
2760 86 1
2760 127 1
2760 174 1
2760 2723 1
2761 12 1
2761 42 1
2761 181 1
2761 2058 1
2762 184 1
2762 614 1
2762 1862 1
2762 2309 1
2763 107 1
2763 806 1
2763 1508 1
2763 2572 1
2763 2956 1
2764 140 1
2764 597 1
2764 995 1
2764 1356 1
2765 12 1
2765 403 1
2765 1407 1
2765 2615 1
2766 80 1
2766 476 1
2766 760 1
2766 2343 1
2767 132 1
2767 204 1
2767 211 1
2767 2587 1
2767 2830 1
2768 28 1
2768 448 1
2768 547 1
2768 2706 1
2769 254 1
2769 1235 1
2769 2478 1
2769 2562 1
2770 202 1
2770 1652 1
2770 1766 1
2770 1996 1
2771 142 1
2771 177 1
2771 1945 1
2771 2273 1
2771 2982 1
2772 80 1
2772 201 1
2772 490 1
2772 545 1
2773 36 1
2773 157 1
2773 1826 1
2773 2423 1
2773 2819 1
2774 56 1
2774 909 1
2774 1692 1
2774 2176 1
2775 7 1
2775 18 1
2775 2263 1
2775 2725 1
2776 24 1
2776 77 1
2776 171 1
2776 1919 1
2777 12 1
2777 95 1
2777 398 1
2777 599 1
2778 228 1
2778 347 1
2778 1886 1
2778 2107 1
2779 6 1
2779 23 1
2779 248 1
2779 579 1
2780 203 1
2780 481 1
2780 889 1
2780 2066 1
2781 25 1
2781 231 1
2781 1939 1
2781 2017 1
2782 13 1
2782 325 1
2782 2337 1
2782 2567 1
2782 2873 1
2783 95 1
2783 472 1
2783 1238 1
2783 1757 1
2784 27 1
2784 259 1
2784 886 1
2784 999 1
2785 342 1
2785 343 1
2785 1862 1
2785 2602 1
2786 29 1
2786 1244 1
2786 1942 1
2786 2542 1
2787 25 1
2787 104 1
2787 1832 1
2787 2222 1
2788 7 1
2788 9 1
2788 972 1
2788 2573 1
2789 56 1
2789 159 1
2789 1010 1
2789 2694 1
2790 217 1
2790 247 1
2790 523 1
2790 2420 1
2791 6 1
2791 77 1
2791 1195 1
2791 1519 1
2792 41 1
2792 79 1
2792 919 1
2792 2755 1
2792 2964 1
2793 37 1
2793 75 1
2793 125 1
2793 1762 1
2794 74 1
2794 270 1
2794 1141 1
2794 2345 1
2795 45 1
2795 403 1
2795 997 1
2795 2064 1
2796 7 1
2796 214 1
2796 368 1
2796 2039 1
2797 980 1
2797 981 1
2797 2204 1
2797 2459 1
2797 2924 1
2798 78 1
2798 148 1
2798 670 1
2798 1864 1
2799 27 1
2799 1370 1
2799 1575 1
2799 2537 1
2799 2957 1
2800 86 1
2800 969 1
2800 1108 1
2800 1540 1
2801 32 1
2801 773 1
2801 2244 1
2801 2623 1
2802 8 1
2802 1432 1
2802 1695 1
2802 1777 1
2803 139 1
2803 823 1
2803 1436 1
2803 1959 1
2803 2810 1
2804 696 1
2804 970 1
2804 1080 1
2804 2457 1
2805 79 1
2805 442 1
2805 563 1
2805 888 1
2806 97 1
2806 210 1
2806 290 1
2806 723 1
2807 1234 1
2807 1370 1
2807 1988 1
2807 2146 1
2808 3 1
2808 132 1
2808 555 1
2808 2470 1
2809 1805 1
2809 1976 1
2809 2213 1
2809 2406 1
2810 25 1
2810 1356 1
2810 1544 1
2810 2803 1
2811 18 1
2811 1154 1
2811 1715 1
2811 2521 1
2812 39 1
2812 115 1
2812 138 1
2812 403 1
2813 19 1
2813 381 1
2813 1206 1
2813 1457 1
2813 2910 1
2814 6 1
2814 70 1
2814 1522 1
2814 2125 1
2815 33 1
2815 199 1
2815 681 1
2815 1957 1
2816 574 1
2816 661 1
2816 945 1
2816 1241 1
2817 171 1
2817 1072 1
2817 2034 1
2817 2089 1
2818 493 1
2818 1737 1
2818 1839 1
2818 2326 1
2819 837 1
2819 932 1
2819 1277 1
2819 2773 1
2820 75 1
2820 201 1
2820 220 1
2820 356 1
2821 58 1
2821 144 1
2821 821 1
2821 1012 1
2822 51 1
2822 161 1
2822 210 1
2822 226 1
2823 276 1
2823 300 1
2823 461 1
2823 1643 1
2824 652 1
2824 1028 1
2824 1045 1
2824 1743 1
2825 12 1
2825 20 1
2825 146 1
2825 887 1
2826 517 1
2826 844 1
2826 1092 1
2826 1193 1
2826 2947 1
2827 3 1
2827 5 1
2827 6 1
2827 234 1
2828 774 1
2828 1385 1
2828 1691 1
2828 2215 1
2829 6 1
2829 174 1
2829 242 1
2829 2037 1
2830 740 1
2830 780 1
2830 2208 1
2830 2767 1
2831 172 1
2831 243 1
2831 481 1
2831 1908 1
2832 5 1
2832 58 1
2832 939 1
2832 1968 1
2833 1085 1
2833 1575 1
2833 1929 1
2833 2736 1
2834 5 1
2834 13 1
2834 1154 1
2834 1749 1
2834 2940 1
2835 204 1
2835 872 1
2835 1677 1
2835 2120 1
2836 1088 1
2836 1564 1
2836 1575 1
2836 2363 1
2837 2 1
2837 863 1
2837 1373 1
2837 1903 1
2838 103 1
2838 109 1
2838 769 1
2838 1960 1
2839 291 1
2839 1080 1
2839 1582 1
2839 2322 1
2840 75 1
2840 264 1
2840 290 1
2840 1176 1
2841 83 1
2841 189 1
2841 1646 1
2841 1882 1
2842 907 1
2842 917 1
2842 2545 1
2842 2720 1
2843 1 1
2843 257 1
2843 654 1
2843 2440 1
2844 219 1
2844 254 1
2844 966 1
2844 1438 1
2845 760 1
2845 829 1
2845 1266 1
2845 1281 1
2846 276 1
2846 707 1
2846 829 1
2846 1766 1
2847 241 1
2847 444 1
2847 1156 1
2847 2062 1
2848 244 1
2848 948 1
2848 1317 1
2848 2219 1
2849 74 1
2849 379 1
2849 1379 1
2849 2723 1
2850 100 1
2850 167 1
2850 170 1
2850 2458 1
2851 58 1
2851 343 1
2851 479 1
2851 2169 1
2852 14 1
2852 871 1
2852 1111 1
2852 1322 1
2853 143 1
2853 1123 1
2853 1184 1
2853 1495 1
2854 100 1
2854 261 1
2854 1508 1
2854 1903 1
2855 138 1
2855 155 1
2855 181 1
2855 1547 1
2856 272 1
2856 1386 1
2856 1509 1
2856 1511 1
2857 5 1
2857 30 1
2857 293 1
2857 2387 1
2858 245 1
2858 276 1
2858 411 1
2858 961 1
2859 238 1
2859 1195 1
2859 2198 1
2859 2750 1
2860 743 1
2860 1451 1
2860 1691 1
2860 2302 1
2861 8 1
2861 19 1
2861 394 1
2861 1624 1
2862 11 1
2862 268 1
2862 835 1
2862 1878 1
2863 227 1
2863 369 1
2863 2597 1
2863 2741 1
2864 21 1
2864 78 1
2864 109 1
2864 398 1
2865 292 1
2865 816 1
2865 1305 1
2865 2589 1
2866 224 1
2866 369 1
2866 1426 1
2866 2392 1
2867 93 1
2867 1212 1
2867 2112 1
2867 2748 1
2868 179 1
2868 475 1
2868 1352 1
2868 2064 1
2869 75 1
2869 222 1
2869 296 1
2869 1358 1
2870 140 1
2870 560 1
2870 1504 1
2870 2361 1
2871 3 1
2871 129 1
2871 859 1
2871 2152 1
2872 399 1
2872 776 1
2872 2406 1
2872 2594 1
2873 182 1
2873 1446 1
2873 2538 1
2873 2782 1
2874 1 1
2874 175 1
2874 1849 1
2874 2692 1
2875 23 1
2875 100 1
2875 264 1
2875 2361 1
2876 6 1
2876 673 1
2876 967 1
2876 1429 1
2877 252 1
2877 614 1
2877 627 1
2877 1570 1
2878 198 1
2878 254 1
2878 1195 1
2878 2336 1
2879 9 1
2879 35 1
2879 243 1
2879 1527 1
2880 490 1
2880 604 1
2880 1535 1
2880 1916 1
2881 203 1
2881 627 1
2881 689 1
2881 2198 1
2882 24 1
2882 867 1
2882 912 1
2882 2061 1
2883 153 1
2883 183 1
2883 970 1
2883 1558 1
2884 221 1
2884 749 1
2884 1574 1
2884 1844 1
2885 382 1
2885 763 1
2885 1889 1
2885 2457 1
2886 62 1
2886 145 1
2886 483 1
2886 1249 1
2887 233 1
2887 354 1
2887 998 1
2887 1502 1
2888 87 1
2888 153 1
2888 174 1
2888 1867 1
2889 62 1
2889 285 1
2889 426 1
2889 554 1
2890 140 1
2890 299 1
2890 627 1
2890 1431 1
2891 58 1
2891 140 1
2891 980 1
2891 1063 1
2892 5 1
2892 261 1
2892 1001 1
2892 2490 1
2893 138 1
2893 389 1
2893 876 1
2893 1948 1
2894 31 1
2894 46 1
2894 2125 1
2894 2521 1
2895 252 1
2895 1102 1
2895 1492 1
2895 1875 1
2896 217 1
2896 241 1
2896 749 1
2896 2311 1
2897 73 1
2897 77 1
2897 355 1
2897 452 1
2898 46 1
2898 160 1
2898 1229 1
2898 1236 1
2899 56 1
2899 153 1
2899 1163 1
2899 2004 1
2900 35 1
2900 76 1
2900 291 1
2900 1128 1
2901 10 1
2901 16 1
2901 124 1
2901 1647 1
2902 9 1
2902 23 1
2902 357 1
2902 1676 1
2903 820 1
2903 1118 1
2903 1832 1
2903 2089 1
2904 47 1
2904 124 1
2904 716 1
2904 989 1
2905 197 1
2905 429 1
2905 1031 1
2905 1101 1
2906 25 1
2906 62 1
2906 679 1
2906 1573 1
2907 8 1
2907 232 1
2907 604 1
2907 1338 1
2908 10 1
2908 34 1
2908 1252 1
2908 2670 1
2909 1 1
2909 273 1
2909 1783 1
2909 2102 1
2910 29 1
2910 124 1
2910 324 1
2910 2813 1
2910 2948 1
2911 7 1
2911 936 1
2911 1990 1
2911 2666 1
2912 159 1
2912 362 1
2912 365 1
2912 2529 1
2913 132 1
2913 888 1
2913 1710 1
2913 2544 1
2914 150 1
2914 198 1
2914 664 1
2914 1859 1
2915 59 1
2915 213 1
2915 526 1
2915 699 1
2916 1 1
2916 117 1
2916 802 1
2916 2308 1
2917 7 1
2917 728 1
2917 740 1
2917 1749 1
2918 217 1
2918 479 1
2918 1202 1
2918 2572 1
2918 2971 1
2919 214 1
2919 423 1
2919 1887 1
2919 2410 1
2920 308 1
2920 1032 1
2920 1452 1
2920 2173 1
2921 56 1
2921 290 1
2921 478 1
2921 2275 1
2922 210 1
2922 365 1
2922 1375 1
2922 1553 1
2923 777 1
2923 796 1
2923 934 1
2923 1201 1
2924 111 1
2924 214 1
2924 1532 1
2924 2797 1
2925 1 1
2925 134 1
2925 183 1
2925 2435 1
2926 25 1
2926 118 1
2926 261 1
2926 477 1
2927 1267 1
2927 1440 1
2927 1484 1
2927 1716 1
2928 50 1
2928 191 1
2928 961 1
2928 1298 1
2929 76 1
2929 1334 1
2929 2139 1
2929 2758 1
2930 512 1
2930 1143 1
2930 2489 1
2930 2537 1
2931 42 1
2931 132 1
2931 281 1
2931 2608 1
2932 36 1
2932 129 1
2932 755 1
2932 1804 1
2933 83 1
2933 129 1
2933 806 1
2933 922 1
2934 33 1
2934 198 1
2934 213 1
2934 1403 1
2935 38 1
2935 217 1
2935 326 1
2935 439 1
2936 95 1
2936 659 1
2936 879 1
2936 1929 1
2937 25 1
2937 642 1
2937 908 1
2937 2644 1
2938 47 1
2938 156 1
2938 199 1
2938 572 1
2939 12 1
2939 13 1
2939 1069 1
2939 1240 1
2940 3 1
2940 682 1
2940 1272 1
2940 2834 1
2941 59 1
2941 96 1
2941 350 1
2941 665 1
2942 17 1
2942 533 1
2942 1068 1
2942 1113 1
2943 583 1
2943 2388 1
2943 2486 1
2943 2609 1
2944 31 1
2944 127 1
2944 194 1
2944 1489 1
2945 852 1
2945 1331 1
2945 1925 1
2945 2591 1
2946 41 1
2946 203 1
2946 644 1
2946 1281 1
2947 162 1
2947 622 1
2947 2118 1
2947 2826 1
2948 608 1
2948 967 1
2948 2695 1
2948 2910 1
2949 450 1
2949 609 1
2949 2260 1
2949 2446 1
2949 2975 1
2950 465 1
2950 575 1
2950 638 1
2950 1217 1
2951 132 1
2951 199 1
2951 1656 1
2951 1987 1
2952 70 1
2952 153 1
2952 393 1
2952 1213 1
2953 52 1
2953 333 1
2953 819 1
2953 2263 1
2954 38 1
2954 958 1
2954 1657 1
2954 2709 1
2955 259 1
2955 354 1
2955 1347 1
2955 2577 1
2956 747 1
2956 1195 1
2956 1876 1
2956 2763 1
2957 159 1
2957 686 1
2957 1853 1
2957 2799 1
2958 189 1
2958 343 1
2958 665 1
2958 2583 1
2959 170 1
2959 202 1
2959 331 1
2959 1186 1
2960 29 1
2960 87 1
2960 645 1
2960 2114 1
2961 7 1
2961 362 1
2961 714 1
2961 2366 1
2962 226 1
2962 398 1
2962 472 1
2962 561 1
2963 131 1
2963 155 1
2963 171 1
2963 207 1
2964 223 1
2964 463 1
2964 1654 1
2964 2792 1
2965 66 1
2965 212 1
2965 2324 1
2965 2596 1
2966 24 1
2966 1075 1
2966 1428 1
2966 1591 1
2967 86 1
2967 296 1
2967 549 1
2967 1396 1
2968 9 1
2968 86 1
2968 114 1
2968 776 1
2969 15 1
2969 355 1
2969 494 1
2969 693 1
2970 1 1
2970 246 1
2970 675 1
2970 874 1
2971 65 1
2971 539 1
2971 2442 1
2971 2918 1
2972 103 1
2972 136 1
2972 666 1
2972 709 1
2973 115 1
2973 650 1
2973 1529 1
2973 2335 1
2974 12 1
2974 131 1
2974 376 1
2974 901 1
2975 198 1
2975 1089 1
2975 1952 1
2975 2949 1
2976 24 1
2976 47 1
2976 196 1
2976 1404 1
2977 329 1
2977 632 1
2977 1761 1
2977 2454 1
2978 29 1
2978 101 1
2978 130 1
2978 974 1
2979 12 1
2979 2277 1
2979 2398 1
2979 2421 1
2980 521 1
2980 1892 1
2980 2458 1
2980 2701 1
2981 9 1
2981 153 1
2981 1704 1
2981 2754 1
2982 1195 1
2982 1457 1
2982 2065 1
2982 2771 1
2983 74 1
2983 615 1
2983 1306 1
2983 1372 1
2984 189 1
2984 210 1
2984 833 1
2984 1511 1
2985 631 1
2985 740 1
2985 1171 1
2985 1957 1
2986 306 1
2986 557 1
2986 927 1
2986 1645 1
2987 13 1
2987 124 1
2987 1988 1
2987 2726 1
2988 675 1
2988 1566 1
2988 1615 1
2988 2436 1
2989 343 1
2989 1544 1
2989 2241 1
2989 2406 1
2990 1 1
2990 24 1
2990 1194 1
2990 1579 1
2991 168 1
2991 181 1
2991 861 1
2991 1952 1
2992 41 1
2992 445 1
2992 1025 1
2992 2755 1
2993 248 1
2993 438 1
2993 1486 1
2993 2251 1
2994 77 1
2994 515 1
2994 1208 1
2994 1566 1
2995 2 1
2995 93 1
2995 204 1
2995 1878 1
2996 23 1
2996 283 1
2996 1044 1
2996 1469 1
2997 24 1
2997 566 1
2997 786 1
2997 1999 1
2998 700 1
2998 768 1
2998 1077 1
2998 1522 1
2999 59 1
2999 131 1
2999 729 1
2999 2585 1
3000 355 1
3000 632 1
3000 891 1
3000 2726 1
