%%MatrixMarket matrix coordinate integer general
%
5000 5000 39954
1 5 1
1 6 1
1 7 1
1 11 1
1 18 1
1 34 1
1 35 1
1 41 1
1 42 1
1 46 1
1 47 1
1 75 1
1 83 1
1 137 1
1 167 1
1 169 1
1 176 1
1 183 1
1 184 1
1 193 1
1 207 1
1 213 1
1 229 1
1 261 1
1 264 1
1 270 1
1 283 1
1 292 1
1 293 1
1 294 1
1 304 1
1 317 1
1 343 1
1 348 1
1 351 1
1 362 1
1 365 1
1 380 1
1 381 1
1 383 1
1 395 1
1 411 1
1 441 1
1 447 1
1 498 1
1 536 1
1 556 1
1 557 1
1 569 1
1 588 1
1 590 1
1 627 1
1 629 1
1 636 1
1 644 1
1 657 1
1 675 1
1 681 1
1 744 1
1 790 1
1 810 1
1 823 1
1 851 1
1 856 1
1 859 1
1 912 1
1 920 1
1 925 1
1 933 1
1 958 1
1 968 1
1 1004 1
1 1054 1
1 1072 1
1 1142 1
1 1177 1
1 1198 1
1 1208 1
1 1241 1
1 1250 1
1 1257 1
1 1263 1
1 1282 1
1 1363 1
1 1443 1
1 1462 1
1 1468 1
1 1480 1
1 1510 1
1 1541 1
1 1556 1
1 1646 1
1 1663 1
1 1674 1
1 1714 1
1 1722 1
1 1793 1
1 1803 1
1 1868 1
1 1903 1
1 1925 1
1 1966 1
1 1969 1
1 2016 1
1 2038 1
1 2062 1
1 2065 1
1 2069 1
1 2091 1
1 2105 1
1 2151 1
1 2275 1
1 2319 1
1 2335 1
1 2372 1
1 2512 1
1 2558 1
1 2576 1
1 2623 1
1 2744 1
1 2760 1
1 2767 1
1 2780 1
1 2800 1
1 2853 1
1 2910 1
1 2940 1
1 2987 1
1 2995 1
1 3006 1
1 3031 1
1 3055 1
1 3091 1
1 3093 1
1 3117 1
1 3162 1
1 3291 1
1 3299 1
1 3324 1
1 3358 1
1 3374 1
1 3393 1
1 3404 1
1 3481 1
1 3495 1
1 3540 1
1 3730 1
1 3831 1
1 3963 1
1 3988 1
1 4019 1
1 4058 1
1 4064 1
1 4099 1
1 4192 1
1 4249 1
1 4277 1
1 4386 1
1 4411 1
1 4416 1
1 4417 1
1 4454 1
1 4465 1
1 4471 1
1 4482 1
1 4488 1
1 4494 1
1 4516 1
1 4565 1
1 4612 1
1 4618 1
1 4673 1
1 4684 1
1 4705 1
1 4730 1
1 4755 1
1 4817 1
1 4833 1
1 4857 1
1 4858 1
1 4914 1
1 4961 1
2 5 1
2 6 1
2 8 1
2 9 1
2 10 1
2 11 1
2 12 1
2 13 1
2 16 1
2 17 1
2 18 1
2 19 1
2 20 1
2 24 1
2 28 1
2 36 1
2 37 1
2 40 1
2 51 1
2 52 1
2 53 1
2 55 1
2 68 1
2 69 1
2 71 1
2 72 1
2 73 1
2 74 1
2 76 1
2 78 1
2 81 1
2 82 1
2 85 1
2 88 1
2 95 1
2 103 1
2 106 1
2 108 1
2 113 1
2 123 1
2 124 1
2 125 1
2 132 1
2 136 1
2 154 1
2 161 1
2 178 1
2 208 1
2 215 1
2 219 1
2 225 1
2 238 1
2 283 1
2 287 1
2 290 1
2 297 1
2 306 1
2 311 1
2 320 1
2 324 1
2 330 1
2 355 1
2 357 1
2 370 1
2 380 1
2 398 1
2 404 1
2 406 1
2 446 1
2 454 1
2 461 1
2 510 1
2 526 1
2 531 1
2 552 1
2 599 1
2 604 1
2 631 1
2 646 1
2 650 1
2 653 1
2 680 1
2 693 1
2 720 1
2 722 1
2 723 1
2 736 1
2 824 1
2 825 1
2 827 1
2 848 1
2 854 1
2 858 1
2 873 1
2 948 1
2 970 1
2 978 1
2 984 1
2 1007 1
2 1010 1
2 1030 1
2 1057 1
2 1062 1
2 1065 1
2 1087 1
2 1166 1
2 1176 1
2 1184 1
2 1188 1
2 1275 1
2 1296 1
2 1315 1
2 1334 1
2 1398 1
2 1413 1
2 1517 1
2 1522 1
2 1550 1
2 1562 1
2 1572 1
2 1604 1
2 1641 1
2 1647 1
2 1665 1
2 1683 1
2 1688 1
2 1721 1
2 1746 1
2 1770 1
2 1782 1
2 1783 1
2 1841 1
2 1856 1
2 1873 1
2 1882 1
2 1912 1
2 1963 1
2 1997 1
2 2046 1
2 2049 1
2 2073 1
2 2077 1
2 2118 1
2 2163 1
2 2186 1
2 2223 1
2 2233 1
2 2248 1
2 2251 1
2 2267 1
2 2283 1
2 2304 1
2 2333 1
2 2347 1
2 2440 1
2 2441 1
2 2463 1
2 2482 1
2 2506 1
2 2508 1
2 2565 1
2 2592 1
2 2608 1
2 2659 1
2 2675 1
2 2709 1
2 2734 1
2 2775 1
2 2821 1
2 2881 1
2 2900 1
2 2923 1
2 2925 1
2 2981 1
2 3013 1
2 3021 1
2 3061 1
2 3104 1
2 3166 1
2 3181 1
2 3257 1
2 3259 1
2 3270 1
2 3307 1
2 3343 1
2 3348 1
2 3375 1
2 3388 1
2 3423 1
2 3461 1
2 3468 1
2 3488 1
2 3522 1
2 3539 1
2 3545 1
2 3573 1
2 3609 1
2 3621 1
2 3674 1
2 3688 1
2 3702 1
2 3708 1
2 3726 1
2 3730 1
2 3736 1
2 3743 1
2 3770 1
2 3843 1
2 3858 1
2 3911 1
2 3942 1
2 3956 1
2 3977 1
2 3984 1
2 3992 1
2 3994 1
2 4006 1
2 4061 1
2 4108 1
2 4140 1
2 4161 1
2 4174 1
2 4186 1
2 4206 1
2 4214 1
2 4221 1
2 4275 1
2 4288 1
2 4290 1
2 4311 1
2 4368 1
2 4466 1
2 4539 1
2 4560 1
2 4646 1
2 4651 1
2 4696 1
2 4745 1
2 4805 1
2 4848 1
2 4850 1
2 4865 1
2 4876 1
2 4912 1
2 4920 1
2 4929 1
2 4943 1
2 4965 1
2 4984 1
2 4985 1
3 5 1
3 7 1
3 8 1
3 9 1
3 13 1
3 23 1
3 24 1
3 26 1
3 32 1
3 34 1
3 38 1
3 42 1
3 47 1
3 48 1
3 50 1
3 97 1
3 98 1
3 99 1
3 107 1
3 109 1
3 113 1
3 131 1
3 140 1
3 146 1
3 151 1
3 152 1
3 156 1
3 162 1
3 170 1
3 179 1
3 184 1
3 192 1
3 204 1
3 207 1
3 214 1
3 249 1
3 267 1
3 281 1
3 284 1
3 338 1
3 346 1
3 362 1
3 369 1
3 378 1
3 383 1
3 385 1
3 405 1
3 407 1
3 418 1
3 428 1
3 436 1
3 453 1
3 475 1
3 499 1
3 501 1
3 517 1
3 522 1
3 523 1
3 529 1
3 546 1
3 548 1
3 560 1
3 563 1
3 567 1
3 571 1
3 591 1
3 594 1
3 608 1
3 618 1
3 619 1
3 628 1
3 635 1
3 642 1
3 676 1
3 679 1
3 685 1
3 688 1
3 692 1
3 725 1
3 731 1
3 746 1
3 753 1
3 768 1
3 805 1
3 818 1
3 825 1
3 837 1
3 866 1
3 878 1
3 879 1
3 894 1
3 953 1
3 958 1
3 962 1
3 963 1
3 964 1
3 1000 1
3 1010 1
3 1043 1
3 1051 1
3 1089 1
3 1170 1
3 1190 1
3 1197 1
3 1261 1
3 1272 1
3 1330 1
3 1350 1
3 1407 1
3 1446 1
3 1448 1
3 1463 1
3 1466 1
3 1495 1
3 1534 1
3 1601 1
3 1614 1
3 1637 1
3 1685 1
3 1689 1
3 1700 1
3 1705 1
3 1706 1
3 1713 1
3 1715 1
3 1779 1
3 1830 1
3 1843 1
3 1859 1
3 1895 1
3 1897 1
3 1926 1
3 1932 1
3 1948 1
3 1967 1
3 1974 1
3 1979 1
3 1989 1
3 2005 1
3 2007 1
3 2011 1
3 2012 1
3 2025 1
3 2028 1
3 2046 1
3 2047 1
3 2066 1
3 2069 1
3 2079 1
3 2113 1
3 2132 1
3 2151 1
3 2166 1
3 2176 1
3 2181 1
3 2205 1
3 2213 1
3 2224 1
3 2233 1
3 2254 1
3 2268 1
3 2287 1
3 2297 1
3 2304 1
3 2321 1
3 2322 1
3 2382 1
3 2392 1
3 2399 1
3 2491 1
3 2523 1
3 2551 1
3 2602 1
3 2619 1
3 2629 1
3 2633 1
3 2670 1
3 2706 1
3 2714 1
3 2725 1
3 2736 1
3 2765 1
3 2769 1
3 2796 1
3 2812 1
3 2845 1
3 2906 1
3 2918 1
3 2954 1
3 3061 1
3 3101 1
3 3204 1
3 3223 1
3 3235 1
3 3277 1
3 3283 1
3 3323 1
3 3336 1
3 3350 1
3 3387 1
3 3473 1
3 3484 1
3 3513 1
3 3586 1
3 3591 1
3 3634 1
3 3691 1
3 3707 1
3 3716 1
3 3726 1
3 3741 1
3 3757 1
3 3819 1
3 3834 1
3 3875 1
3 3906 1
3 3947 1
3 4053 1
3 4158 1
3 4175 1
3 4195 1
3 4201 1
3 4226 1
3 4235 1
3 4237 1
3 4248 1
3 4252 1
3 4275 1
3 4285 1
3 4294 1
3 4297 1
3 4299 1
3 4303 1
3 4311 1
3 4324 1
3 4538 1
3 4561 1
3 4566 1
3 4582 1
3 4597 1
3 4670 1
3 4674 1
3 4796 1
3 4828 1
3 4933 1
4 5 1
4 6 1
4 7 1
4 19 1
4 23 1
4 44 1
4 160 1
4 182 1
4 209 1
4 232 1
4 254 1
4 277 1
4 337 1
4 435 1
4 442 1
4 470 1
4 508 1
4 554 1
4 589 1
4 772 1
4 880 1
4 898 1
4 1053 1
4 1083 1
4 1314 1
4 1327 1
4 1742 1
4 1769 1
4 1771 1
4 1916 1
4 1938 1
4 2036 1
4 2154 1
4 2193 1
4 2329 1
4 2352 1
4 2553 1
4 2651 1
4 2801 1
4 2903 1
4 3039 1
4 3231 1
4 3362 1
4 3434 1
4 3437 1
4 3537 1
4 3595 1
4 3673 1
4 3764 1
4 4093 1
4 4220 1
4 4314 1
4 4359 1
4 4377 1
4 4792 1
4 4795 1
5 1 1
5 2 1
5 3 1
5 4 1
5 6 1
5 8 1
5 9 1
5 10 1
5 11 1
5 12 1
5 13 1
5 14 1
5 15 1
5 16 1
5 17 1
5 19 1
5 24 1
5 25 1
5 28 1
5 31 1
5 34 1
5 37 1
5 39 1
5 45 1
5 49 1
5 50 1
5 58 1
5 60 1
5 65 1
5 66 1
5 67 1
5 73 1
5 77 1
5 78 1
5 79 1
5 90 1
5 94 1
5 104 1
5 111 1
5 116 1
5 132 1
5 134 1
5 135 1
5 147 1
5 152 1
5 153 1
5 163 1
5 164 1
5 166 1
5 178 1
5 179 1
5 180 1
5 182 1
5 184 1
5 195 1
5 196 1
5 212 1
5 254 1
5 258 1
5 260 1
5 265 1
5 269 1
5 275 1
5 293 1
5 295 1
5 305 1
5 314 1
5 331 1
5 335 1
5 341 1
5 342 1
5 343 1
5 354 1
5 367 1
5 371 1
5 375 1
5 386 1
5 399 1
5 421 1
5 442 1
5 449 1
5 466 1
5 474 1
5 479 1
5 493 1
5 502 1
5 515 1
5 527 1
5 534 1
5 546 1
5 559 1
5 581 1
5 589 1
5 599 1
5 612 1
5 635 1
5 640 1
5 667 1
5 681 1
5 682 1
5 692 1
5 693 1
5 707 1
5 716 1
5 727 1
5 753 1
5 800 1
5 826 1
5 850 1
5 876 1
5 885 1
5 918 1
5 949 1
5 1011 1
5 1041 1
5 1050 1
5 1063 1
5 1072 1
5 1112 1
5 1157 1
5 1160 1
5 1175 1
5 1183 1
5 1186 1
5 1198 1
5 1251 1
5 1260 1
5 1285 1
5 1402 1
5 1404 1
5 1422 1
5 1460 1
5 1466 1
5 1505 1
5 1514 1
5 1549 1
5 1590 1
5 1595 1
5 1596 1
5 1601 1
5 1624 1
5 1625 1
5 1637 1
5 1646 1
5 1693 1
5 1712 1
5 1763 1
5 1778 1
5 1811 1
5 1822 1
5 1842 1
5 1848 1
5 1878 1
5 1880 1
5 1892 1
5 1916 1
5 1929 1
5 1954 1
5 1988 1
5 1996 1
5 2037 1
5 2082 1
5 2085 1
5 2159 1
5 2180 1
5 2303 1
5 2396 1
5 2445 1
5 2457 1
5 2471 1
5 2490 1
5 2540 1
5 2544 1
5 2591 1
5 2599 1
5 2665 1
5 2696 1
5 2712 1
5 2768 1
5 2849 1
5 2870 1
5 2877 1
5 2924 1
5 2947 1
5 3007 1
5 3024 1
5 3040 1
5 3081 1
5 3134 1
5 3253 1
5 3311 1
5 3358 1
5 3378 1
5 3402 1
5 3428 1
5 3442 1
5 3508 1
5 3532 1
5 3601 1
5 3680 1
5 3744 1
5 3769 1
5 3785 1
5 3806 1
5 3823 1
5 3832 1
5 3841 1
5 3987 1
5 4027 1
5 4057 1
5 4074 1
5 4113 1
5 4250 1
5 4272 1
5 4374 1
5 4579 1
5 4588 1
5 4594 1
5 4636 1
5 4665 1
5 4708 1
5 4845 1
5 4891 1
5 4892 1
5 4902 1
5 4927 1
6 1 1
6 2 1
6 4 1
6 5 1
6 7 1
6 8 1
6 9 1
6 10 1
6 12 1
6 14 1
6 23 1
6 30 1
6 41 1
6 43 1
6 48 1
6 53 1
6 67 1
6 70 1
6 132 1
6 142 1
6 202 1
6 263 1
6 311 1
6 322 1
6 382 1
6 389 1
6 437 1
6 491 1
6 513 1
6 537 1
6 540 1
6 580 1
6 950 1
6 955 1
6 1037 1
6 1053 1
6 1077 1
6 1371 1
6 1784 1
6 2040 1
6 2137 1
6 2167 1
6 2168 1
6 2237 1
6 2294 1
6 2872 1
6 2957 1
6 3051 1
6 3278 1
6 3657 1
6 4101 1
6 4165 1
6 4539 1
6 4659 1
6 4766 1
7 1 1
7 3 1
7 4 1
7 6 1
7 47 1
7 49 1
7 137 1
7 258 1
7 599 1
7 644 1
7 921 1
7 1723 1
7 2105 1
7 2586 1
7 3166 1
8 2 1
8 3 1
8 5 1
8 6 1
8 10 1
8 30 1
8 35 1
8 48 1
8 96 1
8 152 1
8 188 1
8 196 1
8 267 1
8 374 1
8 523 1
8 666 1
8 746 1
8 803 1
8 824 1
8 897 1
8 1393 1
8 1802 1
8 2030 1
8 3260 1
8 3341 1
8 3596 1
8 4542 1
8 4667 1
9 2 1
9 3 1
9 5 1
9 6 1
9 13 1
9 14 1
9 15 1
9 20 1
9 21 1
9 34 1
9 48 1
9 57 1
9 67 1
9 68 1
9 72 1
9 89 1
9 96 1
9 100 1
9 110 1
9 118 1
9 137 1
9 153 1
9 170 1
9 187 1
9 200 1
9 252 1
9 272 1
9 276 1
9 295 1
9 302 1
9 310 1
9 322 1
9 417 1
9 418 1
9 437 1
9 500 1
9 501 1
9 516 1
9 525 1
9 543 1
9 564 1
9 571 1
9 602 1
9 603 1
9 653 1
9 709 1
9 789 1
9 821 1
9 855 1
9 875 1
9 897 1
9 997 1
9 998 1
9 1016 1
9 1061 1
9 1068 1
9 1078 1
9 1087 1
9 1119 1
9 1161 1
9 1176 1
9 1239 1
9 1243 1
9 1264 1
9 1286 1
9 1293 1
9 1330 1
9 1372 1
9 1397 1
9 1427 1
9 1484 1
9 1641 1
9 1811 1
9 1828 1
9 1835 1
9 1846 1
9 1914 1
9 1940 1
9 1949 1
9 1987 1
9 1989 1
9 2058 1
9 2226 1
9 2277 1
9 2284 1
9 2339 1
9 2513 1
9 2657 1
9 2727 1
9 2740 1
9 2823 1
9 2835 1
9 2842 1
9 2923 1
9 3006 1
9 3236 1
9 3252 1
9 3286 1
9 3344 1
9 3380 1
9 3384 1
9 3490 1
9 3527 1
9 3659 1
9 3662 1
9 3723 1
9 3807 1
9 3815 1
9 3825 1
9 4234 1
9 4253 1
9 4279 1
9 4320 1
9 4389 1
9 4391 1
9 4399 1
9 4441 1
9 4447 1
9 4521 1
9 4550 1
9 4564 1
9 4620 1
9 4679 1
9 4744 1
10 2 1
10 5 1
10 6 1
10 8 1
10 11 1
10 16 1
10 17 1
10 22 1
10 24 1
10 26 1
10 29 1
10 36 1
10 43 1
10 58 1
10 62 1
10 66 1
10 70 1
10 83 1
10 103 1
10 122 1
10 124 1
10 128 1
10 134 1
10 142 1
10 143 1
10 153 1
10 185 1
10 192 1
10 208 1
10 250 1
10 279 1
10 290 1
10 341 1
10 371 1
10 390 1
10 396 1
10 442 1
10 443 1
10 445 1
10 467 1
10 499 1
10 511 1
10 540 1
10 583 1
10 586 1
10 641 1
10 646 1
10 647 1
10 662 1
10 671 1
10 687 1
10 694 1
10 698 1
10 703 1
10 763 1
10 772 1
10 810 1
10 817 1
10 833 1
10 910 1
10 927 1
10 945 1
10 949 1
10 1002 1
10 1009 1
10 1038 1
10 1099 1
10 1107 1
10 1182 1
10 1242 1
10 1299 1
10 1360 1
10 1376 1
10 1380 1
10 1385 1
10 1396 1
10 1455 1
10 1531 1
10 1610 1
10 1631 1
10 1657 1
10 1660 1
10 1722 1
10 1773 1
10 1801 1
10 1835 1
10 1837 1
10 1849 1
10 1889 1
10 1931 1
10 1990 1
10 2029 1
10 2043 1
10 2069 1
10 2097 1
10 2162 1
10 2235 1
10 2353 1
10 2374 1
10 2391 1
10 2422 1
10 2486 1
10 2525 1
10 2529 1
10 2573 1
10 2587 1
10 2614 1
10 2837 1
10 3076 1
10 3085 1
10 3175 1
10 3288 1
10 3393 1
10 3453 1
10 3455 1
10 3472 1
10 3478 1
10 3518 1
10 3549 1
10 3590 1
10 3616 1
10 3680 1
10 3685 1
10 3781 1
10 3968 1
10 4065 1
10 4149 1
10 4188 1
10 4195 1
10 4208 1
10 4308 1
10 4354 1
10 4370 1
10 4377 1
10 4415 1
10 4485 1
10 4568 1
10 4661 1
10 4672 1
10 4681 1
10 4932 1
10 4938 1
10 4968 1
11 1 1
11 2 1
11 5 1
11 10 1
11 12 1
11 14 1
11 15 1
11 16 1
11 18 1
11 32 1
11 39 1
11 56 1
11 62 1
11 75 1
11 77 1
11 78 1
11 94 1
11 103 1
11 108 1
11 110 1
11 121 1
11 133 1
11 136 1
11 145 1
11 147 1
11 149 1
11 159 1
11 188 1
11 190 1
11 194 1
11 195 1
11 199 1
11 209 1
11 221 1
11 228 1
11 247 1
11 280 1
11 310 1
11 314 1
11 322 1
11 324 1
11 333 1
11 349 1
11 366 1
11 373 1
11 396 1
11 420 1
11 421 1
11 448 1
11 457 1
11 476 1
11 478 1
11 479 1
11 486 1
11 499 1
11 541 1
11 568 1
11 590 1
11 665 1
11 682 1
11 686 1
11 687 1
11 706 1
11 715 1
11 798 1
11 854 1
11 890 1
11 900 1
11 905 1
11 918 1
11 927 1
11 960 1
11 964 1
11 983 1
11 1022 1
11 1024 1
11 1081 1
11 1104 1
11 1115 1
11 1135 1
11 1227 1
11 1229 1
11 1233 1
11 1251 1
11 1255 1
11 1289 1
11 1290 1
11 1293 1
11 1314 1
11 1331 1
11 1343 1
11 1600 1
11 1636 1
11 1640 1
11 1783 1
11 1864 1
11 1896 1
11 1900 1
11 1925 1
11 1990 1
11 2009 1
11 2011 1
11 2033 1
11 2074 1
11 2087 1
11 2108 1
11 2215 1
11 2302 1
11 2387 1
11 2458 1
11 2585 1
11 2588 1
11 2615 1
11 2636 1
11 2637 1
11 2686 1
11 2695 1
11 2719 1
11 2721 1
11 2790 1
11 2799 1
11 2853 1
11 2891 1
11 2895 1
11 3054 1
11 3065 1
11 3085 1
11 3095 1
11 3241 1
11 3314 1
11 3367 1
11 3373 1
11 3377 1
11 3383 1
11 3471 1
11 3474 1
11 3507 1
11 3562 1
11 3563 1
11 3593 1
11 3669 1
11 3689 1
11 3715 1
11 3917 1
11 3982 1
11 3991 1
11 4007 1
11 4025 1
11 4081 1
11 4102 1
11 4118 1
11 4197 1
11 4231 1
11 4320 1
11 4346 1
11 4513 1
11 4568 1
11 4684 1
11 4712 1
11 4788 1
11 4789 1
11 4814 1
11 4819 1
11 4841 1
11 4977 1
12 2 1
12 5 1
12 6 1
12 11 1
12 36 1
12 60 1
12 69 1
12 99 1
12 121 1
12 140 1
12 173 1
12 179 1
12 186 1
12 283 1
12 313 1
12 406 1
12 472 1
12 547 1
12 588 1
12 664 1
12 754 1
12 764 1
12 770 1
12 831 1
12 844 1
12 874 1
12 887 1
12 989 1
12 1028 1
12 1052 1
12 1074 1
12 1114 1
12 1118 1
12 1131 1
12 1162 1
12 1194 1
12 1225 1
12 1254 1
12 1258 1
12 1281 1
12 1296 1
12 1427 1
12 1483 1
12 1564 1
12 1590 1
12 1642 1
12 1672 1
12 1682 1
12 1719 1
12 1819 1
12 1841 1
12 1861 1
12 1975 1
12 2022 1
12 2026 1
12 2036 1
12 2102 1
12 2132 1
12 2305 1
12 2308 1
12 2341 1
12 2474 1
12 2718 1
12 2892 1
12 2957 1
12 3082 1
12 3108 1
12 3157 1
12 3261 1
12 3306 1
12 3340 1
12 3452 1
12 3539 1
12 3724 1
12 3857 1
12 4079 1
12 4221 1
12 4313 1
12 4345 1
12 4381 1
12 4659 1
12 4661 1
12 4718 1
12 4721 1
12 4803 1
12 4816 1
12 4890 1
13 2 1
13 3 1
13 5 1
13 9 1
13 18 1
13 20 1
13 23 1
13 25 1
13 26 1
13 33 1
13 44 1
13 49 1
13 73 1
13 74 1
13 81 1
13 86 1
13 92 1
13 95 1
13 106 1
13 110 1
13 112 1
13 116 1
13 122 1
13 129 1
13 135 1
13 141 1
13 169 1
13 177 1
13 189 1
13 190 1
13 200 1
13 233 1
13 242 1
13 244 1
13 273 1
13 282 1
13 283 1
13 301 1
13 303 1
13 331 1
13 354 1
13 375 1
13 447 1
13 537 1
13 585 1
13 593 1
13 617 1
13 651 1
13 739 1
13 765 1
13 778 1
13 782 1
13 791 1
13 795 1
13 816 1
13 821 1
13 939 1
13 942 1
13 960 1
13 971 1
13 987 1
13 1057 1
13 1109 1
13 1112 1
13 1249 1
13 1263 1
13 1319 1
13 1409 1
13 1570 1
13 1626 1
13 1702 1
13 1746 1
13 1747 1
13 1792 1
13 1815 1
13 1817 1
13 1844 1
13 1880 1
13 1908 1
13 1984 1
13 2038 1
13 2060 1
13 2289 1
13 2321 1
13 2358 1
13 2370 1
13 2429 1
13 2432 1
13 2554 1
13 2571 1
13 2647 1
13 2674 1
13 2732 1
13 2821 1
13 2830 1
13 2895 1
13 2918 1
13 3009 1
13 3025 1
13 3050 1
13 3135 1
13 3142 1
13 3175 1
13 3405 1
13 3411 1
13 3436 1
13 3560 1
13 3566 1
13 3753 1
13 3864 1
13 3879 1
13 3938 1
13 3982 1
13 4118 1
13 4119 1
13 4207 1
13 4274 1
13 4325 1
13 4349 1
13 4555 1
13 4556 1
13 4605 1
13 4666 1
13 4784 1
14 5 1
14 6 1
14 9 1
14 11 1
14 15 1
14 39 1
14 80 1
14 134 1
14 195 1
14 221 1
14 226 1
14 237 1
14 253 1
14 262 1
14 300 1
14 308 1
14 329 1
14 376 1
14 419 1
14 611 1
14 841 1
14 857 1
14 1136 1
14 1206 1
14 1358 1
14 2032 1
14 2060 1
14 2294 1
14 2452 1
14 2515 1
14 2528 1
14 2606 1
14 2707 1
14 3144 1
14 3221 1
14 3367 1
14 3405 1
14 3467 1
14 3629 1
14 3747 1
14 4278 1
14 4316 1
14 4399 1
15 5 1
15 9 1
15 11 1
15 14 1
15 21 1
15 30 1
15 46 1
15 127 1
15 199 1
15 206 1
15 329 1
15 370 1
15 376 1
15 383 1
15 857 1
15 1229 1
15 1527 1
15 1816 1
15 1845 1
15 1939 1
15 2408 1
15 2471 1
15 3593 1
16 2 1
16 5 1
16 10 1
16 11 1
16 17 1
16 21 1
16 22 1
16 28 1
16 36 1
16 56 1
16 58 1
16 60 1
16 61 1
16 71 1
16 80 1
16 85 1
16 118 1
16 171 1
16 194 1
16 211 1
16 228 1
16 282 1
16 366 1
16 400 1
16 409 1
16 497 1
16 530 1
16 533 1
16 542 1
16 574 1
16 626 1
16 669 1
16 738 1
16 757 1
16 867 1
16 975 1
16 1252 1
16 1333 1
16 1566 1
16 2152 1
16 2176 1
16 2402 1
16 2478 1
16 2602 1
16 2665 1
16 2901 1
16 3813 1
16 4308 1
16 4360 1
16 4369 1
16 4640 1
16 4994 1
17 2 1
17 5 1
17 10 1
17 16 1
17 19 1
17 20 1
17 22 1
17 25 1
17 27 1
17 30 1
17 32 1
17 33 1
17 38 1
17 40 1
17 49 1
17 61 1
17 71 1
17 75 1
17 79 1
17 86 1
17 91 1
17 109 1
17 125 1
17 130 1
17 132 1
17 133 1
17 135 1
17 138 1
17 143 1
17 159 1
17 192 1
17 208 1
17 210 1
17 216 1
17 223 1
17 229 1
17 232 1
17 234 1
17 236 1
17 279 1
17 390 1
17 400 1
17 406 1
17 425 1
17 433 1
17 446 1
17 480 1
17 521 1
17 534 1
17 544 1
17 555 1
17 558 1
17 571 1
17 578 1
17 584 1
17 616 1
17 620 1
17 628 1
17 639 1
17 640 1
17 684 1
17 689 1
17 718 1
17 754 1
17 774 1
17 821 1
17 825 1
17 866 1
17 913 1
17 961 1
17 962 1
17 1000 1
17 1065 1
17 1101 1
17 1150 1
17 1163 1
17 1195 1
17 1199 1
17 1206 1
17 1209 1
17 1212 1
17 1247 1
17 1258 1
17 1280 1
17 1388 1
17 1409 1
17 1417 1
17 1513 1
17 1519 1
17 1527 1
17 1536 1
17 1577 1
17 1614 1
17 1623 1
17 1636 1
17 1675 1
17 1752 1
17 1814 1
17 1853 1
17 1869 1
17 1905 1
17 1906 1
17 1943 1
17 1948 1
17 1955 1
17 1956 1
17 1984 1
17 2084 1
17 2101 1
17 2129 1
17 2133 1
17 2156 1
17 2184 1
17 2212 1
17 2240 1
17 2274 1
17 2293 1
17 2308 1
17 2353 1
17 2368 1
17 2404 1
17 2408 1
17 2412 1
17 2455 1
17 2457 1
17 2498 1
17 2532 1
17 2573 1
17 2607 1
17 2614 1
17 2797 1
17 2826 1
17 2861 1
17 2887 1
17 2935 1
17 2954 1
17 2984 1
17 3037 1
17 3045 1
17 3068 1
17 3078 1
17 3095 1
17 3139 1
17 3150 1
17 3159 1
17 3186 1
17 3204 1
17 3214 1
17 3236 1
17 3238 1
17 3257 1
17 3274 1
17 3280 1
17 3286 1
17 3353 1
17 3489 1
17 3525 1
17 3555 1
17 3606 1
17 3614 1
17 3711 1
17 3721 1
17 3748 1
17 3756 1
17 3868 1
17 3959 1
17 3999 1
17 4016 1
17 4080 1
17 4109 1
17 4214 1
17 4338 1
17 4359 1
17 4396 1
17 4469 1
17 4493 1
17 4508 1
17 4518 1
17 4554 1
17 4575 1
17 4607 1
17 4660 1
17 4668 1
17 4685 1
17 4693 1
17 4715 1
17 4746 1
17 4764 1
17 4769 1
17 4854 1
17 4949 1
17 4950 1
18 1 1
18 2 1
18 11 1
18 13 1
18 28 1
18 53 1
18 66 1
18 84 1
18 90 1
18 114 1
18 129 1
18 137 1
18 141 1
18 150 1
18 156 1
18 175 1
18 184 1
18 266 1
18 287 1
18 304 1
18 323 1
18 328 1
18 342 1
18 349 1
18 405 1
18 432 1
18 450 1
18 454 1
18 478 1
18 491 1
18 502 1
18 591 1
18 636 1
18 638 1
18 849 1
18 979 1
18 1004 1
18 1048 1
18 1089 1
18 1091 1
18 1112 1
18 1151 1
18 1168 1
18 1421 1
18 1429 1
18 1588 1
18 1686 1
18 1740 1
18 1911 1
18 2044 1
18 2090 1
18 2145 1
18 2190 1
18 2219 1
18 2273 1
18 2283 1
18 2291 1
18 2391 1
18 2414 1
18 2583 1
18 2589 1
18 2657 1
18 2759 1
18 2800 1
18 2811 1
18 2847 1
18 2896 1
18 3050 1
18 3060 1
18 3180 1
18 3184 1
18 3314 1
18 3342 1
18 3397 1
18 3439 1
18 3515 1
18 3706 1
18 3712 1
18 3822 1
18 3843 1
18 3859 1
18 3982 1
18 4003 1
18 4133 1
18 4306 1
18 4601 1
18 4677 1
18 4797 1
18 4803 1
18 4832 1
18 4834 1
18 4885 1
18 4930 1
18 4997 1
19 2 1
19 4 1
19 5 1
19 17 1
19 21 1
19 22 1
19 27 1
19 29 1
19 35 1
19 44 1
19 45 1
19 52 1
19 54 1
19 55 1
19 59 1
19 62 1
19 63 1
19 65 1
19 109 1
19 123 1
19 135 1
19 151 1
19 166 1
19 181 1
19 254 1
19 260 1
19 268 1
19 298 1
19 312 1
19 335 1
19 361 1
19 395 1
19 423 1
19 484 1
19 492 1
19 493 1
19 507 1
19 510 1
19 535 1
19 547 1
19 559 1
19 565 1
19 570 1
19 587 1
19 622 1
19 629 1
19 638 1
19 665 1
19 673 1
19 674 1
19 682 1
19 689 1
19 710 1
19 723 1
19 737 1
19 741 1
19 760 1
19 770 1
19 787 1
19 813 1
19 827 1
19 836 1
19 840 1
19 910 1
19 912 1
19 937 1
19 946 1
19 962 1
19 978 1
19 983 1
19 1035 1
19 1043 1
19 1074 1
19 1096 1
19 1151 1
19 1192 1
19 1259 1
19 1261 1
19 1267 1
19 1319 1
19 1326 1
19 1401 1
19 1408 1
19 1426 1
19 1443 1
19 1477 1
19 1497 1
19 1559 1
19 1618 1
19 1650 1
19 1661 1
19 1666 1
19 1718 1
19 1731 1
19 1758 1
19 1762 1
19 1765 1
19 1909 1
19 1973 1
19 2000 1
19 2058 1
19 2067 1
19 2236 1
19 2240 1
19 2313 1
19 2325 1
19 2335 1
19 2347 1
19 2357 1
19 2430 1
19 2442 1
19 2499 1
19 2516 1
19 2542 1
19 2613 1
19 2649 1
19 2651 1
19 2672 1
19 2682 1
19 2689 1
19 2705 1
19 2780 1
19 2847 1
19 2854 1
19 2866 1
19 2896 1
19 2900 1
19 2967 1
19 3027 1
19 3043 1
19 3076 1
19 3167 1
19 3169 1
19 3189 1
19 3194 1
19 3296 1
19 3335 1
19 3360 1
19 3383 1
19 3407 1
19 3485 1
19 3489 1
19 3572 1
19 3594 1
19 3657 1
19 3711 1
19 3760 1
19 3771 1
19 3795 1
19 3804 1
19 3809 1
19 3810 1
19 3826 1
19 3915 1
19 4032 1
19 4050 1
19 4055 1
19 4070 1
19 4105 1
19 4180 1
19 4251 1
19 4283 1
19 4286 1
19 4376 1
19 4498 1
19 4508 1
19 4570 1
19 4676 1
19 4725 1
19 4789 1
19 4969 1
20 2 1
20 9 1
20 13 1
20 17 1
20 27 1
20 29 1
20 37 1
20 51 1
20 59 1
20 64 1
20 88 1
20 140 1
20 200 1
20 233 1
20 244 1
20 290 1
20 393 1
20 434 1
20 484 1
20 492 1
20 571 1
20 656 1
20 720 1
20 749 1
20 877 1
20 890 1
20 900 1
20 940 1
20 1075 1
20 1087 1
20 1119 1
20 1271 1
20 1306 1
20 1398 1
20 1417 1
20 1465 1
20 1477 1
20 1479 1
20 1504 1
20 1752 1
20 1756 1
20 1802 1
20 1840 1
20 1882 1
20 2086 1
20 2135 1
20 2243 1
20 2396 1
20 2462 1
20 2477 1
20 2531 1
20 2564 1
20 2597 1
20 2702 1
20 2793 1
20 2905 1
20 3105 1
20 3119 1
20 3420 1
20 3789 1
20 3911 1
20 3951 1
20 3974 1
20 4719 1
20 4804 1
21 9 1
21 15 1
21 16 1
21 19 1
21 55 1
21 57 1
21 58 1
21 63 1
21 68 1
21 75 1
21 83 1
21 96 1
21 101 1
21 148 1
21 167 1
21 205 1
21 247 1
21 265 1
21 273 1
21 288 1
21 311 1
21 312 1
21 325 1
21 333 1
21 367 1
21 424 1
21 463 1
21 542 1
21 554 1
21 564 1
21 606 1
21 704 1
21 729 1
21 861 1
21 867 1
21 869 1
21 1086 1
21 1101 1
21 1153 1
21 1246 1
21 1284 1
21 1312 1
21 1426 1
21 1677 1
21 1702 1
21 1757 1
21 1788 1
21 1824 1
21 1922 1
21 1933 1
21 1936 1
21 2090 1
21 2114 1
21 2411 1
21 2499 1
21 2559 1
21 2701 1
21 2883 1
21 2911 1
21 3079 1
21 3509 1
21 3638 1
21 3754 1
21 3843 1
21 4047 1
21 4092 1
21 4099 1
21 4397 1
21 4481 1
21 4632 1
21 4687 1
21 4936 1
22 10 1
22 16 1
22 17 1
22 19 1
22 31 1
22 56 1
22 64 1
22 95 1
22 254 1
22 289 1
22 398 1
22 489 1
22 614 1
22 772 1
22 928 1
22 1257 1
22 2379 1
22 2541 1
22 2691 1
22 2692 1
22 2780 1
22 2792 1
22 3177 1
22 3616 1
22 3873 1
22 4158 1
22 4252 1
22 4394 1
22 4738 1
22 4998 1
23 3 1
23 4 1
23 6 1
23 13 1
23 25 1
23 26 1
23 32 1
23 84 1
23 87 1
23 146 1
23 161 1
23 170 1
23 198 1
23 269 1
23 272 1
23 317 1
23 460 1
23 875 1
23 887 1
23 898 1
23 909 1
23 1174 1
23 1220 1
23 1223 1
23 1266 1
23 1384 1
23 1409 1
23 1926 1
23 1942 1
23 2437 1
23 2498 1
23 2556 1
23 2714 1
23 2815 1
23 3460 1
23 3884 1
23 4093 1
23 4157 1
23 4483 1
23 4901 1
24 2 1
24 3 1
24 5 1
24 10 1
24 38 1
24 41 1
24 42 1
24 46 1
24 47 1
24 104 1
24 144 1
24 187 1
24 213 1
24 292 1
24 389 1
24 560 1
24 563 1
24 812 1
24 1067 1
24 1242 1
24 1472 1
24 1576 1
24 1881 1
24 2142 1
24 2683 1
24 2812 1
24 2818 1
24 3070 1
24 3198 1
24 3394 1
24 3590 1
24 3917 1
24 4299 1
25 5 1
25 13 1
25 17 1
25 23 1
25 33 1
25 43 1
25 44 1
25 63 1
25 76 1
25 84 1
25 86 1
25 91 1
25 92 1
25 106 1
25 119 1
25 120 1
25 141 1
25 142 1
25 149 1
25 154 1
25 157 1
25 185 1
25 210 1
25 234 1
25 244 1
25 261 1
25 262 1
25 263 1
25 275 1
25 324 1
25 329 1
25 332 1
25 334 1
25 340 1
25 365 1
25 401 1
25 410 1
25 440 1
25 448 1
25 477 1
25 481 1
25 491 1
25 532 1
25 549 1
25 568 1
25 579 1
25 597 1
25 601 1
25 627 1
25 676 1
25 785 1
25 868 1
25 880 1
25 907 1
25 908 1
25 942 1
25 988 1
25 991 1
25 1004 1
25 1007 1
25 1090 1
25 1096 1
25 1123 1
25 1132 1
25 1149 1
25 1158 1
25 1164 1
25 1268 1
25 1297 1
25 1310 1
25 1315 1
25 1377 1
25 1414 1
25 1497 1
25 1502 1
25 1518 1
25 1567 1
25 1573 1
25 1586 1
25 1621 1
25 1622 1
25 1703 1
25 1736 1
25 1790 1
25 1826 1
25 1845 1
25 1851 1
25 1961 1
25 2035 1
25 2076 1
25 2104 1
25 2148 1
25 2150 1
25 2186 1
25 2235 1
25 2264 1
25 2293 1
25 2298 1
25 2344 1
25 2381 1
25 2452 1
25 2473 1
25 2478 1
25 2543 1
25 2598 1
25 2646 1
25 2789 1
25 2799 1
25 2930 1
25 2956 1
25 2975 1
25 3017 1
25 3022 1
25 3098 1
25 3150 1
25 3180 1
25 3207 1
25 3223 1
25 3240 1
25 3258 1
25 3273 1
25 3339 1
25 3371 1
25 3400 1
25 3483 1
25 3505 1
25 3545 1
25 3599 1
25 3611 1
25 3619 1
25 3621 1
25 3672 1
25 3778 1
25 3786 1
25 3794 1
25 3931 1
25 4073 1
25 4083 1
25 4094 1
25 4128 1
25 4300 1
25 4358 1
25 4367 1
25 4373 1
25 4396 1
25 4496 1
25 4519 1
25 4535 1
25 4571 1
25 4595 1
25 4599 1
25 4614 1
25 4675 1
25 4693 1
25 4701 1
25 4821 1
25 4978 1
26 3 1
26 10 1
26 13 1
26 23 1
26 33 1
26 87 1
26 102 1
26 115 1
26 144 1
26 197 1
26 218 1
26 327 1
26 332 1
26 338 1
26 459 1
26 603 1
26 664 1
26 683 1
26 700 1
26 779 1
26 813 1
26 816 1
26 829 1
26 883 1
26 1067 1
26 1084 1
26 1140 1
26 1232 1
26 1302 1
26 1329 1
26 1368 1
26 1457 1
26 1458 1
26 1459 1
26 1541 1
26 1558 1
26 1660 1
26 1751 1
26 1839 1
26 2057 1
26 2348 1
26 2416 1
26 2521 1
26 2651 1
26 2676 1
26 2709 1
26 2710 1
26 2735 1
26 2807 1
26 2820 1
26 2912 1
26 2952 1
26 3193 1
26 3235 1
26 3326 1
26 3582 1
26 3653 1
26 3712 1
26 3870 1
26 3946 1
26 4169 1
26 4276 1
26 4376 1
26 4425 1
26 4603 1
26 4650 1
26 4723 1
26 4764 1
26 4778 1
26 4809 1
26 4944 1
27 17 1
27 19 1
27 20 1
27 29 1
27 38 1
27 59 1
27 86 1
27 104 1
27 117 1
27 134 1
27 138 1
27 151 1
27 162 1
27 172 1
27 224 1
27 257 1
27 271 1
27 428 1
27 480 1
27 671 1
27 823 1
27 991 1
27 1001 1
27 1276 1
27 1417 1
27 1428 1
27 1444 1
27 1772 1
27 1798 1
27 1842 1
27 1943 1
27 2116 1
27 2316 1
27 2373 1
27 2412 1
27 2571 1
27 2680 1
27 2744 1
27 2951 1
27 3172 1
27 3309 1
27 3387 1
27 3398 1
27 3555 1
27 3742 1
27 3799 1
27 3867 1
27 4001 1
27 4190 1
27 4403 1
27 4446 1
28 2 1
28 5 1
28 16 1
28 18 1
28 31 1
28 50 1
28 51 1
28 53 1
28 61 1
28 90 1
28 119 1
28 160 1
28 171 1
28 181 1
28 194 1
28 219 1
28 255 1
28 352 1
28 361 1
28 367 1
28 414 1
28 510 1
28 626 1
28 720 1
28 742 1
28 748 1
28 825 1
28 862 1
28 970 1
28 975 1
28 1130 1
28 1186 1
28 1202 1
28 1313 1
28 1345 1
28 1506 1
28 1703 1
28 1829 1
28 1835 1
28 2133 1
28 2199 1
28 2213 1
28 2219 1
28 2361 1
28 2475 1
28 2612 1
28 2693 1
28 2800 1
28 3002 1
28 3044 1
28 3343 1
28 3376 1
28 3404 1
28 3475 1
28 3525 1
28 3750 1
28 4167 1
28 4594 1
28 4640 1
28 4786 1
29 10 1
29 19 1
29 20 1
29 27 1
29 31 1
29 37 1
29 43 1
29 46 1
29 54 1
29 55 1
29 59 1
29 74 1
29 91 1
29 107 1
29 111 1
29 117 1
29 138 1
29 172 1
29 256 1
29 326 1
29 330 1
29 362 1
29 416 1
29 435 1
29 462 1
29 477 1
29 490 1
29 529 1
29 623 1
29 685 1
29 696 1
29 710 1
29 728 1
29 832 1
29 894 1
29 916 1
29 991 1
29 1001 1
29 1048 1
29 1116 1
29 1123 1
29 1130 1
29 1132 1
29 1193 1
29 1263 1
29 1286 1
29 1324 1
29 1389 1
29 1440 1
29 1520 1
29 1521 1
29 1658 1
29 1699 1
29 1767 1
29 1991 1
29 2000 1
29 2008 1
29 2053 1
29 2165 1
29 2386 1
29 2423 1
29 2615 1
29 2658 1
29 2806 1
29 3110 1
29 3167 1
29 3203 1
29 3206 1
29 3350 1
29 3961 1
29 4029 1
29 4158 1
29 4212 1
29 4264 1
29 4331 1
29 4336 1
29 4475 1
29 4492 1
29 4552 1
29 4711 1
29 4804 1
29 4840 1
30 6 1
30 8 1
30 15 1
30 17 1
30 35 1
30 42 1
30 214 1
30 230 1
30 252 1
30 289 1
30 514 1
30 717 1
30 822 1
30 834 1
30 904 1
30 1197 1
30 1240 1
30 2101 1
30 2125 1
30 2159 1
30 3543 1
30 3801 1
30 3958 1
30 4442 1
31 5 1
31 22 1
31 28 1
31 29 1
31 61 1
31 107 1
31 171 1
31 256 1
31 352 1
31 489 1
31 747 1
31 914 1
31 1153 1
31 1625 1
31 1744 1
31 1821 1
31 3662 1
32 3 1
32 11 1
32 17 1
32 23 1
32 39 1
32 60 1
32 2014 1
32 3711 1
32 4843 1
33 13 1
33 17 1
33 25 1
33 26 1
33 84 1
33 87 1
33 102 1
33 136 1
33 144 1
33 149 1
33 150 1
33 154 1
33 160 1
33 238 1
33 239 1
33 243 1
33 259 1
33 390 1
33 435 1
33 514 1
33 724 1
33 754 1
33 782 1
33 1040 1
33 1236 1
33 1344 1
33 1465 1
33 1628 1
33 1662 1
33 1711 1
33 1767 1
33 1901 1
33 2024 1
33 2171 1
33 2275 1
33 2276 1
33 2469 1
33 2538 1
33 2623 1
33 2761 1
33 2764 1
33 2913 1
33 3145 1
33 3168 1
33 3246 1
33 3270 1
33 3271 1
33 3444 1
33 3487 1
33 3710 1
33 3786 1
33 3931 1
33 4219 1
33 4251 1
33 4256 1
33 4397 1
33 4435 1
33 4683 1
33 4695 1
33 4728 1
33 4792 1
33 4986 1
34 1 1
34 3 1
34 5 1
34 9 1
34 64 1
34 87 1
34 88 1
34 104 1
34 121 1
34 212 1
34 296 1
34 652 1
34 707 1
34 1018 1
34 1174 1
34 1532 1
34 1538 1
34 1748 1
34 1855 1
34 2067 1
34 2323 1
34 3402 1
34 3419 1
34 4708 1
34 4842 1
35 1 1
35 8 1
35 19 1
35 30 1
35 40 1
35 45 1
35 65 1
35 79 1
35 93 1
35 116 1
35 163 1
35 166 1
35 185 1
35 188 1
35 399 1
35 427 1
35 430 1
35 494 1
35 545 1
35 750 1
35 768 1
35 808 1
35 1080 1
35 1152 1
35 1223 1
35 1245 1
35 1335 1
35 1352 1
35 1369 1
35 1436 1
35 1497 1
35 1553 1
35 1582 1
35 1590 1
35 1639 1
35 1689 1
35 1811 1
35 1827 1
35 1870 1
35 2118 1
35 2319 1
35 2364 1
35 2481 1
35 2486 1
35 2569 1
35 2572 1
35 2678 1
35 2694 1
35 2709 1
35 2813 1
35 2888 1
35 3116 1
35 3158 1
35 3324 1
35 3576 1
35 3635 1
35 3695 1
35 3855 1
35 4021 1
35 4089 1
35 4137 1
35 4318 1
35 4342 1
35 4530 1
35 4826 1
35 4941 1
36 2 1
36 10 1
36 12 1
36 16 1
36 40 1
36 51 1
36 52 1
36 69 1
36 72 1
36 85 1
36 99 1
36 118 1
36 187 1
36 245 1
36 278 1
36 321 1
36 325 1
36 335 1
36 344 1
36 347 1
36 503 1
36 590 1
36 604 1
36 658 1
36 696 1
36 844 1
36 916 1
36 919 1
36 981 1
36 989 1
36 1015 1
36 1052 1
36 1139 1
36 1346 1
36 1351 1
36 1375 1
36 1594 1
36 1700 1
36 1705 1
36 1766 1
36 2040 1
36 2056 1
36 2134 1
36 2446 1
36 2456 1
36 2883 1
36 2929 1
36 3147 1
36 3337 1
36 3349 1
36 3535 1
36 3548 1
36 3725 1
36 3732 1
36 4001 1
36 4057 1
36 4179 1
36 4227 1
36 4374 1
36 4461 1
36 4602 1
36 4611 1
36 4722 1
36 4724 1
36 4923 1
37 2 1
37 5 1
37 20 1
37 29 1
37 41 1
37 45 1
37 76 1
37 81 1
37 93 1
37 115 1
37 223 1
37 241 1
37 260 1
37 266 1
37 314 1
37 331 1
37 351 1
37 464 1
37 520 1
37 543 1
37 799 1
37 823 1
37 1033 1
37 1095 1
37 1105 1
37 1269 1
37 1437 1
37 1485 1
37 1487 1
37 1605 1
37 1608 1
37 1808 1
37 1883 1
37 2280 1
37 2375 1
37 2386 1
37 2564 1
37 2611 1
37 2979 1
37 3016 1
37 3330 1
37 3646 1
37 3714 1
37 3837 1
37 4302 1
37 4334 1
37 4925 1
38 3 1
38 17 1
38 24 1
38 27 1
38 188 1
38 215 1
38 334 1
38 407 1
38 453 1
38 473 1
38 566 1
38 690 1
38 840 1
38 903 1
38 922 1
38 928 1
38 1022 1
38 1106 1
38 2283 1
38 2553 1
38 2943 1
38 3133 1
38 3260 1
38 3555 1
38 4014 1
38 4299 1
38 4409 1
38 4526 1
39 5 1
39 11 1
39 14 1
39 32 1
39 56 1
39 78 1
39 80 1
39 190 1
39 372 1
39 419 1
39 1205 1
39 2087 1
39 2172 1
39 2544 1
39 4356 1
39 4767 1
39 4940 1
40 2 1
40 17 1
40 35 1
40 36 1
40 72 1
40 80 1
40 229 1
40 232 1
40 518 1
40 696 1
40 799 1
40 842 1
40 855 1
40 989 1
40 1000 1
40 1184 1
40 1964 1
40 2159 1
40 2326 1
40 2678 1
40 2981 1
40 3120 1
40 3732 1
40 4524 1
40 4628 1
40 4996 1
41 1 1
41 6 1
41 24 1
41 37 1
41 54 1
41 57 1
41 122 1
41 131 1
41 181 1
41 260 1
41 263 1
41 296 1
41 299 1
41 336 1
41 363 1
41 369 1
41 389 1
41 403 1
41 464 1
41 471 1
41 485 1
41 488 1
41 509 1
41 576 1
41 580 1
41 608 1
41 609 1
41 658 1
41 677 1
41 769 1
41 797 1
41 798 1
41 822 1
41 827 1
41 833 1
41 905 1
41 935 1
41 936 1
41 1130 1
41 1133 1
41 1169 1
41 1263 1
41 1299 1
41 1312 1
41 1352 1
41 1423 1
41 1427 1
41 1450 1
41 1483 1
41 1577 1
41 1720 1
41 1748 1
41 1751 1
41 1813 1
41 1887 1
41 1903 1
41 1930 1
41 1958 1
41 2007 1
41 2087 1
41 2206 1
41 2346 1
41 2368 1
41 2561 1
41 2642 1
41 2654 1
41 2656 1
41 2671 1
41 2677 1
41 2852 1
41 2974 1
41 2976 1
41 3168 1
41 3321 1
41 3499 1
41 3623 1
41 3624 1
41 3737 1
41 3837 1
41 4070 1
41 4097 1
41 4142 1
41 4268 1
41 4350 1
41 4366 1
41 4432 1
41 4465 1
41 4572 1
41 4619 1
41 4635 1
41 4669 1
41 4750 1
41 4771 1
42 1 1
42 3 1
42 24 1
42 30 1
42 198 1
42 204 1
42 207 1
42 214 1
42 292 1
42 362 1
42 392 1
42 394 1
42 508 1
42 530 1
42 723 1
42 743 1
42 750 1
42 812 1
42 835 1
42 923 1
42 934 1
42 939 1
42 1141 1
42 1307 1
42 1340 1
42 1354 1
42 1382 1
42 1412 1
42 1563 1
42 1589 1
42 1650 1
42 1754 1
42 1786 1
42 1865 1
42 1966 1
42 2035 1
42 2070 1
42 2136 1
42 2185 1
42 2238 1
42 2262 1
42 2383 1
42 2421 1
42 2481 1
42 2558 1
42 2634 1
42 2662 1
42 2865 1
42 2971 1
42 3209 1
42 3255 1
42 3285 1
42 3290 1
42 3620 1
42 3705 1
42 3801 1
42 4244 1
42 4480 1
42 4596 1
42 4631 1
42 4980 1
43 6 1
43 10 1
43 25 1
43 29 1
43 66 1
43 124 1
43 275 1
43 339 1
43 341 1
43 413 1
43 558 1
43 881 1
43 893 1
43 910 1
43 924 1
43 932 1
43 965 1
43 979 1
43 997 1
43 1002 1
43 1065 1
43 1319 1
43 1461 1
43 1560 1
43 1598 1
43 1604 1
43 1709 1
43 1886 1
43 2028 1
43 2144 1
43 2276 1
43 2369 1
43 2503 1
43 2523 1
43 2743 1
43 3103 1
43 3195 1
43 3333 1
43 3470 1
43 3519 1
43 3773 1
43 4030 1
43 4279 1
43 4963 1
44 4 1
44 13 1
44 19 1
44 25 1
44 63 1
44 82 1
44 123 1
44 129 1
44 186 1
44 239 1
44 273 1
44 307 1
44 323 1
44 349 1
44 430 1
44 508 1
44 519 1
44 551 1
44 655 1
44 767 1
44 1122 1
44 1132 1
44 1271 1
44 1434 1
44 1518 1
44 1598 1
44 1768 1
44 2192 1
44 2300 1
44 2379 1
44 3166 1
44 3175 1
44 3459 1
44 3750 1
44 3758 1
44 3774 1
44 3817 1
44 3853 1
44 4207 1
44 4377 1
44 4417 1
45 5 1
45 19 1
45 35 1
45 37 1
45 52 1
45 79 1
45 82 1
45 93 1
45 115 1
45 127 1
45 173 1
45 205 1
45 218 1
45 251 1
45 256 1
45 268 1
45 374 1
45 380 1
45 516 1
45 587 1
45 674 1
45 725 1
45 751 1
45 858 1
45 886 1
45 1023 1
45 1081 1
45 1118 1
45 1142 1
45 1221 1
45 1240 1
45 1251 1
45 1269 1
45 1332 1
45 1373 1
45 1678 1
45 1809 1
45 1880 1
45 1946 1
45 1969 1
45 2228 1
45 2639 1
45 2720 1
45 2880 1
45 3124 1
45 3377 1
45 3492 1
45 3605 1
45 4017 1
45 4107 1
45 4425 1
45 4760 1
46 1 1
46 15 1
46 24 1
46 29 1
46 105 1
46 183 1
46 650 1
46 967 1
46 1041 1
46 1535 1
46 1577 1
46 1836 1
46 2851 1
46 3173 1
47 1 1
47 3 1
47 7 1
47 24 1
47 50 1
47 109 1
47 146 1
47 264 1
47 281 1
47 366 1
47 573 1
47 659 1
47 684 1
47 1344 1
47 1511 1
47 1644 1
47 1722 1
47 2137 1
47 2172 1
47 2763 1
47 3383 1
47 3506 1
47 3773 1
47 3808 1
47 4973 1
48 3 1
48 6 1
48 8 1
48 9 1
48 57 1
48 64 1
48 89 1
48 100 1
48 158 1
48 222 1
48 392 1
48 402 1
48 417 1
48 420 1
48 1032 1
48 1455 1
48 1750 1
48 1847 1
48 2580 1
48 2802 1
48 3146 1
48 3376 1
48 3635 1
48 3753 1
48 4582 1
48 4825 1
49 5 1
49 7 1
49 13 1
49 17 1
49 71 1
49 97 1
49 125 1
49 126 1
49 139 1
49 159 1
49 168 1
49 216 1
49 227 1
49 258 1
49 261 1
49 277 1
49 319 1
49 351 1
49 397 1
49 429 1
49 462 1
49 528 1
49 580 1
49 584 1
49 637 1
49 643 1
49 651 1
49 677 1
49 704 1
49 752 1
49 761 1
49 802 1
49 841 1
49 866 1
49 892 1
49 913 1
49 929 1
49 945 1
49 995 1
49 1046 1
49 1080 1
49 1152 1
49 1180 1
49 1209 1
49 1218 1
49 1239 1
49 1271 1
49 1328 1
49 1358 1
49 1522 1
49 1548 1
49 1571 1
49 1620 1
49 1777 1
49 1807 1
49 1833 1
49 1932 1
49 1968 1
49 1982 1
49 2023 1
49 2051 1
49 2074 1
49 2085 1
49 2146 1
49 2233 1
49 2331 1
49 2461 1
49 2500 1
49 2603 1
49 2908 1
49 2939 1
49 3058 1
49 3124 1
49 3140 1
49 3154 1
49 3507 1
49 3526 1
49 3565 1
49 3821 1
49 3992 1
49 4000 1
49 4016 1
49 4108 1
49 4137 1
49 4309 1
49 4321 1
49 4398 1
49 4476 1
49 4524 1
49 4534 1
49 4601 1
49 4734 1
49 4842 1
49 4888 1
49 4904 1
49 4942 1
49 4975 1
50 3 1
50 5 1
50 28 1
50 47 1
50 147 1
50 181 1
50 206 1
50 326 1
50 498 1
50 531 1
50 567 1
50 596 1
50 658 1
50 679 1
50 741 1
50 742 1
50 912 1
50 992 1
50 1215 1
50 1411 1
50 1458 1
50 1512 1
50 1874 1
50 1988 1
50 2049 1
50 2100 1
50 2423 1
50 2503 1
50 2541 1
50 2600 1
50 2736 1
50 2993 1
50 2997 1
50 3251 1
50 3282 1
50 3304 1
50 3323 1
50 3343 1
50 3696 1
50 3889 1
50 4031 1
50 4085 1
50 4509 1
50 4741 1
50 4938 1
51 2 1
51 20 1
51 28 1
51 36 1
51 85 1
51 88 1
51 119 1
51 157 1
51 158 1
51 169 1
51 223 1
51 239 1
51 248 1
51 311 1
51 343 1
51 391 1
51 414 1
51 447 1
51 448 1
51 641 1
51 699 1
51 722 1
51 774 1
51 906 1
51 914 1
51 1147 1
51 1224 1
51 1252 1
51 1297 1
51 1433 1
51 1438 1
51 1559 1
51 1684 1
51 1801 1
51 1929 1
51 1958 1
51 2015 1
51 2042 1
51 2167 1
51 2234 1
51 2357 1
51 2501 1
51 2519 1
51 2598 1
51 2781 1
51 2907 1
51 3327 1
51 3502 1
51 3542 1
51 3575 1
51 3925 1
51 4173 1
51 4253 1
51 4477 1
51 4594 1
51 4758 1
51 4798 1
51 4929 1
52 2 1
52 19 1
52 36 1
52 45 1
52 54 1
52 65 1
52 73 1
52 76 1
52 94 1
52 98 1
52 155 1
52 247 1
52 251 1
52 253 1
52 267 1
52 281 1
52 302 1
52 308 1
52 360 1
52 419 1
52 464 1
52 471 1
52 516 1
52 569 1
52 570 1
52 658 1
52 663 1
52 695 1
52 746 1
52 807 1
52 872 1
52 877 1
52 907 1
52 923 1
52 937 1
52 977 1
52 1039 1
52 1093 1
52 1184 1
52 1386 1
52 1401 1
52 1473 1
52 1479 1
52 1494 1
52 1521 1
52 1533 1
52 1542 1
52 1572 1
52 1574 1
52 1581 1
52 1619 1
52 1814 1
52 1836 1
52 1861 1
52 1901 1
52 1940 1
52 1986 1
52 2013 1
52 2024 1
52 2091 1
52 2163 1
52 2173 1
52 2299 1
52 2572 1
52 2585 1
52 2840 1
52 2852 1
52 2857 1
52 2862 1
52 2936 1
52 2961 1
52 2989 1
52 3068 1
52 3144 1
52 3217 1
52 3230 1
52 3325 1
52 3453 1
52 3468 1
52 3492 1
52 3533 1
52 3581 1
52 3776 1
52 3943 1
52 4111 1
52 4181 1
52 4205 1
52 4258 1
52 4259 1
52 4514 1
52 4616 1
52 4752 1
52 4790 1
53 2 1
53 6 1
53 18 1
53 28 1
53 161 1
53 202 1
53 285 1
53 306 1
53 434 1
53 444 1
53 540 1
53 549 1
53 868 1
53 884 1
53 913 1
53 1209 1
53 1244 1
53 1256 1
53 1351 1
53 1506 1
53 1550 1
53 1599 1
53 1691 1
53 2414 1
53 2480 1
53 3473 1
53 3486 1
53 3793 1
53 4084 1
53 4261 1
54 19 1
54 29 1
54 41 1
54 52 1
54 74 1
54 117 1
54 133 1
54 251 1
54 252 1
54 273 1
54 297 1
54 302 1
54 335 1
54 453 1
54 483 1
54 509 1
54 533 1
54 595 1
54 920 1
54 946 1
54 994 1
54 1008 1
54 1129 1
54 1228 1
54 1644 1
54 2492 1
54 2522 1
54 3038 1
54 3517 1
54 4212 1
54 4612 1
54 4926 1
55 2 1
55 19 1
55 21 1
55 29 1
55 70 1
55 176 1
55 265 1
55 393 1
55 455 1
55 553 1
55 717 1
55 1029 1
55 1175 1
55 1693 1
55 2207 1
55 2247 1
55 2559 1
55 2675 1
55 3493 1
55 3700 1
55 3890 1
55 3961 1
55 4139 1
55 4859 1
56 11 1
56 16 1
56 22 1
56 39 1
56 108 1
56 130 1
56 139 1
56 201 1
56 1459 1
56 1485 1
56 1628 1
56 1685 1
56 2280 1
56 3360 1
56 3511 1
57 9 1
57 21 1
57 41 1
57 48 1
57 89 1
57 100 1
57 101 1
57 126 1
57 130 1
57 191 1
57 222 1
57 280 1
57 387 1
57 403 1
57 704 1
57 735 1
57 744 1
57 765 1
57 1086 1
57 1200 1
57 1246 1
57 1364 1
57 1523 1
57 1635 1
57 1740 1
57 1847 1
57 1887 1
57 2243 1
57 2249 1
57 2368 1
57 2383 1
57 2385 1
57 2406 1
57 2449 1
57 2585 1
57 2807 1
57 2893 1
57 3049 1
57 3052 1
57 3375 1
57 3385 1
57 3563 1
57 3639 1
57 3986 1
57 4033 1
57 4100 1
57 4134 1
57 4431 1
58 5 1
58 10 1
58 16 1
58 21 1
58 83 1
58 101 1
58 122 1
58 165 1
58 167 1
58 177 1
58 224 1
58 278 1
58 288 1
58 303 1
58 433 1
58 445 1
58 463 1
58 468 1
58 493 1
58 537 1
58 542 1
58 568 1
58 577 1
58 586 1
58 624 1
58 797 1
58 798 1
58 850 1
58 852 1
58 966 1
58 985 1
58 1183 1
58 1211 1
58 1270 1
58 1358 1
58 1545 1
58 1616 1
58 1631 1
58 1634 1
58 1785 1
58 1965 1
58 1987 1
58 2001 1
58 2041 1
58 2072 1
58 2231 1
58 2320 1
58 2396 1
58 2654 1
58 2679 1
58 2856 1
58 2898 1
58 2964 1
58 3047 1
58 3060 1
58 3295 1
58 3325 1
58 3686 1
58 3761 1
58 3830 1
58 3995 1
58 4151 1
58 4308 1
58 4324 1
58 4584 1
58 4645 1
58 4993 1
59 19 1
59 20 1
59 27 1
59 29 1
59 62 1
59 89 1
59 96 1
59 166 1
59 170 1
59 242 1
59 345 1
59 492 1
59 574 1
59 687 1
59 749 1
59 757 1
59 1001 1
59 1005 1
59 1560 1
59 1852 1
59 2108 1
59 2387 1
59 2389 1
59 3014 1
59 3102 1
59 3234 1
59 3251 1
59 3466 1
59 3529 1
59 3665 1
59 4326 1
59 4387 1
59 4652 1
59 4691 1
59 4978 1
60 5 1
60 12 1
60 16 1
60 32 1
60 77 1
60 197 1
60 313 1
60 774 1
60 1162 1
60 1502 1
60 1763 1
60 1797 1
60 1886 1
60 1975 1
60 2014 1
60 2648 1
60 2660 1
60 2698 1
60 2734 1
60 3082 1
60 3418 1
60 3602 1
60 3619 1
60 4744 1
60 4791 1
60 4843 1
61 16 1
61 17 1
61 28 1
61 31 1
61 90 1
61 203 1
61 211 1
61 229 1
61 233 1
61 491 1
61 660 1
61 1012 1
61 1031 1
61 1293 1
61 1566 1
61 2263 1
61 2515 1
61 2548 1
61 3154 1
61 3221 1
61 3644 1
61 3663 1
61 3729 1
61 4373 1
62 10 1
62 11 1
62 19 1
62 59 1
62 91 1
62 121 1
62 145 1
62 193 1
62 396 1
62 959 1
62 1403 1
62 1617 1
62 2108 1
62 2244 1
62 2248 1
62 3131 1
62 3812 1
62 4007 1
62 4115 1
62 4415 1
62 4737 1
63 19 1
63 21 1
63 25 1
63 44 1
63 67 1
63 68 1
63 309 1
63 426 1
63 548 1
63 655 1
63 1323 1
63 2125 1
63 2230 1
63 2537 1
63 2658 1
63 3774 1
63 4855 1
63 4911 1
64 20 1
64 22 1
64 34 1
64 48 1
64 191 1
64 492 1
64 546 1
64 1499 1
64 3544 1
64 3761 1
65 5 1
65 19 1
65 35 1
65 52 1
65 98 1
65 253 1
65 276 1
65 342 1
65 360 1
65 399 1
65 429 1
65 438 1
65 583 1
65 596 1
65 640 1
65 702 1
65 726 1
65 751 1
65 793 1
65 881 1
65 937 1
65 1712 1
65 1735 1
65 1789 1
65 1825 1
65 2313 1
65 2542 1
65 2649 1
65 2751 1
65 2752 1
65 2790 1
65 2856 1
65 2911 1
65 3109 1
65 4498 1
66 5 1
66 10 1
66 18 1
66 43 1
66 69 1
66 105 1
66 114 1
66 164 1
66 168 1
66 250 1
66 274 1
66 284 1
66 366 1
66 431 1
66 481 1
66 539 1
66 562 1
66 579 1
66 606 1
66 667 1
66 741 1
66 747 1
66 842 1
66 990 1
66 1006 1
66 1096 1
66 1097 1
66 1144 1
66 1165 1
66 1255 1
66 1284 1
66 1624 1
66 1860 1
66 2097 1
66 2175 1
66 2179 1
66 2215 1
66 2218 1
66 2236 1
66 2326 1
66 2373 1
66 2407 1
66 2530 1
66 2578 1
66 2730 1
66 3358 1
66 3384 1
66 3406 1
66 3608 1
66 3675 1
66 3800 1
66 3851 1
66 3862 1
66 4003 1
66 4030 1
66 4145 1
66 4378 1
66 4497 1
66 4565 1
66 4917 1
66 4950 1
67 5 1
67 6 1
67 9 1
67 63 1
67 70 1
67 92 1
67 174 1
67 249 1
67 265 1
67 309 1
67 503 1
67 986 1
67 1119 1
67 1134 1
67 1196 1
67 1323 1
67 1463 1
67 1558 1
67 2261 1
67 2295 1
67 2440 1
67 2772 1
67 2783 1
67 4036 1
67 4880 1
67 4995 1
68 2 1
68 9 1
68 21 1
68 63 1
68 113 1
68 318 1
68 357 1
68 622 1
68 872 1
68 1353 1
68 1566 1
68 1940 1
68 1962 1
68 3273 1
68 3986 1
68 4743 1
69 2 1
69 12 1
69 36 1
69 66 1
69 114 1
69 604 1
69 701 1
69 845 1
69 1031 1
69 3382 1
69 3789 1
69 3851 1
70 6 1
70 10 1
70 55 1
70 67 1
70 111 1
70 126 1
70 127 1
70 182 1
70 193 1
70 309 1
70 319 1
70 361 1
70 388 1
70 395 1
70 553 1
70 634 1
70 642 1
70 735 1
70 784 1
70 1389 1
70 1551 1
70 1597 1
70 1693 1
70 1935 1
70 2150 1
70 2604 1
70 2629 1
70 2731 1
70 2747 1
70 2872 1
70 3084 1
70 3727 1
70 3962 1
70 4261 1
70 4473 1
70 4732 1
70 4812 1
70 4854 1
70 4970 1
71 2 1
71 16 1
71 17 1
71 49 1
71 97 1
71 117 1
71 120 1
71 123 1
71 142 1
71 242 1
71 396 1
71 425 1
71 669 1
71 678 1
71 919 1
71 1402 1
71 1620 1
71 2027 1
71 2051 1
71 2218 1
71 2267 1
71 2570 1
71 2746 1
71 2869 1
71 2939 1
71 3140 1
71 3239 1
71 3387 1
71 4222 1
71 4904 1
72 2 1
72 9 1
72 36 1
72 40 1
72 217 1
72 736 1
72 998 1
72 1176 1
72 1412 1
72 2326 1
72 2381 1
72 2902 1
72 4852 1
73 2 1
73 5 1
73 13 1
73 52 1
73 94 1
73 98 1
73 128 1
73 155 1
73 178 1
73 180 1
73 220 1
73 251 1
73 255 1
73 270 1
73 348 1
73 446 1
73 481 1
73 482 1
73 487 1
73 526 1
73 586 1
73 588 1
73 593 1
73 624 1
73 753 1
73 830 1
73 873 1
73 1108 1
73 1122 1
73 1161 1
73 1226 1
73 1325 1
73 1721 1
73 1770 1
73 1782 1
73 1824 1
73 1866 1
73 2076 1
73 2117 1
73 2143 1
73 2153 1
73 2301 1
73 2303 1
73 2402 1
73 2435 1
73 2493 1
73 2579 1
73 2642 1
73 2682 1
73 2701 1
73 2702 1
73 2730 1
73 2773 1
73 2809 1
73 2843 1
73 2959 1
73 3069 1
73 3285 1
73 3357 1
73 3687 1
73 3822 1
73 3925 1
73 4046 1
73 4147 1
73 4452 1
73 4548 1
73 4637 1
73 4653 1
73 4699 1
73 4823 1
73 4883 1
73 5000 1
74 2 1
74 13 1
74 29 1
74 54 1
74 95 1
74 242 1
74 334 1
74 357 1
74 416 1
74 445 1
74 457 1
74 600 1
74 677 1
74 915 1
74 916 1
74 1020 1
74 1116 1
74 1144 1
74 1173 1
74 1380 1
74 1442 1
74 1476 1
74 1805 1
74 2227 1
74 2375 1
74 2978 1
74 2982 1
74 3216 1
74 3413 1
74 3693 1
74 4006 1
74 4319 1
74 4420 1
75 1 1
75 11 1
75 17 1
75 21 1
75 77 1
75 102 1
75 105 1
75 120 1
75 145 1
75 149 1
75 163 1
75 169 1
75 203 1
75 348 1
75 410 1
75 411 1
75 505 1
75 524 1
75 594 1
75 620 1
75 721 1
75 727 1
75 752 1
75 785 1
75 952 1
75 955 1
75 1046 1
75 1059 1
75 1082 1
75 1336 1
75 1395 1
75 1410 1
75 1435 1
75 1445 1
75 1449 1
75 1616 1
75 1630 1
75 1745 1
75 1758 1
75 1780 1
75 1799 1
75 1824 1
75 1873 1
75 1897 1
75 1919 1
75 2257 1
75 2483 1
75 2495 1
75 2558 1
75 2591 1
75 2700 1
75 2713 1
75 2838 1
75 2933 1
75 2987 1
75 3131 1
75 3192 1
75 3268 1
75 3362 1
75 3374 1
75 3376 1
75 3476 1
75 3478 1
75 3648 1
75 3973 1
75 4105 1
75 4280 1
75 4283 1
75 4474 1
75 4629 1
75 4738 1
75 4746 1
75 4886 1
75 4928 1
75 4952 1
76 2 1
76 25 1
76 37 1
76 52 1
76 108 1
76 196 1
76 237 1
76 269 1
76 401 1
76 464 1
76 615 1
76 653 1
76 801 1
76 904 1
76 921 1
76 980 1
76 1029 1
76 1073 1
76 1341 1
76 1516 1
76 1909 1
76 2804 1
76 3016 1
76 3068 1
76 3143 1
76 3370 1
76 3760 1
76 4271 1
76 4424 1
76 4853 1
76 4924 1
77 5 1
77 11 1
77 60 1
77 75 1
77 93 1
77 102 1
77 103 1
77 199 1
77 270 1
77 364 1
77 636 1
77 890 1
77 1045 1
77 1070 1
77 1150 1
77 1162 1
77 1294 1
77 1430 1
77 1450 1
77 1569 1
77 1655 1
77 1679 1
77 1747 1
77 1826 1
77 1932 1
77 2124 1
77 2177 1
77 2312 1
77 2933 1
77 2992 1
77 3111 1
77 4094 1
77 4172 1
77 4413 1
77 4448 1
78 2 1
78 5 1
78 11 1
78 39 1
78 81 1
78 111 1
78 321 1
78 520 1
78 523 1
78 738 1
78 1641 1
78 2033 1
78 3095 1
78 3105 1
78 3755 1
79 5 1
79 17 1
79 35 1
79 45 1
79 82 1
79 315 1
79 382 1
79 466 1
79 547 1
79 820 1
79 1037 1
79 1058 1
79 1222 1
79 1539 1
79 1796 1
79 2048 1
79 2435 1
79 2639 1
79 2826 1
79 3547 1
79 3852 1
79 4397 1
80 14 1
80 16 1
80 39 1
80 40 1
80 554 1
80 635 1
80 2544 1
80 3792 1
80 4052 1
80 4515 1
80 4530 1
80 4715 1
81 2 1
81 13 1
81 37 1
81 78 1
81 110 1
81 113 1
81 131 1
81 189 1
81 226 1
81 285 1
81 399 1
81 425 1
81 476 1
81 525 1
81 526 1
81 540 1
81 561 1
81 563 1
81 585 1
81 708 1
81 730 1
81 781 1
81 1028 1
81 1051 1
81 1102 1
81 1185 1
81 1347 1
81 1376 1
81 1554 1
81 1640 1
81 1641 1
81 2010 1
81 2503 1
81 2594 1
81 2688 1
81 2732 1
81 2832 1
81 2855 1
81 3048 1
81 3065 1
81 3074 1
81 3127 1
81 3237 1
81 3354 1
81 3379 1
81 3437 1
81 3550 1
81 3782 1
81 3795 1
81 3906 1
81 4093 1
81 4119 1
81 4200 1
81 4229 1
81 4302 1
81 4437 1
81 4644 1
82 2 1
82 44 1
82 45 1
82 79 1
82 129 1
82 358 1
82 363 1
82 456 1
82 490 1
82 655 1
82 1037 1
82 1135 1
82 1181 1
82 1544 1
82 1945 1
82 2077 1
82 2086 1
82 2234 1
82 2378 1
82 2534 1
82 2641 1
82 2670 1
82 4088 1
82 4280 1
82 4298 1
83 1 1
83 10 1
83 21 1
83 58 1
83 143 1
83 167 1
83 297 1
83 305 1
83 433 1
83 463 1
83 556 1
83 694 1
83 703 1
83 913 1
83 945 1
83 968 1
83 992 1
83 1392 1
83 1564 1
83 1579 1
83 1620 1
83 1631 1
83 1694 1
83 2093 1
83 2623 1
83 2785 1
83 3053 1
83 3498 1
83 3560 1
83 4091 1
83 4683 1
83 4708 1
83 4725 1
84 18 1
84 23 1
84 25 1
84 33 1
84 136 1
84 238 1
84 259 1
84 305 1
84 460 1
84 481 1
84 732 1
84 909 1
84 1248 1
84 1338 1
84 1384 1
84 1454 1
84 1503 1
84 1733 1
84 1951 1
84 2050 1
84 2051 1
84 2156 1
84 2266 1
84 2412 1
84 2439 1
84 2469 1
84 2866 1
84 2968 1
84 2977 1
84 3090 1
84 3630 1
84 3704 1
84 3932 1
84 4633 1
84 4999 1
85 2 1
85 16 1
85 36 1
85 51 1
85 106 1
85 118 1
85 148 1
85 172 1
85 196 1
85 209 1
85 217 1
85 245 1
85 278 1
85 406 1
85 410 1
85 496 1
85 518 1
85 538 1
85 562 1
85 669 1
85 755 1
85 820 1
85 839 1
85 899 1
85 956 1
85 1336 1
85 1517 1
85 1559 1
85 1863 1
85 1937 1
85 2141 1
85 2175 1
85 2247 1
85 2336 1
85 2488 1
85 2596 1
85 2875 1
85 2902 1
85 3688 1
85 4084 1
85 4852 1
86 13 1
86 17 1
86 25 1
86 27 1
86 99 1
86 130 1
86 133 1
86 219 1
86 329 1
86 376 1
86 847 1
86 1369 1
86 1815 1
86 2027 1
86 2149 1
86 4446 1
87 23 1
87 26 1
87 33 1
87 34 1
87 259 1
87 332 1
87 538 1
87 1488 1
87 1668 1
87 1671 1
87 1800 1
87 2789 1
87 4262 1
87 4327 1
88 2 1
88 20 1
88 34 1
88 51 1
88 97 1
88 183 1
88 212 1
88 223 1
88 386 1
88 434 1
88 461 1
88 699 1
88 914 1
88 1704 1
88 2013 1
89 9 1
89 48 1
89 57 1
89 59 1
89 100 1
89 101 1
89 124 1
89 144 1
89 148 1
89 186 1
89 285 1
89 299 1
89 368 1
89 402 1
89 413 1
89 451 1
89 455 1
89 459 1
89 469 1
89 500 1
89 965 1
89 1016 1
89 1117 1
89 1283 1
89 1292 1
89 1371 1
89 1397 1
89 1415 1
89 1424 1
89 1570 1
89 1638 1
89 1672 1
89 1702 1
89 1762 1
89 1866 1
89 2019 1
89 2117 1
89 2120 1
89 2163 1
89 2232 1
89 2343 1
89 2387 1
89 2504 1
89 2597 1
89 2781 1
89 2850 1
89 2996 1
89 3041 1
89 3263 1
89 3655 1
89 3859 1
89 3916 1
89 3958 1
89 4190 1
89 4298 1
89 4326 1
89 4420 1
89 4571 1
89 4576 1
89 4641 1
89 4650 1
89 4700 1
90 5 1
90 18 1
90 28 1
90 61 1
90 160 1
90 162 1
90 175 1
90 201 1
90 215 1
90 216 1
90 230 1
90 240 1
90 323 1
90 358 1
90 371 1
90 391 1
90 432 1
90 469 1
90 502 1
90 644 1
90 648 1
90 855 1
90 856 1
90 895 1
90 1120 1
90 1134 1
90 1253 1
90 1387 1
90 1454 1
90 1501 1
90 1649 1
90 1726 1
90 1774 1
90 1947 1
90 2199 1
90 2288 1
90 2316 1
90 2362 1
90 2406 1
90 2415 1
90 2583 1
90 2621 1
90 2891 1
90 2956 1
90 2988 1
90 3072 1
90 3128 1
90 3207 1
90 3330 1
90 3468 1
90 3687 1
90 3692 1
90 3730 1
90 3811 1
90 3860 1
90 3979 1
90 4057 1
90 4112 1
90 4247 1
90 4399 1
90 4491 1
90 4844 1
91 17 1
91 25 1
91 29 1
91 62 1
91 92 1
91 145 1
91 174 1
91 193 1
91 208 1
91 210 1
91 234 1
91 236 1
91 295 1
91 307 1
91 318 1
91 321 1
91 368 1
91 388 1
91 390 1
91 506 1
91 539 1
91 544 1
91 734 1
91 739 1
91 780 1
91 791 1
91 794 1
91 824 1
91 891 1
91 933 1
91 959 1
91 990 1
91 1050 1
91 1126 1
91 1155 1
91 1163 1
91 1206 1
91 1212 1
91 1243 1
91 1253 1
91 1265 1
91 1415 1
91 1417 1
91 1420 1
91 1431 1
91 1552 1
91 1621 1
91 1765 1
91 1785 1
91 1827 1
91 1832 1
91 1872 1
91 1884 1
91 1947 1
91 2148 1
91 2489 1
91 2661 1
91 2680 1
91 2723 1
91 2749 1
91 2768 1
91 2825 1
91 2829 1
91 2892 1
91 3131 1
91 3256 1
91 3286 1
91 3425 1
91 3682 1
91 3918 1
91 3960 1
91 4128 1
91 4155 1
91 4183 1
91 4346 1
91 4357 1
91 4365 1
91 4472 1
91 4637 1
91 4687 1
91 4757 1
91 4807 1
91 4830 1
91 4840 1
91 4980 1
92 13 1
92 25 1
92 67 1
92 91 1
92 112 1
92 125 1
92 157 1
92 205 1
92 266 1
92 291 1
92 316 1
92 344 1
92 412 1
92 413 1
92 415 1
92 450 1
92 495 1
92 645 1
92 716 1
92 783 1
92 791 1
92 802 1
92 818 1
92 972 1
92 990 1
92 1194 1
92 1342 1
92 1421 1
92 1423 1
92 1463 1
92 1562 1
92 1685 1
92 1761 1
92 1781 1
92 1910 1
92 1985 1
92 2055 1
92 2292 1
92 2568 1
92 2742 1
92 2948 1
92 3032 1
92 3046 1
92 3075 1
92 3449 1
92 3483 1
92 3588 1
92 3759 1
92 4038 1
92 4129 1
92 4220 1
92 4224 1
92 4361 1
92 4433 1
92 4586 1
92 4616 1
92 4691 1
92 4757 1
92 4777 1
92 4791 1
92 4879 1
92 4964 1
93 35 1
93 37 1
93 45 1
93 77 1
93 115 1
93 218 1
93 276 1
93 340 1
93 430 1
93 483 1
93 943 1
93 1846 1
93 2228 1
93 3111 1
93 3777 1
93 3910 1
93 4435 1
94 5 1
94 11 1
94 52 1
94 73 1
94 147 1
94 220 1
94 1115 1
94 1363 1
94 1425 1
94 3285 1
95 2 1
95 13 1
95 22 1
95 74 1
95 189 1
95 248 1
95 357 1
95 437 1
95 497 1
95 668 1
95 1002 1
95 1027 1
95 1582 1
95 3122 1
95 3501 1
95 3560 1
95 4823 1
96 8 1
96 9 1
96 21 1
96 59 1
96 127 1
96 148 1
96 162 1
96 1150 1
96 1161 1
96 1933 1
96 2825 1
96 4543 1
96 4731 1
97 3 1
97 49 1
97 71 1
97 88 1
97 120 1
97 183 1
97 214 1
97 227 1
97 240 1
97 317 1
97 364 1
97 378 1
97 397 1
97 402 1
97 429 1
97 721 1
97 950 1
97 954 1
97 1014 1
97 1464 1
97 1609 1
97 2068 1
97 2196 1
97 2903 1
97 3439 1
97 3510 1
97 3581 1
97 3618 1
97 3745 1
97 3932 1
97 4136 1
97 4656 1
97 4821 1
98 3 1
98 52 1
98 65 1
98 73 1
98 105 1
98 112 1
98 155 1
98 174 1
98 241 1
98 403 1
98 596 1
98 753 1
98 873 1
98 908 1
98 1320 1
98 1378 1
98 1383 1
98 1918 1
98 1976 1
98 2447 1
98 2687 1
98 2934 1
98 3307 1
98 3809 1
98 4668 1
99 3 1
99 12 1
99 36 1
99 86 1
99 156 1
99 179 1
99 197 1
99 245 1
99 344 1
99 398 1
99 565 1
99 593 1
99 695 1
99 814 1
99 977 1
99 1039 1
99 1535 1
99 1618 1
99 1662 1
99 1716 1
99 1718 1
99 2024 1
99 2854 1
99 2878 1
99 2961 1
99 3388 1
99 3496 1
99 3857 1
99 4148 1
99 4190 1
100 9 1
100 48 1
100 57 1
100 89 1
100 107 1
100 158 1
100 213 1
100 346 1
100 465 1
100 472 1
100 500 1
100 539 1
100 574 1
100 786 1
100 1032 1
100 1036 1
100 1246 1
100 1364 1
100 1508 1
100 1531 1
100 1858 1
100 1884 1
100 1981 1
100 2095 1
100 2211 1
100 2222 1
100 2308 1
100 2349 1
100 2567 1
100 2597 1
100 2708 1
100 2755 1
100 2802 1
100 3005 1
100 3020 1
100 3214 1
100 3284 1
100 3482 1
100 3635 1
100 3717 1
100 3978 1
100 4153 1
100 4478 1
100 4776 1
101 21 1
101 57 1
101 58 1
101 89 1
101 165 1
101 177 1
101 441 1
101 498 1
101 503 1
101 627 1
101 735 1
101 845 1
101 847 1
101 966 1
101 1047 1
101 1207 1
101 1328 1
101 1356 1
101 1386 1
101 1522 1
101 1757 1
101 1824 1
101 1960 1
101 2001 1
101 2248 1
101 3266 1
101 3477 1
101 3693 1
101 3883 1
101 3890 1
101 4017 1
101 4283 1
101 4625 1
102 26 1
102 33 1
102 75 1
102 77 1
102 237 1
102 243 1
102 365 1
102 444 1
102 457 1
102 603 1
102 643 1
102 775 1
102 804 1
102 844 1
102 922 1
102 1117 1
102 1219 1
102 1500 1
102 1532 1
102 1591 1
102 1745 1
102 2018 1
102 2171 1
102 2188 1
102 2213 1
102 2403 1
102 2664 1
102 2779 1
102 2901 1
102 3008 1
102 3078 1
102 3425 1
102 4081 1
102 4398 1
103 2 1
103 10 1
103 11 1
103 77 1
103 241 1
103 438 1
103 890 1
103 1863 1
103 1889 1
103 1891 1
103 3125 1
103 3678 1
103 3839 1
103 4884 1
104 5 1
104 24 1
104 27 1
104 34 1
104 300 1
104 353 1
104 512 1
104 4923 1
105 46 1
105 66 1
105 75 1
105 98 1
105 112 1
105 114 1
105 168 1
105 177 1
105 192 1
105 225 1
105 231 1
105 274 1
105 286 1
105 306 1
105 308 1
105 315 1
105 387 1
105 412 1
105 431 1
105 470 1
105 505 1
105 511 1
105 538 1
105 567 1
105 598 1
105 602 1
105 605 1
105 615 1
105 684 1
105 694 1
105 780 1
105 788 1
105 831 1
105 980 1
105 993 1
105 1059 1
105 1088 1
105 1208 1
105 1212 1
105 1224 1
105 1301 1
105 1306 1
105 1316 1
105 1375 1
105 1383 1
105 1445 1
105 1446 1
105 1567 1
105 1728 1
105 1733 1
105 1786 1
105 1825 1
105 1841 1
105 1853 1
105 1948 1
105 1960 1
105 2002 1
105 2134 1
105 2465 1
105 2494 1
105 2538 1
105 2652 1
105 2978 1
105 3006 1
105 3056 1
105 3087 1
105 3182 1
105 3313 1
105 3340 1
105 3457 1
105 3470 1
105 3584 1
105 3712 1
105 3973 1
105 4075 1
105 4080 1
105 4124 1
105 4148 1
105 4240 1
105 4377 1
105 4407 1
105 4659 1
105 4753 1
105 4764 1
105 4775 1
105 4787 1
105 4863 1
105 4870 1
105 4986 1
106 2 1
106 13 1
106 25 1
106 85 1
106 116 1
106 157 1
106 271 1
106 387 1
106 460 1
106 577 1
106 689 1
106 702 1
106 1090 1
106 1101 1
106 1129 1
106 1178 1
106 1237 1
106 1375 1
106 1741 1
106 1875 1
106 1945 1
106 1950 1
106 2002 1
106 2094 1
106 2130 1
106 2277 1
106 2336 1
106 2453 1
106 2650 1
106 2672 1
106 2748 1
106 2858 1
106 2875 1
106 2975 1
106 3005 1
106 3171 1
106 3261 1
106 3373 1
106 3435 1
106 3849 1
106 3857 1
106 3921 1
106 3953 1
106 4197 1
106 4655 1
106 4856 1
106 4975 1
106 4991 1
106 4995 1
107 3 1
107 29 1
107 31 1
107 100 1
107 158 1
107 161 1
107 256 1
107 295 1
107 301 1
107 377 1
107 472 1
107 514 1
107 600 1
107 676 1
107 681 1
107 1097 1
107 1625 1
107 1744 1
107 1921 1
107 1955 1
107 2180 1
107 2592 1
107 3283 1
107 3839 1
107 3976 1
107 4025 1
108 2 1
108 11 1
108 56 1
108 76 1
108 154 1
108 231 1
108 237 1
108 414 1
108 440 1
108 497 1
108 517 1
108 541 1
108 654 1
108 672 1
108 731 1
108 748 1
108 805 1
108 879 1
108 940 1
108 980 1
108 1029 1
108 1100 1
108 1103 1
108 1142 1
108 1190 1
108 1199 1
108 1256 1
108 1485 1
108 1831 1
108 1874 1
108 1903 1
108 2059 1
108 2100 1
108 2431 1
108 2476 1
108 2514 1
108 2609 1
108 2686 1
108 2746 1
108 3566 1
108 3935 1
108 4771 1
108 4879 1
108 4908 1
109 3 1
109 17 1
109 19 1
109 47 1
109 131 1
109 140 1
109 159 1
109 222 1
109 246 1
109 268 1
109 281 1
109 294 1
109 486 1
109 522 1
109 943 1
109 1183 1
109 1344 1
109 1470 1
109 1490 1
109 1568 1
109 1749 1
109 1857 1
109 1997 1
109 2088 1
109 2181 1
109 2632 1
109 2763 1
109 2772 1
109 3581 1
109 3808 1
109 3970 1
110 9 1
110 11 1
110 13 1
110 81 1
110 190 1
110 270 1
110 304 1
110 368 1
110 708 1
110 1747 1
110 2255 1
110 2277 1
110 4186 1
110 4702 1
110 4868 1
111 5 1
111 29 1
111 70 1
111 78 1
111 126 1
111 301 1
111 320 1
111 581 1
111 1699 1
111 2323 1
111 4314 1
111 4473 1
112 13 1
112 92 1
112 98 1
112 105 1
112 602 1
113 2 1
113 3 1
113 68 1
113 81 1
113 436 1
113 504 1
113 561 1
113 587 1
113 637 1
113 769 1
113 1084 1
113 1110 1
113 1188 1
113 1353 1
113 1374 1
113 1457 1
113 1479 1
113 1524 1
113 1554 1
113 1625 1
113 1775 1
113 1796 1
113 1830 1
113 1974 1
113 2225 1
113 2278 1
113 2338 1
113 2505 1
113 2832 1
113 2837 1
113 3114 1
113 3115 1
113 3348 1
113 3354 1
113 3430 1
113 3885 1
113 3928 1
113 4152 1
113 4168 1
113 4249 1
113 4364 1
113 4367 1
113 4540 1
113 4825 1
114 18 1
114 66 1
114 69 1
114 105 1
114 119 1
114 168 1
114 299 1
114 405 1
114 485 1
114 505 1
114 550 1
114 573 1
114 694 1
114 722 1
114 1009 1
114 1023 1
114 1027 1
114 1030 1
114 1138 1
114 1418 1
114 1707 1
114 1726 1
114 1733 1
114 2254 1
114 2414 1
114 2457 1
114 2462 1
114 2995 1
114 3056 1
114 3211 1
114 3396 1
114 3775 1
114 3955 1
114 4243 1
114 4550 1
115 26 1
115 37 1
115 45 1
115 93 1
115 197 1
115 218 1
115 327 1
115 443 1
115 484 1
115 883 1
115 1076 1
115 1165 1
115 1408 1
115 1437 1
115 1754 1
115 2022 1
115 2221 1
115 2447 1
115 2546 1
115 2551 1
115 2655 1
115 2807 1
115 2880 1
115 2960 1
115 3281 1
115 3436 1
115 3676 1
115 3702 1
115 3955 1
115 4045 1
115 4284 1
115 4425 1
115 4477 1
115 4557 1
116 5 1
116 13 1
116 35 1
116 106 1
116 163 1
116 322 1
116 577 1
116 735 1
116 856 1
116 948 1
116 1369 1
116 1842 1
116 2256 1
116 2679 1
116 3026 1
116 3368 1
116 3688 1
117 27 1
117 29 1
117 54 1
117 71 1
117 228 1
117 456 1
117 470 1
117 522 1
117 529 1
117 931 1
117 1310 1
117 1467 1
117 1998 1
117 2071 1
117 2289 1
117 2828 1
117 3080 1
117 3391 1
118 9 1
118 16 1
118 36 1
118 85 1
118 276 1
118 439 1
118 1110 1
118 1498 1
118 1544 1
118 1852 1
118 2152 1
118 2375 1
118 2557 1
118 2751 1
119 25 1
119 28 1
119 51 1
119 114 1
119 128 1
119 152 1
119 228 1
119 660 1
119 709 1
119 1202 1
119 2096 1
119 2622 1
119 2683 1
119 2781 1
120 25 1
120 71 1
120 75 1
120 97 1
120 203 1
120 227 1
120 294 1
120 401 1
120 528 1
120 721 1
120 1341 1
120 1399 1
120 1804 1
120 2862 1
120 3287 1
120 3732 1
120 4296 1
120 4424 1
120 4531 1
120 4742 1
120 4856 1
121 11 1
121 12 1
121 34 1
121 62 1
121 173 1
121 392 1
121 770 1
121 1074 1
121 1254 1
121 1331 1
121 1403 1
121 1632 1
121 1680 1
121 1716 1
121 1727 1
121 1761 1
121 1902 1
121 2055 1
121 2502 1
121 2828 1
121 3070 1
121 3810 1
121 3867 1
121 3874 1
121 4228 1
122 10 1
122 13 1
122 41 1
122 58 1
122 165 1
122 185 1
122 354 1
122 513 1
122 537 1
122 560 1
122 769 1
122 863 1
122 961 1
122 1028 1
122 1055 1
122 1070 1
122 1221 1
122 1457 1
122 1645 1
122 2224 1
122 2250 1
122 2500 1
122 2671 1
122 2908 1
122 3071 1
122 3247 1
122 3293 1
122 3321 1
122 3328 1
122 3332 1
122 3342 1
122 3495 1
122 3514 1
122 3643 1
122 3666 1
122 3676 1
122 4106 1
122 4111 1
122 4279 1
122 4289 1
122 4477 1
122 4529 1
122 4680 1
122 4953 1
123 2 1
123 19 1
123 44 1
123 71 1
123 165 1
123 426 1
123 523 1
123 708 1
123 943 1
123 1066 1
123 1611 1
123 1666 1
123 1830 1
123 2003 1
123 3684 1
123 4316 1
123 4836 1
124 2 1
124 10 1
124 43 1
124 89 1
124 186 1
124 220 1
124 319 1
124 965 1
124 1062 1
124 2061 1
124 2356 1
124 2723 1
124 2897 1
124 2966 1
124 4209 1
124 4439 1
125 2 1
125 17 1
125 49 1
125 92 1
125 138 1
125 224 1
125 291 1
125 333 1
125 370 1
125 495 1
125 614 1
125 972 1
125 1877 1
125 1915 1
125 2282 1
125 2309 1
125 2484 1
125 2640 1
125 2692 1
125 3089 1
125 3173 1
125 3414 1
125 3483 1
125 3588 1
125 3849 1
125 3897 1
125 4222 1
125 4242 1
125 4335 1
125 4681 1
125 4760 1
126 49 1
126 57 1
126 70 1
126 111 1
126 128 1
126 217 1
126 272 1
126 429 1
126 496 1
126 1295 1
126 1783 1
126 1944 1
126 1983 1
126 2023 1
126 2783 1
126 2906 1
126 3160 1
126 3247 1
126 3679 1
126 3983 1
126 4737 1
127 15 1
127 45 1
127 70 1
127 96 1
127 205 1
127 230 1
127 589 1
127 635 1
127 1659 1
127 2779 1
127 4201 1
127 4420 1
127 4809 1
128 10 1
128 73 1
128 119 1
128 126 1
128 143 1
128 763 1
128 1944 1
129 13 1
129 18 1
129 44 1
129 82 1
129 139 1
129 156 1
129 171 1
129 175 1
129 200 1
129 291 1
129 625 1
129 632 1
129 790 1
129 921 1
129 1050 1
129 1060 1
129 1127 1
129 1189 1
129 1284 1
129 1333 1
129 1510 1
129 1589 1
129 1622 1
129 1797 1
129 1849 1
129 2112 1
129 2273 1
129 2296 1
129 2581 1
129 2641 1
129 2784 1
129 2804 1
129 2952 1
129 3001 1
129 3013 1
129 3130 1
129 3372 1
129 3455 1
129 3509 1
129 4090 1
129 4759 1
130 17 1
130 56 1
130 57 1
130 86 1
130 139 1
130 182 1
130 191 1
130 199 1
130 201 1
130 235 1
130 442 1
130 496 1
130 561 1
130 585 1
130 616 1
130 793 1
130 819 1
130 897 1
130 1036 1
130 1072 1
130 1148 1
130 1217 1
130 1234 1
130 1246 1
130 1278 1
130 1308 1
130 1509 1
130 1519 1
130 1543 1
130 1663 1
130 1755 1
130 1872 1
130 2149 1
130 2241 1
130 2243 1
130 2249 1
130 2283 1
130 2516 1
130 2715 1
130 2797 1
130 2822 1
130 3084 1
130 3238 1
130 3298 1
130 3563 1
130 3904 1
130 3978 1
130 4191 1
130 4213 1
130 4318 1
130 4711 1
130 4714 1
130 4859 1
130 4861 1
131 3 1
131 41 1
131 81 1
131 109 1
131 146 1
131 189 1
131 226 1
131 235 1
131 285 1
131 292 1
131 326 1
131 336 1
131 353 1
131 389 1
131 400 1
131 428 1
131 460 1
131 473 1
131 488 1
131 535 1
131 625 1
131 708 1
131 734 1
131 766 1
131 777 1
131 835 1
131 926 1
131 947 1
131 1186 1
131 1300 1
131 1366 1
131 1428 1
131 1812 1
131 1928 1
131 2145 1
131 2271 1
131 2298 1
131 2379 1
131 2428 1
131 2566 1
131 2783 1
131 2833 1
131 3490 1
131 3728 1
131 3738 1
131 4205 1
131 4282 1
131 4409 1
132 2 1
132 5 1
132 6 1
132 17 1
132 202 1
132 209 1
132 300 1
132 507 1
132 509 1
132 695 1
132 713 1
132 803 1
132 828 1
132 830 1
132 860 1
132 869 1
132 975 1
132 1128 1
132 1151 1
132 1206 1
132 1333 1
132 1474 1
132 1535 1
132 1557 1
132 1660 1
132 1677 1
132 1696 1
132 1841 1
132 1982 1
132 2051 1
132 2138 1
132 2330 1
132 2606 1
132 2652 1
132 2770 1
132 3036 1
132 3101 1
132 3631 1
132 3647 1
132 3683 1
132 3705 1
132 3751 1
132 3752 1
132 3832 1
132 4085 1
132 4324 1
132 4474 1
132 4638 1
132 4922 1
133 11 1
133 17 1
133 54 1
133 86 1
133 682 1
133 758 1
133 1019 1
133 1229 1
133 1360 1
133 1717 1
133 2707 1
133 2993 1
133 4813 1
134 5 1
134 10 1
134 14 1
134 27 1
134 226 1
134 352 1
134 576 1
134 630 1
134 2625 1
134 3855 1
134 4303 1
134 4347 1
135 5 1
135 13 1
135 17 1
135 19 1
135 449 1
135 467 1
135 474 1
135 581 1
135 639 1
135 675 1
135 993 1
135 1124 1
135 1324 1
135 1390 1
135 1651 1
135 3208 1
135 3382 1
136 2 1
136 11 1
136 33 1
136 84 1
136 238 1
136 3638 1
137 1 1
137 7 1
137 9 1
137 18 1
137 141 1
137 150 1
137 175 1
137 198 1
137 296 1
137 342 1
137 475 1
137 541 1
137 564 1
137 674 1
137 795 1
137 814 1
137 831 1
137 859 1
137 1084 1
137 1168 1
137 1304 1
137 1330 1
137 1421 1
137 1449 1
137 1525 1
137 1612 1
137 1707 1
137 1946 1
137 2037 1
137 2082 1
137 2463 1
137 2567 1
137 2657 1
137 2668 1
137 2676 1
137 2735 1
137 3113 1
137 3137 1
137 3217 1
137 3252 1
137 3494 1
137 3886 1
137 4159 1
137 4176 1
137 4462 1
137 4551 1
138 17 1
138 27 1
138 29 1
138 125 1
138 224 1
138 232 1
138 250 1
138 303 1
138 417 1
138 710 1
138 957 1
138 972 1
138 1063 1
138 1350 1
138 1489 1
138 1525 1
138 1915 1
138 2269 1
138 3051 1
138 3412 1
138 3556 1
138 3573 1
138 3848 1
138 3894 1
138 4242 1
138 4760 1
138 4875 1
138 4956 1
139 49 1
139 56 1
139 129 1
139 130 1
139 216 1
139 286 1
139 310 1
139 617 1
139 897 1
139 946 1
139 1015 1
139 1468 1
139 1553 1
139 1589 1
139 1613 1
139 1659 1
139 1663 1
139 1802 1
139 1993 1
139 2432 1
139 2467 1
139 2479 1
139 2600 1
139 3074 1
139 3130 1
139 3255 1
139 3276 1
139 3427 1
139 3480 1
139 3511 1
139 3544 1
139 3755 1
139 3995 1
139 4076 1
139 4230 1
139 4306 1
139 4312 1
139 4326 1
139 4343 1
139 4356 1
139 4526 1
139 4622 1
139 4667 1
139 4759 1
140 3 1
140 12 1
140 20 1
140 109 1
140 434 1
140 675 1
140 690 1
140 1012 1
140 1033 1
140 1131 1
140 1724 1
140 2138 1
140 2611 1
140 2759 1
140 2777 1
140 3431 1
140 3456 1
140 4202 1
140 4364 1
140 4567 1
140 4613 1
141 13 1
141 18 1
141 25 1
141 137 1
141 150 1
141 275 1
141 328 1
141 394 1
141 479 1
141 638 1
141 736 1
141 832 1
141 953 1
141 986 1
141 1032 1
141 1064 1
141 1272 1
141 1339 1
141 1409 1
141 1604 1
141 1769 1
141 2178 1
141 2276 1
141 2392 1
141 3047 1
141 3356 1
141 3527 1
141 3625 1
141 3658 1
141 3669 1
141 3907 1
141 4120 1
141 4479 1
141 4545 1
141 4894 1
141 4979 1
141 4994 1
142 6 1
142 10 1
142 25 1
142 71 1
142 279 1
142 337 1
142 350 1
142 579 1
142 882 1
142 1392 1
142 1496 1
142 1891 1
142 2265 1
142 2341 1
142 2808 1
142 2869 1
142 3541 1
142 3621 1
142 3690 1
142 4172 1
142 4291 1
142 4511 1
143 10 1
143 17 1
143 83 1
143 128 1
143 305 1
143 504 1
143 584 1
143 622 1
143 954 1
143 1425 1
143 3359 1
143 4627 1
144 24 1
144 26 1
144 33 1
144 89 1
144 202 1
144 313 1
144 392 1
144 1061 1
144 1067 1
144 1868 1
144 2560 1
144 2661 1
144 3306 1
145 11 1
145 62 1
145 75 1
145 91 1
145 959 1
145 1232 1
145 2879 1
145 3131 1
145 3918 1
145 4737 1
145 4762 1
146 3 1
146 23 1
146 47 1
146 131 1
146 151 1
146 383 1
146 409 1
146 565 1
146 1203 1
146 1378 1
146 1440 1
146 1473 1
146 1644 1
146 1771 1
146 2005 1
146 2095 1
146 2465 1
146 2719 1
146 3237 1
146 3299 1
146 3650 1
146 3835 1
146 3840 1
146 4388 1
147 5 1
147 11 1
147 50 1
147 94 1
147 155 1
147 164 1
147 194 1
147 221 1
147 444 1
147 449 1
147 596 1
147 632 1
147 809 1
147 859 1
147 860 1
147 1157 1
147 1213 1
147 1222 1
147 1411 1
147 1458 1
147 1837 1
147 1986 1
147 2659 1
147 2757 1
147 3133 1
147 3184 1
147 3440 1
147 3661 1
147 3925 1
147 4130 1
147 4156 1
147 4600 1
148 21 1
148 85 1
148 89 1
148 96 1
148 153 1
148 191 1
148 235 1
148 527 1
148 637 1
148 1099 1
148 1126 1
148 1920 1
148 2357 1
148 3168 1
148 3935 1
148 4385 1
148 4486 1
148 4695 1
149 11 1
149 25 1
149 33 1
149 75 1
149 178 1
149 324 1
149 330 1
149 667 1
149 678 1
149 822 1
149 1629 1
149 1662 1
149 1709 1
149 1783 1
149 1989 1
149 2458 1
149 3645 1
149 4441 1
149 4525 1
149 4717 1
149 4889 1
150 18 1
150 33 1
150 137 1
150 141 1
150 289 1
150 304 1
150 432 1
150 643 1
150 745 1
150 960 1
150 1148 1
150 1798 1
150 1820 1
150 1928 1
150 2318 1
150 3315 1
151 3 1
151 19 1
151 27 1
151 146 1
151 249 1
151 679 1
151 999 1
151 2316 1
151 3187 1
152 3 1
152 5 1
152 8 1
152 119 1
152 164 1
152 656 1
152 729 1
152 1171 1
152 1441 1
152 1926 1
152 1936 1
152 2268 1
152 3310 1
152 3937 1
152 4536 1
153 5 1
153 9 1
153 10 1
153 148 1
153 527 1
153 543 1
153 564 1
153 618 1
153 972 1
153 1021 1
153 1063 1
153 1173 1
153 1218 1
153 1309 1
153 1498 1
153 1595 1
153 1789 1
153 1858 1
153 1901 1
153 2126 1
153 2188 1
153 2251 1
153 2277 1
153 2750 1
153 2994 1
153 3619 1
153 3989 1
153 4286 1
153 4338 1
153 4385 1
153 4482 1
153 4486 1
153 4521 1
153 4865 1
153 4967 1
154 2 1
154 25 1
154 33 1
154 108 1
154 173 1
154 210 1
154 221 1
154 225 1
154 234 1
154 236 1
154 240 1
154 274 1
154 355 1
154 414 1
154 473 1
154 474 1
154 506 1
154 518 1
154 654 1
154 737 1
154 808 1
154 817 1
154 1172 1
154 1236 1
154 1283 1
154 1315 1
154 1398 1
154 1448 1
154 1585 1
154 1670 1
154 1695 1
154 1732 1
154 1862 1
154 1875 1
154 1879 1
154 1978 1
154 2059 1
154 2100 1
154 2293 1
154 2360 1
154 2452 1
154 2606 1
154 2645 1
154 2777 1
154 2805 1
154 3104 1
154 3409 1
154 3426 1
154 3450 1
154 3488 1
154 3668 1
154 3873 1
154 4124 1
154 4214 1
154 4380 1
154 4687 1
154 4794 1
154 4924 1
155 52 1
155 73 1
155 98 1
155 147 1
155 174 1
155 219 1
155 262 1
155 298 1
155 312 1
155 339 1
155 482 1
155 573 1
155 624 1
155 767 1
155 941 1
155 942 1
155 1026 1
155 1056 1
155 1207 1
155 1347 1
155 1416 1
155 1493 1
155 1530 1
155 1630 1
155 1712 1
155 1788 1
155 1844 1
155 1850 1
155 2084 1
155 2299 1
155 2653 1
155 3493 1
155 3523 1
155 3776 1
155 4330 1
155 4564 1
155 4745 1
155 4893 1
156 3 1
156 18 1
156 99 1
156 129 1
156 436 1
156 592 1
156 1039 1
156 1169 1
156 2583 1
156 3281 1
156 3314 1
156 3735 1
156 3824 1
157 25 1
157 51 1
157 92 1
157 106 1
157 176 1
157 360 1
157 448 1
157 783 1
157 908 1
157 926 1
157 1042 1
157 1684 1
157 1736 1
157 1806 1
157 1820 1
157 2332 1
157 2355 1
157 3520 1
157 3610 1
157 4688 1
157 4693 1
157 4922 1
158 48 1
158 51 1
158 100 1
158 107 1
158 248 1
158 290 1
158 301 1
158 379 1
158 409 1
158 419 1
158 480 1
158 504 1
158 607 1
158 621 1
158 722 1
158 806 1
158 861 1
158 906 1
158 938 1
158 1030 1
158 1260 1
158 1340 1
158 1364 1
158 1433 1
158 1481 1
158 1575 1
158 2042 1
158 2060 1
158 3042 1
158 4565 1
158 4707 1
158 4748 1
158 4899 1
158 4929 1
159 11 1
159 17 1
159 49 1
159 109 1
159 222 1
159 246 1
159 607 1
159 1034 1
159 1235 1
159 1467 1
159 1839 1
159 4649 1
159 4885 1
160 4 1
160 28 1
160 33 1
160 90 1
160 259 1
160 277 1
160 487 1
160 494 1
160 541 1
160 771 1
160 850 1
160 975 1
160 976 1
160 1040 1
160 1916 1
160 2281 1
160 2496 1
160 2516 1
160 2762 1
160 2845 1
160 3088 1
160 3750 1
161 2 1
161 23 1
161 53 1
161 107 1
161 187 1
161 198 1
161 306 1
161 545 1
161 592 1
161 732 1
161 1311 1
161 1424 1
161 1452 1
161 1600 1
161 1918 1
161 2059 1
161 2437 1
161 2441 1
161 3159 1
161 3418 1
161 3555 1
161 3573 1
161 4492 1
162 3 1
162 27 1
162 90 1
162 96 1
162 172 1
162 201 1
162 815 1
162 1134 1
162 1321 1
162 1406 1
162 1447 1
162 1592 1
162 1774 1
162 1788 1
162 2286 1
162 2362 1
162 4139 1
162 4929 1
163 5 1
163 35 1
163 75 1
163 116 1
163 727 1
163 967 1
163 1049 1
163 1143 1
163 1562 1
163 1711 1
163 2284 1
163 2677 1
163 3134 1
163 4177 1
164 5 1
164 66 1
164 147 1
164 152 1
164 211 1
164 299 1
164 315 1
164 359 1
164 550 1
164 693 1
164 799 1
164 856 1
164 877 1
164 1015 1
164 1042 1
164 1133 1
164 1226 1
164 1635 1
164 1770 1
164 1990 1
164 2221 1
164 3027 1
164 3254 1
164 3554 1
164 4070 1
165 58 1
165 101 1
165 122 1
165 123 1
165 3666 1
166 5 1
166 19 1
166 35 1
166 59 1
166 204 1
166 288 1
166 427 1
166 622 1
166 781 1
166 971 1
166 1462 1
166 2603 1
166 4175 1
167 1 1
167 21 1
167 58 1
167 83 1
167 1100 1
167 1285 1
167 1804 1
167 2701 1
167 2862 1
167 2898 1
167 4584 1
168 49 1
168 66 1
168 105 1
168 114 1
168 286 1
168 431 1
168 755 1
168 838 1
168 936 1
168 1611 1
168 2017 1
168 2179 1
168 2253 1
168 2288 1
168 2482 1
168 2488 1
168 4816 1
169 1 1
169 13 1
169 51 1
169 75 1
169 176 1
169 180 1
169 203 1
169 264 1
169 372 1
169 382 1
169 391 1
169 524 1
169 632 1
169 702 1
169 724 1
169 776 1
169 778 1
169 889 1
169 1013 1
169 1081 1
169 1103 1
169 1210 1
169 1227 1
169 1288 1
169 1370 1
169 1399 1
169 1488 1
169 1801 1
169 1922 1
169 2203 1
169 2228 1
169 2286 1
169 2501 1
169 2541 1
169 2557 1
169 2584 1
169 2587 1
169 2725 1
169 2729 1
169 2831 1
169 2880 1
169 2910 1
169 3023 1
169 3220 1
169 3262 1
169 3279 1
169 3288 1
169 3301 1
169 3411 1
169 3495 1
169 4071 1
169 4238 1
169 4273 1
169 4431 1
169 4501 1
169 4671 1
169 4918 1
169 4961 1
170 3 1
170 9 1
170 23 1
170 59 1
170 206 1
170 272 1
170 287 1
170 327 1
170 391 1
170 393 1
170 515 1
170 674 1
170 763 1
170 845 1
170 957 1
170 1011 1
170 1107 1
170 1174 1
170 1667 1
170 1818 1
170 2014 1
170 2052 1
170 2969 1
170 3224 1
170 3428 1
170 3465 1
170 3807 1
170 4193 1
170 4699 1
170 4779 1
171 16 1
171 28 1
171 31 1
171 129 1
171 245 1
171 309 1
171 400 1
171 562 1
171 632 1
171 742 1
171 787 1
171 1193 1
171 1518 1
171 1534 1
171 1826 1
171 2133 1
171 2190 1
171 3001 1
171 3002 1
171 4276 1
171 4564 1
171 4826 1
172 27 1
172 29 1
172 85 1
172 162 1
172 338 1
172 496 1
172 576 1
172 779 1
172 804 1
172 841 1
172 858 1
172 880 1
172 918 1
172 1370 1
172 1521 1
172 2141 1
172 2231 1
172 2237 1
172 2616 1
172 2622 1
172 2722 1
172 2818 1
172 2827 1
172 3138 1
172 3141 1
172 3580 1
172 3802 1
172 3895 1
172 4096 1
172 4273 1
173 12 1
173 45 1
173 121 1
173 154 1
173 225 1
173 248 1
173 380 1
173 506 1
173 572 1
173 965 1
173 1331 1
173 1345 1
173 1427 1
173 1587 1
173 1716 1
173 1768 1
173 1787 1
173 2511 1
173 2802 1
173 3184 1
173 3415 1
173 3941 1
173 3945 1
173 4187 1
173 4422 1
173 4494 1
173 4750 1
173 4871 1
174 67 1
174 91 1
174 98 1
174 155 1
174 249 1
174 307 1
174 368 1
174 551 1
174 756 1
174 1210 1
174 1231 1
174 1323 1
174 1363 1
174 1388 1
174 2729 1
174 3057 1
174 4084 1
174 4335 1
174 4472 1
175 18 1
175 90 1
175 129 1
175 137 1
175 790 1
175 847 1
175 891 1
175 917 1
175 1111 1
175 1510 1
175 1552 1
175 1996 1
175 2415 1
175 2463 1
175 2490 1
175 2540 1
175 3880 1
175 4034 1
176 1 1
176 55 1
176 157 1
176 169 1
176 206 1
176 264 1
176 369 1
176 384 1
176 438 1
176 451 1
176 640 1
176 783 1
176 908 1
176 1177 1
176 1708 1
176 1714 1
176 2320 1
176 2325 1
176 2917 1
176 3232 1
176 4139 1
176 4339 1
176 4526 1
176 4581 1
177 13 1
177 58 1
177 101 1
177 105 1
177 282 1
177 286 1
177 345 1
177 387 1
177 404 1
177 431 1
177 453 1
177 520 1
177 619 1
177 726 1
177 839 1
177 847 1
177 850 1
177 901 1
177 903 1
177 1211 1
177 1371 1
177 1381 1
177 1388 1
177 1456 1
177 1580 1
177 1634 1
177 1649 1
177 1658 1
177 1745 1
177 1812 1
177 2037 1
177 2038 1
177 2053 1
177 2078 1
177 2160 1
177 2191 1
177 2239 1
177 2263 1
177 2352 1
177 2405 1
177 2495 1
177 2497 1
177 2801 1
177 3033 1
177 3087 1
177 3228 1
177 3295 1
177 3401 1
177 3475 1
177 3632 1
177 3762 1
177 3809 1
177 3846 1
177 4313 1
177 4341 1
177 4645 1
177 4762 1
177 4952 1
178 2 1
178 5 1
178 73 1
178 149 1
178 180 1
178 330 1
178 397 1
178 951 1
178 1073 1
178 1085 1
178 1560 1
178 1749 1
178 2110 1
178 2301 1
178 2371 1
178 3532 1
178 3553 1
178 4466 1
178 4740 1
178 4796 1
178 4845 1
179 3 1
179 5 1
179 12 1
179 99 1
179 271 1
179 385 1
179 474 1
179 485 1
179 486 1
179 680 1
179 781 1
179 1181 1
179 2072 1
179 2305 1
179 2684 1
179 2914 1
179 3402 1
179 3792 1
179 4363 1
180 5 1
180 73 1
180 169 1
180 178 1
180 204 1
180 231 1
180 337 1
180 350 1
180 397 1
180 407 1
180 765 1
180 776 1
180 865 1
180 889 1
180 990 1
180 1092 1
180 1268 1
180 1301 1
180 1690 1
180 1922 1
180 2417 1
180 2811 1
180 3816 1
180 4387 1
180 4483 1
180 4883 1
181 19 1
181 28 1
181 41 1
181 50 1
181 813 1
181 992 1
181 1196 1
181 2116 1
181 2600 1
181 2960 1
182 4 1
182 5 1
182 70 1
182 130 1
182 612 1
182 656 1
182 1038 1
182 1217 1
182 1543 1
182 1681 1
182 1751 1
182 1919 1
182 2249 1
182 4111 1
182 4450 1
183 1 1
183 46 1
183 88 1
183 97 1
183 207 1
183 408 1
183 1879 1
184 1 1
184 3 1
184 5 1
184 18 1
184 475 1
184 560 1
184 1208 1
184 1238 1
184 1355 1
184 1438 1
184 1691 1
184 1806 1
184 2006 1
184 2741 1
184 3170 1
184 3726 1
184 4020 1
184 4407 1
184 4682 1
184 4822 1
185 10 1
185 25 1
185 35 1
185 122 1
185 664 1
185 769 1
185 1055 1
185 1128 1
185 1148 1
185 1164 1
185 1255 1
185 1361 1
185 1574 1
185 1952 1
185 2238 1
185 3007 1
185 3098 1
185 3290 1
185 3334 1
185 4603 1
185 4710 1
185 4799 1
186 12 1
186 44 1
186 89 1
186 124 1
186 212 1
186 220 1
186 315 1
186 356 1
186 358 1
186 440 1
186 714 1
186 838 1
186 935 1
186 1551 1
186 2179 1
186 2338 1
186 2656 1
186 3197 1
186 3346 1
186 3452 1
186 3749 1
186 3958 1
186 3970 1
186 4447 1
186 4469 1
186 4569 1
186 4706 1
186 4739 1
186 4827 1
186 4904 1
186 4921 1
186 4939 1
187 9 1
187 24 1
187 36 1
187 161 1
187 2441 1
187 3670 1
187 4265 1
188 8 1
188 11 1
188 35 1
188 38 1
188 566 1
188 766 1
188 808 1
188 840 1
188 886 1
188 1152 1
188 1436 1
188 1794 1
188 1882 1
188 1986 1
188 2000 1
188 2080 1
188 2259 1
188 2305 1
188 2697 1
188 2776 1
188 2935 1
188 3260 1
188 4013 1
188 4248 1
188 4630 1
188 4758 1
188 4860 1
188 4981 1
189 13 1
189 81 1
189 95 1
189 131 1
189 428 1
189 1366 1
189 1554 1
189 2095 1
189 3237 1
189 4068 1
189 4229 1
189 4947 1
190 11 1
190 13 1
190 39 1
190 110 1
190 258 1
190 417 1
190 497 1
190 745 1
190 1686 1
190 2501 1
190 2544 1
190 3011 1
190 3565 1
190 3975 1
191 57 1
191 64 1
191 130 1
191 148 1
191 538 1
191 690 1
191 1648 1
191 2382 1
191 2449 1
191 2777 1
191 4566 1
192 3 1
192 10 1
192 17 1
192 105 1
192 231 1
192 810 1
192 1304 1
192 1527 1
192 2457 1
192 2520 1
192 4016 1
193 1 1
193 62 1
193 70 1
193 91 1
193 293 1
193 374 1
193 388 1
193 395 1
193 544 1
193 792 1
193 812 1
193 837 1
193 938 1
193 939 1
193 1024 1
193 1137 1
193 1198 1
193 1242 1
193 1538 1
193 1617 1
193 1661 1
193 1710 1
193 1823 1
193 1844 1
193 1978 1
193 1979 1
193 2466 1
193 2470 1
193 2479 1
193 2586 1
193 3084 1
193 3379 1
193 3413 1
193 3607 1
193 3759 1
193 3894 1
193 4154 1
193 4168 1
193 4969 1
194 11 1
194 16 1
194 28 1
194 147 1
194 211 1
194 244 1
194 373 1
194 381 1
194 525 1
194 612 1
194 633 1
194 798 1
194 836 1
194 894 1
194 1113 1
194 1124 1
194 1179 1
194 1217 1
194 1313 1
194 1337 1
194 1339 1
194 1374 1
194 1400 1
194 1402 1
194 1437 1
194 1513 1
194 1571 1
194 1895 1
194 2011 1
194 2241 1
194 2290 1
194 2342 1
194 2532 1
194 2737 1
194 2784 1
194 2795 1
194 2827 1
194 2853 1
194 2934 1
194 3228 1
194 3235 1
194 3513 1
194 3530 1
194 3584 1
194 3743 1
194 3792 1
194 3954 1
194 4250 1
194 4712 1
194 4722 1
194 4749 1
194 4823 1
195 5 1
195 11 1
195 14 1
195 215 1
195 257 1
195 317 1
195 432 1
195 598 1
195 788 1
195 1002 1
195 1342 1
195 1871 1
195 2388 1
195 2413 1
195 2528 1
195 2749 1
195 2899 1
195 2933 1
195 3860 1
195 4874 1
196 5 1
196 8 1
196 76 1
196 85 1
196 601 1
196 740 1
196 839 1
196 884 1
196 1003 1
196 2169 1
196 3341 1
196 4820 1
197 26 1
197 60 1
197 99 1
197 115 1
197 614 1
197 712 1
197 846 1
197 899 1
197 995 1
197 2210 1
197 2221 1
197 2447 1
197 2958 1
197 2974 1
197 3063 1
197 3749 1
197 3879 1
197 3961 1
198 23 1
198 42 1
198 137 1
198 161 1
198 257 1
198 280 1
198 379 1
198 452 1
198 994 1
198 996 1
198 1070 1
198 1191 1
198 1547 1
198 1563 1
198 1857 1
198 2556 1
198 3137 1
198 3156 1
198 3391 1
198 3805 1
198 3813 1
198 3898 1
198 4159 1
198 4421 1
199 11 1
199 15 1
199 77 1
199 130 1
199 346 1
199 359 1
199 421 1
199 459 1
199 498 1
199 711 1
199 757 1
199 1058 1
199 1222 1
199 1508 1
199 2375 1
199 3336 1
199 3509 1
199 4444 1
199 4638 1
200 9 1
200 13 1
200 20 1
200 129 1
200 427 1
200 660 1
200 1683 1
200 1701 1
200 2549 1
201 56 1
201 90 1
201 130 1
201 162 1
201 585 1
201 919 1
201 1234 1
201 1264 1
201 1283 1
201 1292 1
201 1387 1
201 1447 1
201 1544 1
201 1598 1
201 1628 1
201 2010 1
201 2201 1
201 2314 1
201 2362 1
201 2844 1
201 2863 1
201 3406 1
201 3818 1
201 3877 1
201 4323 1
201 4427 1
201 4677 1
201 4847 1
202 6 1
202 53 1
202 132 1
202 144 1
202 869 1
202 1677 1
202 1877 1
202 1981 1
202 2061 1
202 2187 1
202 2462 1
202 3306 1
202 3661 1
202 3705 1
202 3731 1
202 4048 1
202 4388 1
202 4982 1
203 61 1
203 75 1
203 120 1
203 169 1
203 316 1
203 423 1
203 465 1
203 524 1
203 530 1
203 558 1
203 878 1
203 1012 1
203 1013 1
203 1052 1
203 1230 1
203 1292 1
203 1309 1
203 1415 1
203 1632 1
203 1682 1
203 1730 1
203 1905 1
203 2351 1
203 2405 1
203 2453 1
203 2584 1
203 2595 1
203 2834 1
203 2890 1
203 3238 1
203 3311 1
203 3357 1
204 3 1
204 42 1
204 166 1
204 180 1
204 394 1
204 1220 1
204 1340 1
204 2154 1
204 2390 1
204 2606 1
204 2662 1
204 3452 1
204 4278 1
204 4294 1
205 21 1
205 45 1
205 92 1
205 127 1
205 263 1
205 266 1
205 374 1
205 581 1
205 666 1
205 744 1
205 886 1
205 911 1
205 1068 1
205 1194 1
205 1642 1
205 1672 1
205 2185 1
205 2272 1
205 2466 1
205 3032 1
205 3255 1
205 3431 1
206 15 1
206 50 1
206 170 1
206 176 1
206 213 1
206 326 1
206 441 1
206 536 1
206 801 1
206 904 1
206 944 1
206 969 1
206 1159 1
206 1476 1
206 1690 1
206 1713 1
206 1816 1
206 3331 1
206 3885 1
206 4085 1
206 4721 1
206 4856 1
207 1 1
207 3 1
207 42 1
207 183 1
207 574 1
207 2902 1
208 2 1
208 10 1
208 17 1
208 91 1
208 661 1
208 2274 1
208 2723 1
208 4020 1
209 4 1
209 11 1
209 85 1
209 132 1
209 466 1
209 762 1
209 782 1
209 1089 1
209 1233 1
209 1320 1
209 1587 1
209 1950 1
209 2068 1
209 2074 1
209 2342 1
209 2803 1
209 3057 1
209 3292 1
209 3520 1
209 3549 1
209 3764 1
209 3971 1
209 4026 1
209 4735 1
210 17 1
210 25 1
210 91 1
210 154 1
210 891 1
210 1212 1
210 1752 1
210 1862 1
210 2289 1
210 2535 1
210 2676 1
210 2699 1
210 3422 1
210 3603 1
210 3647 1
211 16 1
211 61 1
211 164 1
211 194 1
211 253 1
211 282 1
211 381 1
211 665 1
211 784 1
211 817 1
211 860 1
211 902 1
211 917 1
211 1167 1
211 1173 1
211 1379 1
211 1390 1
211 1675 1
211 2031 1
211 2907 1
211 2948 1
211 3367 1
211 3803 1
211 3811 1
211 4003 1
211 4043 1
211 4101 1
212 5 1
212 34 1
212 88 1
212 186 1
212 230 1
212 247 1
212 289 1
212 341 1
212 652 1
212 714 1
212 803 1
212 1279 1
212 1282 1
212 1299 1
212 1583 1
212 2070 1
212 2411 1
212 2806 1
212 3311 1
212 3571 1
212 3878 1
212 4115 1
212 4331 1
212 4353 1
212 4463 1
212 4802 1
212 4849 1
213 1 1
213 24 1
213 100 1
213 206 1
213 293 1
213 422 1
213 469 1
213 1635 1
213 1713 1
213 2069 1
213 3394 1
213 4082 1
213 4421 1
213 4705 1
213 4967 1
214 3 1
214 30 1
214 42 1
214 97 1
214 227 1
214 240 1
214 528 1
214 668 1
214 802 1
214 934 1
214 1180 1
214 1185 1
214 1633 1
214 1758 1
214 1855 1
214 2268 1
214 2464 1
214 2810 1
214 2886 1
214 3318 1
214 3441 1
214 3745 1
214 4136 1
214 4683 1
215 2 1
215 38 1
215 90 1
215 195 1
215 217 1
215 334 1
215 384 1
215 728 1
215 744 1
215 1683 1
215 2643 1
215 2697 1
215 3968 1
215 4122 1
216 17 1
216 49 1
216 90 1
216 139 1
216 310 1
216 351 1
216 533 1
216 2129 1
217 72 1
217 85 1
217 126 1
217 215 1
217 255 1
217 384 1
217 461 1
217 670 1
217 839 1
217 3001 1
217 3969 1
217 3983 1
217 4317 1
217 4782 1
217 4852 1
217 4883 1
218 26 1
218 45 1
218 93 1
218 115 1
218 327 1
218 482 1
218 527 1
218 1245 1
218 1247 1
218 1469 1
218 1541 1
218 2549 1
218 2626 1
218 2690 1
218 2709 1
218 2736 1
218 3135 1
218 4045 1
218 4133 1
218 4820 1
219 2 1
219 28 1
219 86 1
219 155 1
219 298 1
219 312 1
219 645 1
219 885 1
219 1496 1
219 1563 1
219 1815 1
219 1942 1
219 2066 1
219 2485 1
219 2829 1
219 3924 1
219 4378 1
219 4546 1
220 73 1
220 94 1
220 124 1
220 186 1
220 246 1
220 356 1
220 487 1
220 1234 1
220 2298 1
220 2314 1
220 2348 1
220 2897 1
220 3197 1
220 3219 1
220 3793 1
220 4349 1
220 4991 1
221 11 1
221 14 1
221 147 1
221 154 1
221 235 1
221 252 1
221 291 1
221 325 1
221 603 1
221 737 1
221 758 1
221 895 1
221 1585 1
221 2203 1
221 2225 1
221 2514 1
221 2588 1
221 2762 1
221 2945 1
221 3116 1
221 3367 1
221 3668 1
221 3904 1
221 4004 1
221 4259 1
221 4898 1
222 48 1
222 57 1
222 109 1
222 159 1
222 246 1
222 280 1
222 403 1
222 531 1
222 1034 1
222 1064 1
222 1105 1
222 1378 1
222 1794 1
222 1847 1
222 2527 1
222 2636 1
222 4026 1
222 4076 1
222 4097 1
222 4352 1
222 4807 1
222 4829 1
223 17 1
223 37 1
223 51 1
223 88 1
223 314 1
223 620 1
223 641 1
223 1163 1
223 1216 1
223 1603 1
223 1742 1
223 2810 1
223 2824 1
223 2861 1
223 3280 1
224 27 1
224 58 1
224 125 1
224 138 1
224 250 1
224 303 1
224 828 1
224 1099 1
224 2692 1
224 3347 1
224 3897 1
224 4635 1
224 4956 1
225 2 1
225 105 1
225 154 1
225 173 1
225 274 1
225 287 1
225 355 1
225 449 1
225 1056 1
225 1082 1
225 1644 1
225 1810 1
225 2157 1
225 2728 1
225 2996 1
225 3433 1
225 3733 1
225 4690 1
225 4778 1
226 14 1
226 81 1
226 131 1
226 134 1
226 239 1
226 243 1
226 360 1
226 418 1
226 436 1
226 472 1
226 909 1
226 1001 1
226 1155 1
226 1392 1
226 1857 1
226 2128 1
226 2220 1
226 2451 1
226 2622 1
226 3226 1
226 3254 1
226 4532 1
226 4644 1
226 4982 1
227 49 1
227 97 1
227 120 1
227 214 1
227 352 1
227 364 1
227 402 1
227 425 1
227 528 1
227 704 1
227 802 1
227 871 1
227 1093 1
227 1267 1
227 1855 1
227 2057 1
227 2058 1
227 2196 1
227 2418 1
227 2591 1
227 2693 1
227 3155 1
227 3445 1
227 3674 1
227 4774 1
228 11 1
228 16 1
228 117 1
228 119 1
228 241 1
228 356 1
228 408 1
228 636 1
228 686 1
228 701 1
228 931 1
228 1453 1
228 1640 1
228 2563 1
228 3347 1
228 3372 1
229 1 1
229 17 1
229 40 1
229 61 1
229 233 1
229 279 1
229 297 1
229 320 1
229 386 1
229 394 1
229 725 1
229 843 1
229 844 1
229 912 1
229 916 1
229 968 1
229 1232 1
229 1902 1
229 2409 1
229 2548 1
229 2940 1
229 3159 1
229 3704 1
229 3847 1
229 3917 1
229 3985 1
229 4796 1
229 4971 1
230 30 1
230 90 1
230 127 1
230 212 1
230 633 1
230 1698 1
230 3543 1
230 3886 1
231 105 1
231 108 1
231 180 1
231 192 1
231 440 1
231 517 1
231 896 1
231 1224 1
231 2182 1
232 4 1
232 17 1
232 40 1
232 138 1
232 1938 1
233 13 1
233 20 1
233 61 1
233 229 1
233 386 1
233 463 1
233 557 1
233 931 1
233 1232 1
233 1435 1
233 1737 1
233 1759 1
233 2032 1
233 2409 1
233 2610 1
233 2659 1
233 2760 1
233 2788 1
233 3291 1
233 3372 1
233 3794 1
233 3876 1
233 4009 1
233 4165 1
234 17 1
234 25 1
234 91 1
234 154 1
234 236 1
234 458 1
234 473 1
234 506 1
234 626 1
234 657 1
234 746 1
234 1126 1
234 1215 1
234 1220 1
234 1262 1
234 1432 1
234 1459 1
234 1691 1
234 1832 1
234 1853 1
234 2140 1
234 2226 1
234 2459 1
234 2574 1
234 2825 1
234 2926 1
234 4087 1
234 4206 1
234 4359 1
234 4393 1
234 4420 1
234 4685 1
234 4746 1
235 130 1
235 131 1
235 148 1
235 221 1
235 267 1
235 535 1
235 555 1
235 807 1
235 1357 1
235 1393 1
235 2965 1
235 4209 1
236 17 1
236 91 1
236 154 1
236 234 1
236 955 1
236 1046 1
236 1615 1
236 1670 1
236 1732 1
236 2226 1
236 2626 1
236 2976 1
236 4396 1
236 4787 1
237 14 1
237 76 1
237 102 1
237 108 1
237 269 1
237 365 1
237 385 1
237 420 1
237 517 1
237 641 1
237 777 1
237 841 1
237 2019 1
237 2685 1
237 2740 1
237 3016 1
237 3629 1
237 4112 1
238 2 1
238 33 1
238 84 1
238 136 1
238 243 1
238 876 1
238 929 1
238 2720 1
238 3158 1
238 3444 1
238 3859 1
238 4647 1
239 33 1
239 44 1
239 51 1
239 226 1
239 257 1
239 316 1
239 418 1
239 435 1
239 606 1
239 782 1
239 820 1
239 1155 1
239 1392 1
239 4069 1
240 90 1
240 97 1
240 154 1
240 214 1
240 654 1
240 657 1
240 867 1
240 993 1
240 1181 1
240 4997 1
241 37 1
241 98 1
241 103 1
241 228 1
241 458 1
241 471 1
241 712 1
241 809 1
241 966 1
241 1136 1
241 1453 1
241 2563 1
241 2564 1
241 2775 1
241 4176 1
241 4410 1
241 4915 1
242 13 1
242 59 1
242 71 1
242 74 1
242 345 1
242 404 1
242 416 1
242 670 1
242 678 1
242 869 1
242 982 1
242 988 1
242 1020 1
242 1277 1
242 1336 1
242 1402 1
242 1496 1
242 1799 1
242 1806 1
242 1888 1
242 1937 1
242 2027 1
242 2078 1
242 2093 1
242 2131 1
242 2201 1
242 2216 1
242 2429 1
242 2456 1
242 2894 1
242 3014 1
242 3239 1
242 3447 1
242 3448 1
242 3559 1
242 3587 1
242 3599 1
242 3629 1
242 4220 1
242 4456 1
242 4692 1
242 4987 1
243 33 1
243 102 1
243 226 1
243 238 1
243 553 1
243 929 1
243 1653 1
243 1860 1
243 2327 1
243 4607 1
244 13 1
244 20 1
244 25 1
244 194 1
244 261 1
244 340 1
244 373 1
244 733 1
244 1374 1
244 1492 1
244 1907 1
244 2448 1
244 3038 1
244 3936 1
244 4178 1
245 36 1
245 85 1
245 99 1
245 171 1
245 278 1
245 344 1
245 562 1
245 597 1
245 600 1
245 1182 1
245 1219 1
245 2024 1
245 2379 1
245 2752 1
245 2873 1
245 3156 1
245 3337 1
245 3422 1
245 3564 1
245 3841 1
245 4240 1
245 4332 1
246 109 1
246 159 1
246 220 1
246 222 1
246 378 1
246 1467 1
246 1490 1
246 1551 1
246 1638 1
246 2246 1
246 2619 1
246 3696 1
246 4022 1
247 11 1
247 21 1
247 52 1
247 212 1
247 875 1
247 1029 1
247 1260 1
247 1972 1
247 2711 1
247 2815 1
247 4983 1
248 51 1
248 95 1
248 158 1
248 173 1
248 490 1
248 1297 1
248 2235 1
248 3219 1
248 4354 1
248 4985 1
249 3 1
249 67 1
249 151 1
249 174 1
249 284 1
249 899 1
249 999 1
249 1210 1
249 1323 1
249 1362 1
249 1517 1
249 3371 1
249 3439 1
249 3757 1
249 4783 1
249 4895 1
250 10 1
250 66 1
250 138 1
250 224 1
250 268 1
250 284 1
250 294 1
250 662 1
250 671 1
250 718 1
250 1231 1
250 1365 1
250 1486 1
250 1570 1
250 1738 1
250 2025 1
250 2174 1
250 2527 1
250 2643 1
250 2666 1
250 2977 1
250 3276 1
250 3347 1
250 3412 1
250 3424 1
250 3432 1
250 3566 1
250 3785 1
250 3838 1
250 4154 1
251 45 1
251 52 1
251 54 1
251 73 1
251 255 1
251 262 1
251 302 1
251 318 1
251 332 1
251 482 1
251 483 1
251 610 1
251 634 1
251 751 1
251 766 1
251 973 1
251 1367 1
251 1555 1
251 1884 1
251 2106 1
251 2325 1
251 2385 1
251 2444 1
251 2636 1
251 2708 1
251 2830 1
251 3093 1
251 3756 1
251 4179 1
251 4218 1
251 4682 1
252 9 1
252 30 1
252 54 1
252 221 1
252 533 1
252 644 1
252 956 1
252 978 1
252 1129 1
252 1679 1
252 2101 1
252 2770 1
252 3366 1
252 3892 1
252 4011 1
252 4601 1
253 14 1
253 52 1
253 65 1
253 211 1
253 381 1
253 424 1
253 583 1
253 705 1
253 864 1
253 1379 1
253 1836 1
253 1939 1
253 2690 1
253 2851 1
253 2857 1
253 3098 1
253 3464 1
253 3763 1
253 3803 1
253 4240 1
253 4475 1
254 4 1
254 5 1
254 19 1
254 22 1
254 298 1
254 489 1
254 554 1
254 685 1
254 1100 1
254 1524 1
254 1771 1
254 1938 1
254 2566 1
254 3076 1
254 3723 1
254 3930 1
254 4166 1
255 28 1
255 73 1
255 217 1
255 251 1
255 748 1
255 1782 1
255 2809 1
255 3539 1
255 4517 1
256 29 1
256 31 1
256 45 1
256 107 1
256 346 1
256 565 1
256 1478 1
257 27 1
257 195 1
257 198 1
257 239 1
257 316 1
257 994 1
257 2749 1
257 3179 1
257 3612 1
258 5 1
258 7 1
258 49 1
258 190 1
258 364 1
258 1265 1
258 2669 1
258 3565 1
259 33 1
259 84 1
259 87 1
259 160 1
259 277 1
259 487 1
259 494 1
259 661 1
259 672 1
259 837 1
259 1048 1
259 1236 1
259 1488 1
259 1671 1
259 2275 1
259 2368 1
259 2938 1
259 3034 1
259 3090 1
259 3145 1
259 3244 1
259 3248 1
259 3268 1
259 3634 1
259 4327 1
259 4838 1
260 5 1
260 19 1
260 37 1
260 41 1
260 566 1
260 823 1
260 1542 1
260 1687 1
260 1795 1
260 1924 1
260 1973 1
260 2358 1
260 2394 1
260 2477 1
260 2518 1
260 2775 1
260 3128 1
260 3168 1
260 3601 1
260 3681 1
260 3752 1
260 3961 1
260 4498 1
260 4806 1
261 1 1
261 25 1
261 49 1
261 244 1
261 319 1
261 328 1
261 337 1
261 350 1
261 456 1
261 662 1
261 882 1
261 927 1
261 995 1
261 1561 1
261 2320 1
261 2612 1
261 3008 1
261 3099 1
262 14 1
262 25 1
262 155 1
262 251 1
262 318 1
262 942 1
262 986 1
262 1493 1
262 1555 1
262 1675 1
262 3716 1
262 4006 1
262 4128 1
263 6 1
263 25 1
263 41 1
263 205 1
263 271 1
263 363 1
263 513 1
263 610 1
263 688 1
263 2118 1
263 2315 1
263 2466 1
264 1 1
264 47 1
264 169 1
264 176 1
264 300 1
264 384 1
264 731 1
264 1355 1
264 2006 1
264 2088 1
264 3162 1
264 3987 1
265 5 1
265 21 1
265 55 1
265 67 1
265 288 1
265 323 1
265 367 1
265 503 1
265 1175 1
265 1196 1
265 1558 1
265 1913 1
265 1930 1
265 1976 1
265 2411 1
265 2701 1
265 2796 1
265 3029 1
265 3355 1
265 4066 1
265 4405 1
265 4792 1
266 18 1
266 37 1
266 92 1
266 205 1
266 296 1
266 331 1
266 377 1
266 412 1
266 518 1
266 715 1
266 791 1
266 1121 1
266 1611 1
266 2122 1
266 2258 1
266 2936 1
266 4337 1
267 3 1
267 8 1
267 52 1
267 235 1
267 363 1
267 501 1
267 535 1
267 570 1
267 597 1
267 714 1
267 828 1
267 1350 1
267 1537 1
267 1655 1
267 1994 1
267 2138 1
267 2436 1
267 2762 1
267 3096 1
267 3710 1
267 4184 1
267 4542 1
268 19 1
268 45 1
268 109 1
268 250 1
268 361 1
268 458 1
268 578 1
268 649 1
268 662 1
268 760 1
268 857 1
268 1079 1
268 1098 1
268 1104 1
268 1183 1
268 1295 1
268 1383 1
268 1394 1
268 1597 1
268 1800 1
268 2541 1
268 2856 1
268 3117 1
268 3765 1
268 4965 1
269 5 1
269 23 1
269 76 1
269 237 1
269 385 1
269 536 1
269 713 1
269 826 1
269 1755 1
269 2593 1
269 3139 1
269 3806 1
269 4427 1
270 1 1
270 73 1
270 77 1
270 110 1
270 508 1
270 742 1
270 1026 1
270 1370 1
270 1475 1
270 2211 1
270 3029 1
270 3089 1
270 3462 1
270 3963 1
270 4273 1
270 4315 1
270 4576 1
271 27 1
271 106 1
271 179 1
271 263 1
271 1101 1
271 1132 1
271 1542 1
271 1577 1
271 2404 1
272 9 1
272 23 1
272 126 1
272 170 1
272 683 1
272 3807 1
273 13 1
273 21 1
273 44 1
273 54 1
273 477 1
273 759 1
273 1660 1
273 4274 1
274 66 1
274 105 1
274 154 1
274 225 1
274 401 1
274 917 1
274 1470 1
274 1862 1
274 2075 1
274 2157 1
274 2164 1
274 2170 1
274 2741 1
274 2935 1
274 3812 1
274 4008 1
274 4535 1
274 4600 1
275 5 1
275 25 1
275 43 1
275 141 1
275 452 1
275 597 1
275 621 1
275 1053 1
275 1068 1
275 1189 1
275 1201 1
275 1286 1
275 1304 1
275 1377 1
275 1626 1
275 1709 1
275 1848 1
275 2209 1
275 2276 1
275 2994 1
275 3047 1
275 3103 1
275 3150 1
275 3205 1
275 3341 1
275 3532 1
275 3725 1
275 3785 1
275 3853 1
275 3944 1
275 4142 1
275 4479 1
275 4534 1
275 4563 1
275 4911 1
276 9 1
276 65 1
276 93 1
276 118 1
276 439 1
276 483 1
276 1846 1
277 4 1
277 49 1
277 160 1
277 259 1
277 462 1
277 521 1
277 1040 1
277 1053 1
277 1146 1
277 1193 1
277 1239 1
277 1584 1
277 2081 1
277 2489 1
277 3026 1
277 3553 1
277 3605 1
277 3722 1
278 36 1
278 58 1
278 85 1
278 245 1
278 347 1
278 457 1
278 1182 1
278 2848 1
278 3946 1
278 4324 1
278 4361 1
278 4725 1
279 10 1
279 17 1
279 142 1
279 229 1
280 11 1
280 57 1
280 198 1
280 222 1
280 308 1
280 369 1
280 1031 1
281 3 1
281 47 1
281 52 1
281 109 1
281 1272 1
281 1837 1
281 2181 1
281 2336 1
281 3370 1
281 4514 1
282 13 1
282 16 1
282 177 1
282 211 1
282 422 1
282 860 1
282 1381 1
282 1649 1
282 1931 1
282 2663 1
282 4077 1
283 1 1
283 2 1
283 12 1
283 13 1
283 328 1
283 348 1
283 643 1
283 648 1
283 706 1
283 747 1
283 764 1
283 773 1
283 859 1
283 871 1
283 1114 1
283 1192 1
283 1278 1
283 1308 1
283 1334 1
283 1396 1
283 1513 1
283 1530 1
283 1612 1
283 1692 1
283 1715 1
283 2066 1
283 2545 1
283 3005 1
283 3067 1
283 3333 1
283 3431 1
283 3474 1
283 3770 1
283 3939 1
283 3953 1
283 4467 1
283 4649 1
283 4704 1
283 4833 1
284 3 1
284 66 1
284 249 1
284 250 1
284 415 1
284 648 1
284 2025 1
284 2222 1
284 2460 1
284 3446 1
284 4781 1
285 53 1
285 81 1
285 89 1
285 131 1
285 349 1
285 407 1
285 413 1
285 494 1
285 561 1
285 760 1
285 1102 1
285 1599 1
285 1696 1
285 1941 1
285 2905 1
286 105 1
286 139 1
286 168 1
286 177 1
286 371 1
286 520 1
286 706 1
286 755 1
286 870 1
286 1036 1
286 2160 1
286 3652 1
286 4833 1
287 2 1
287 18 1
287 170 1
287 225 1
287 591 1
287 1481 1
287 1818 1
287 2157 1
287 2219 1
287 2273 1
287 2578 1
287 2587 1
287 2712 1
287 2969 1
287 2991 1
287 3301 1
288 21 1
288 58 1
288 166 1
288 265 1
288 433 1
288 468 1
288 629 1
288 1175 1
288 1314 1
288 3443 1
288 4018 1
288 4584 1
288 4645 1
288 4979 1
289 22 1
289 30 1
289 150 1
289 212 1
289 804 1
289 888 1
289 1137 1
289 1731 1
289 2252 1
289 3121 1
289 3829 1
289 3872 1
289 4070 1
290 2 1
290 10 1
290 20 1
290 158 1
290 320 1
290 379 1
290 484 1
290 613 1
290 786 1
290 938 1
290 1006 1
290 1017 1
290 1032 1
290 1078 1
290 1158 1
290 1279 1
290 1335 1
290 1344 1
290 1439 1
290 1522 1
290 1752 1
290 2073 1
290 2131 1
290 2192 1
290 2297 1
290 2493 1
290 2562 1
290 2628 1
290 2903 1
290 2999 1
290 3177 1
290 3390 1
290 3972 1
290 4203 1
290 4609 1
290 4992 1
291 92 1
291 125 1
291 129 1
291 221 1
291 333 1
291 598 1
291 737 1
291 1060 1
291 1216 1
291 2161 1
291 2374 1
291 2448 1
291 3780 1
291 4361 1
292 1 1
292 24 1
292 42 1
292 131 1
292 595 1
292 672 1
292 829 1
292 835 1
292 933 1
292 1786 1
292 2172 1
292 2443 1
292 2598 1
292 2634 1
292 2818 1
292 2841 1
292 2949 1
292 3419 1
292 3738 1
292 4191 1
292 4631 1
293 1 1
293 5 1
293 193 1
293 213 1
293 422 1
293 462 1
293 764 1
293 792 1
293 871 1
293 1137 1
293 1143 1
293 1201 1
293 1635 1
293 2064 1
293 2183 1
293 2714 1
293 2849 1
293 2927 1
293 3575 1
293 3988 1
293 4628 1
293 4657 1
294 1 1
294 109 1
294 120 1
294 250 1
294 557 1
294 671 1
294 1199 1
294 2354 1
294 2711 1
295 5 1
295 9 1
295 91 1
295 107 1
295 321 1
295 398 1
295 421 1
295 468 1
295 476 1
295 501 1
295 607 1
295 649 1
295 778 1
295 842 1
295 984 1
295 1018 1
295 1243 1
295 1264 1
295 1394 1
295 1785 1
295 2130 1
295 2202 1
295 2526 1
295 2870 1
296 34 1
296 41 1
296 137 1
296 266 1
296 336 1
296 377 1
296 438 1
296 443 1
296 613 1
296 745 1
296 983 1
296 1111 1
296 1339 1
296 2090 1
296 2122 1
296 2180 1
296 2202 1
296 2315 1
296 3099 1
296 3114 1
296 4044 1
297 2 1
297 54 1
297 83 1
297 229 1
297 2304 1
297 3345 1
297 3375 1
297 4465 1
297 4912 1
298 19 1
298 155 1
298 219 1
298 254 1
298 339 1
298 570 1
298 572 1
298 573 1
298 645 1
298 669 1
298 707 1
298 738 1
298 767 1
298 806 1
298 818 1
298 937 1
298 941 1
298 1047 1
298 1085 1
298 1092 1
298 1172 1
298 1189 1
298 1191 1
298 1273 1
298 1322 1
298 1362 1
298 2103 1
298 2252 1
298 2482 1
298 2542 1
298 2650 1
298 2754 1
298 2922 1
298 3271 1
298 3481 1
298 3534 1
298 3568 1
298 3574 1
298 3931 1
298 3957 1
298 4141 1
298 4160 1
298 4199 1
298 4228 1
298 4548 1
298 4558 1
298 4998 1
299 41 1
299 89 1
299 114 1
299 164 1
299 336 1
299 359 1
299 479 1
299 488 1
299 550 1
299 576 1
299 608 1
299 851 1
299 1059 1
299 1060 1
299 1133 1
299 1164 1
299 1165 1
299 1225 1
299 1408 1
299 2019 1
299 3091 1
299 3444 1
299 4388 1
299 4460 1
299 4489 1
299 4932 1
299 4941 1
300 14 1
300 104 1
300 132 1
300 264 1
300 1045 1
300 1423 1
300 1430 1
300 1696 1
300 1950 1
300 2032 1
300 2124 1
300 3758 1
300 4170 1
300 4445 1
301 13 1
301 107 1
301 111 1
301 158 1
301 582 1
301 1114 1
301 1204 1
301 1916 1
301 2401 1
301 2592 1
301 3820 1
302 9 1
302 52 1
302 54 1
302 251 1
302 672 1
302 952 1
302 1103 1
302 1591 1
302 2941 1
303 13 1
303 58 1
303 138 1
303 224 1
303 445 1
303 697 1
303 1099 1
303 1334 1
303 1965 1
303 3686 1
304 1 1
304 18 1
304 110 1
304 150 1
304 325 1
304 424 1
304 745 1
304 1539 1
304 1648 1
304 1911 1
304 4702 1
304 4755 1
305 5 1
305 83 1
305 84 1
305 143 1
305 307 1
305 343 1
305 534 1
305 566 1
305 1014 1
305 1248 1
305 1355 1
305 1515 1
305 1694 1
305 1951 1
305 2156 1
305 2183 1
305 2198 1
305 2232 1
305 2343 1
305 2506 1
305 2531 1
305 2582 1
305 2593 1
305 2618 1
305 2782 1
305 2937 1
305 3316 1
305 3359 1
305 3516 1
305 3932 1
305 3981 1
305 3996 1
305 4445 1
305 4485 1
305 4521 1
305 4557 1
305 4638 1
305 4670 1
305 4932 1
306 2 1
306 53 1
306 105 1
306 161 1
306 313 1
306 511 1
306 680 1
306 730 1
306 732 1
306 948 1
306 1303 1
306 1328 1
306 1474 1
306 2354 1
306 2450 1
306 2750 1
306 3036 1
306 3133 1
306 3312 1
306 3472 1
306 4084 1
306 4146 1
306 4164 1
306 4383 1
306 4804 1
306 4983 1
307 44 1
307 91 1
307 174 1
307 305 1
307 534 1
307 551 1
307 605 1
307 794 1
307 814 1
307 1122 1
307 1156 1
307 1247 1
307 1321 1
307 1359 1
307 1434 1
307 1621 1
307 1935 1
307 2121 1
307 2199 1
307 2365 1
307 2470 1
307 2757 1
307 3692 1
307 4247 1
307 4269 1
308 14 1
308 52 1
308 105 1
308 280 1
308 354 1
308 470 1
308 594 1
308 673 1
308 763 1
308 783 1
308 1069 1
308 1329 1
308 1360 1
308 1451 1
308 1964 1
308 1995 1
308 2125 1
308 2339 1
308 2459 1
308 2727 1
308 2841 1
308 2870 1
308 3071 1
308 3465 1
308 3507 1
308 3514 1
308 3724 1
308 4652 1
308 4661 1
309 63 1
309 67 1
309 70 1
309 171 1
309 426 1
309 1226 1
309 1558 1
309 1589 1
309 2043 1
309 2230 1
309 2261 1
309 2510 1
309 3801 1
310 9 1
310 11 1
310 139 1
310 216 1
310 439 1
310 3074 1
310 3253 1
311 2 1
311 6 1
311 21 1
311 51 1
311 1572 1
311 3046 1
311 3149 1
311 4342 1
311 4646 1
312 19 1
312 21 1
312 155 1
312 219 1
312 756 1
312 2462 1
312 4754 1
312 4893 1
313 12 1
313 60 1
313 144 1
313 306 1
313 1131 1
313 1710 1
313 1872 1
313 2014 1
313 2518 1
313 2787 1
313 3695 1
313 4236 1
313 4267 1
314 5 1
314 11 1
314 37 1
314 223 1
314 372 1
314 478 1
314 545 1
314 676 1
314 686 1
314 717 1
314 774 1
314 1864 1
314 1900 1
314 1915 1
314 3000 1
314 3093 1
314 3157 1
314 3217 1
314 3444 1
314 3766 1
314 3949 1
314 4149 1
314 4300 1
314 4756 1
314 4780 1
315 79 1
315 105 1
315 164 1
315 186 1
315 693 1
315 1058 1
315 1728 1
315 2134 1
315 3766 1
315 4478 1
315 4948 1
316 92 1
316 203 1
316 239 1
316 257 1
316 347 1
316 423 1
316 524 1
316 552 1
316 558 1
316 804 1
316 974 1
316 1036 1
316 1168 1
316 1361 1
316 1632 1
316 1905 1
316 2065 1
316 2340 1
316 3950 1
316 4113 1
316 4169 1
316 4955 1
316 4992 1
317 1 1
317 23 1
317 97 1
317 195 1
317 345 1
317 378 1
317 598 1
317 887 1
317 1431 1
317 1446 1
317 2054 1
317 2928 1
317 3460 1
317 3481 1
317 4060 1
318 68 1
318 91 1
318 251 1
318 262 1
318 870 1
318 1228 1
318 1353 1
318 1532 1
318 1581 1
318 1681 1
318 2194 1
318 2569 1
318 3171 1
318 3250 1
318 4253 1
318 4818 1
319 49 1
319 70 1
319 124 1
319 261 1
319 372 1
319 1429 1
319 1833 1
319 2897 1
319 3242 1
319 3526 1
319 3536 1
319 3727 1
319 4904 1
320 2 1
320 111 1
320 229 1
320 290 1
320 1873 1
320 4288 1
321 36 1
321 78 1
321 91 1
321 295 1
321 468 1
321 649 1
321 793 1
321 981 1
321 1018 1
321 1094 1
321 1470 1
321 1785 1
321 2334 1
321 2350 1
321 2539 1
321 2711 1
321 3117 1
321 3312 1
321 3559 1
321 3755 1
321 3850 1
321 4519 1
321 4611 1
322 6 1
322 9 1
322 11 1
322 116 1
322 405 1
322 582 1
322 900 1
322 1024 1
322 1043 1
322 1221 1
322 1286 1
322 1548 1
322 2217 1
322 2256 1
322 2398 1
322 2528 1
322 2618 1
322 2782 1
322 3172 1
322 3178 1
322 3267 1
322 3598 1
322 3664 1
322 4260 1
322 4587 1
323 18 1
323 44 1
323 90 1
323 265 1
323 358 1
323 450 1
323 495 1
323 614 1
323 728 1
323 991 1
323 1329 1
323 1820 1
323 1913 1
323 2237 1
323 2833 1
323 2850 1
323 2941 1
323 3152 1
323 3264 1
323 3899 1
324 2 1
324 11 1
324 25 1
324 149 1
324 471 1
324 477 1
324 568 1
324 719 1
324 1326 1
324 1505 1
324 1602 1
324 1843 1
324 2360 1
324 2494 1
324 2872 1
324 3698 1
324 4047 1
324 4689 1
325 21 1
325 36 1
325 221 1
325 304 1
325 353 1
325 373 1
325 424 1
325 443 1
325 512 1
325 575 1
325 582 1
325 631 1
325 883 1
325 1472 1
325 2056 1
325 2071 1
325 2311 1
325 2438 1
326 29 1
326 50 1
326 131 1
326 206 1
326 441 1
326 4085 1
326 4741 1
327 26 1
327 115 1
327 170 1
327 218 1
327 829 1
327 1437 1
327 1667 1
327 4425 1
328 18 1
328 141 1
328 261 1
328 283 1
329 14 1
329 15 1
329 25 1
329 86 1
329 356 1
329 376 1
329 532 1
329 1495 1
329 1665 1
329 1722 1
329 1843 1
329 1934 1
329 2294 1
329 2418 1
329 2533 1
329 2630 1
329 3443 1
329 3604 1
329 3884 1
329 4113 1
329 4466 1
329 4491 1
329 4528 1
330 2 1
330 29 1
330 149 1
330 178 1
330 458 1
330 653 1
330 832 1
330 1085 1
330 1123 1
330 2354 1
330 3195 1
330 3511 1
330 3895 1
330 4889 1
330 4984 1
331 5 1
331 13 1
331 37 1
331 266 1
331 377 1
331 444 1
331 447 1
331 489 1
331 543 1
331 739 1
331 1546 1
331 1576 1
331 1578 1
331 1763 1
331 1764 1
331 2696 1
331 3505 1
331 3668 1
331 3908 1
332 25 1
332 26 1
332 87 1
332 251 1
332 339 1
332 430 1
332 601 1
332 740 1
332 780 1
332 928 1
332 1003 1
332 1084 1
332 1123 1
332 1261 1
332 1316 1
332 1348 1
332 1444 1
332 1484 1
332 1697 1
332 1701 1
332 1775 1
332 1999 1
332 2197 1
332 2204 1
332 2282 1
332 2397 1
332 2416 1
332 2484 1
332 2789 1
332 2975 1
332 2984 1
332 3196 1
332 3247 1
332 3393 1
332 3418 1
332 3715 1
332 4182 1
332 4267 1
332 4727 1
332 4897 1
333 11 1
333 21 1
333 125 1
333 291 1
333 1715 1
333 2356 1
333 2636 1
333 2692 1
333 3471 1
333 4245 1
334 25 1
334 38 1
334 74 1
334 215 1
334 338 1
334 340 1
334 1090 1
334 1240 1
334 1613 1
334 1777 1
334 1816 1
334 4701 1
334 4916 1
335 5 1
335 19 1
335 36 1
335 54 1
335 347 1
335 415 1
335 559 1
335 1045 1
335 2989 1
335 3099 1
335 3810 1
336 41 1
336 131 1
336 296 1
336 299 1
336 488 1
336 509 1
336 521 1
336 550 1
336 608 1
336 618 1
336 2130 1
336 2677 1
336 3200 1
336 3916 1
336 4572 1
336 4604 1
336 4650 1
336 4850 1
337 4 1
337 142 1
337 180 1
337 261 1
337 350 1
337 455 1
337 776 1
337 882 1
337 1248 1
337 1345 1
337 1515 1
337 1876 1
337 2200 1
337 2703 1
337 2811 1
337 4483 1
337 4558 1
337 4832 1
337 4936 1
338 3 1
338 26 1
338 172 1
338 334 1
338 642 1
338 779 1
338 858 1
338 918 1
338 1368 1
338 1452 1
338 1946 1
338 2599 1
338 2745 1
338 3247 1
338 4707 1
339 43 1
339 155 1
339 298 1
339 332 1
339 572 1
339 893 1
339 1065 1
339 1109 1
339 1207 1
339 1269 1
339 1322 1
339 1464 1
339 1788 1
339 2173 1
339 2202 1
339 2628 1
339 2874 1
339 2976 1
339 3250 1
339 3688 1
339 3767 1
339 4627 1
339 4709 1
340 25 1
340 93 1
340 244 1
340 334 1
340 733 1
340 1086 1
340 1120 1
340 1259 1
340 2433 1
340 4499 1
340 4916 1
341 5 1
341 10 1
341 43 1
341 212 1
341 1267 1
341 1290 1
341 1365 1
341 1624 1
341 1829 1
341 2017 1
341 2044 1
341 3806 1
341 4348 1
341 4368 1
342 5 1
342 18 1
342 65 1
342 137 1
342 450 1
342 475 1
342 521 1
342 702 1
342 1085 1
342 1170 1
342 1200 1
342 1271 1
342 1596 1
342 2081 1
342 2885 1
342 3201 1
342 3346 1
342 3838 1
342 3852 1
342 3902 1
342 4015 1
342 4434 1
342 4456 1
343 1 1
343 5 1
343 51 1
343 305 1
343 683 1
343 1004 1
343 1019 1
343 1343 1
343 3044 1
344 36 1
344 92 1
344 99 1
344 245 1
344 1182 1
344 1535 1
344 2456 1
345 59 1
345 177 1
345 242 1
345 317 1
345 404 1
345 411 1
345 452 1
345 834 1
345 901 1
345 1277 1
345 1381 1
345 1393 1
345 1593 1
345 2127 1
345 2673 1
345 2726 1
345 2805 1
345 3092 1
345 3212 1
345 3239 1
345 3292 1
345 4169 1
345 4193 1
345 4892 1
346 3 1
346 100 1
346 199 1
346 256 1
346 359 1
346 539 1
346 1508 1
346 1529 1
346 1705 1
346 1894 1
346 2567 1
346 2738 1
346 2875 1
346 3030 1
346 3271 1
346 3528 1
346 3717 1
346 3916 1
346 4211 1
347 36 1
347 278 1
347 316 1
347 335 1
347 353 1
347 412 1
347 507 1
347 515 1
347 544 1
347 552 1
347 624 1
347 870 1
347 974 1
347 981 1
347 1362 1
347 1420 1
347 1655 1
347 1803 1
347 2193 1
347 2279 1
347 2327 1
347 2989 1
347 3110 1
347 3126 1
347 3128 1
347 3196 1
347 3230 1
347 3352 1
347 3424 1
347 3546 1
347 4035 1
347 4177 1
347 4268 1
347 4784 1
348 1 1
348 73 1
348 75 1
348 283 1
348 459 1
348 588 1
348 650 1
348 1250 1
348 1278 1
348 1449 1
348 1530 1
348 1711 1
348 1742 1
348 1760 1
348 1861 1
348 2730 1
348 3055 1
348 3476 1
348 3698 1
348 3780 1
348 4107 1
348 4208 1
348 4457 1
348 4786 1
348 4857 1
349 11 1
349 18 1
349 44 1
349 285 1
349 556 1
349 633 1
349 849 1
349 1057 1
349 1289 1
349 1673 1
349 1724 1
349 1725 1
349 1832 1
349 2045 1
349 2953 1
349 3317 1
349 4669 1
350 142 1
350 180 1
350 261 1
350 337 1
350 1347 1
350 2265 1
350 2417 1
350 2703 1
351 1 1
351 37 1
351 49 1
351 216 1
351 663 1
351 1954 1
352 28 1
352 31 1
352 134 1
352 227 1
352 630 1
352 2110 1
353 104 1
353 131 1
353 325 1
353 347 1
353 490 1
353 512 1
353 631 1
353 683 1
353 849 1
353 883 1
353 930 1
353 1186 1
353 1347 1
353 1419 1
353 1565 1
353 1656 1
353 2020 1
353 2149 1
353 2279 1
353 2419 1
353 2438 1
353 3210 1
353 3462 1
353 3817 1
354 5 1
354 13 1
354 122 1
354 308 1
354 375 1
354 465 1
354 794 1
354 1007 1
354 1070 1
354 1146 1
354 1359 1
354 1671 1
354 1773 1
354 2031 1
354 2370 1
354 3050 1
354 3153 1
354 3585 1
354 3950 1
355 2 1
355 154 1
355 225 1
355 873 1
355 1495 1
355 1617 1
355 3488 1
355 3633 1
355 3798 1
355 4305 1
355 4397 1
355 4778 1
356 186 1
356 220 1
356 228 1
356 329 1
356 701 1
356 852 1
356 896 1
356 1282 1
356 1471 1
356 1552 1
356 1640 1
356 1727 1
356 2247 1
356 2391 1
356 2434 1
356 2492 1
356 2937 1
356 3136 1
356 3604 1
356 4131 1
356 4518 1
357 2 1
357 68 1
357 74 1
357 95 1
357 416 1
357 531 1
357 760 1
357 827 1
357 1094 1
357 1125 1
357 1275 1
357 1305 1
357 1460 1
357 1582 1
357 2111 1
357 2227 1
357 2328 1
357 2342 1
357 2367 1
357 2381 1
357 2524 1
357 3185 1
357 3571 1
357 3799 1
357 4210 1
358 82 1
358 90 1
358 186 1
358 323 1
358 379 1
358 714 1
358 1501 1
358 1520 1
358 1588 1
358 2564 1
358 2621 1
358 2850 1
358 4503 1
359 164 1
359 199 1
359 299 1
359 346 1
359 854 1
359 1042 1
359 1059 1
359 1133 1
359 1836 1
359 3027 1
359 3500 1
359 3547 1
359 4541 1
359 4543 1
360 52 1
360 65 1
360 157 1
360 226 1
360 863 1
360 914 1
360 930 1
360 974 1
360 1704 1
360 1736 1
360 2570 1
360 2860 1
360 3352 1
360 4382 1
361 19 1
361 28 1
361 70 1
361 268 1
361 578 1
361 634 1
361 651 1
361 733 1
361 764 1
361 874 1
361 977 1
361 1016 1
361 1138 1
361 1203 1
361 1573 1
361 1697 1
361 1766 1
361 1911 1
361 1975 1
361 2133 1
361 2286 1
361 2380 1
361 2400 1
361 2616 1
361 2798 1
361 2947 1
361 3011 1
361 3199 1
361 3369 1
361 3404 1
361 3868 1
361 3980 1
361 4100 1
361 4110 1
361 4127 1
361 4167 1
361 4305 1
361 4753 1
361 4987 1
362 1 1
362 3 1
362 29 1
362 42 1
362 548 1
362 623 1
362 876 1
362 1021 1
362 1244 1
362 1324 1
362 2688 1
362 3429 1
362 3787 1
362 4029 1
363 41 1
363 82 1
363 263 1
363 267 1
363 549 1
363 681 1
363 838 1
363 1011 1
363 1507 1
363 1890 1
363 2086 1
363 2865 1
363 2902 1
363 3012 1
363 3737 1
363 4018 1
363 4304 1
364 77 1
364 97 1
364 227 1
364 258 1
364 370 1
364 950 1
364 1106 1
364 1145 1
364 1294 1
364 1448 1
364 1545 1
364 1727 1
364 1829 1
364 1851 1
364 2057 1
364 2513 1
364 2553 1
364 2677 1
364 2886 1
364 2912 1
364 3699 1
364 4406 1
365 1 1
365 25 1
365 102 1
365 237 1
365 420 1
365 796 1
365 906 1
365 1071 1
365 1366 1
365 1867 1
365 2306 1
365 2595 1
365 2664 1
365 2767 1
365 2863 1
365 3067 1
365 3298 1
365 4013 1
366 11 1
366 16 1
366 47 1
366 66 1
366 615 1
366 667 1
366 851 1
366 960 1
366 1255 1
366 1486 1
366 1682 1
366 2094 1
366 2425 1
366 2653 1
366 2778 1
366 3136 1
366 3694 1
366 3813 1
366 3825 1
366 4688 1
366 4978 1
367 5 1
367 21 1
367 28 1
367 265 1
367 970 1
367 1160 1
367 1310 1
367 1354 1
367 1633 1
367 2335 1
368 89 1
368 91 1
368 110 1
368 174 1
368 1415 1
368 1418 1
368 2762 1
369 3 1
369 41 1
369 176 1
369 280 1
369 422 1
369 437 1
369 451 1
369 1383 1
369 1391 1
369 4392 1
370 2 1
370 15 1
370 125 1
370 364 1
370 375 1
370 393 1
370 423 1
370 553 1
370 609 1
370 673 1
370 711 1
370 1069 1
370 1145 1
370 1627 1
370 1664 1
370 1717 1
370 1851 1
370 3173 1
370 3401 1
370 3969 1
370 4037 1
370 4179 1
370 4210 1
370 4572 1
370 4801 1
371 5 1
371 10 1
371 90 1
371 286 1
371 580 1
371 779 1
371 1098 1
371 1683 1
371 2097 1
371 2206 1
371 2317 1
371 2422 1
371 3671 1
371 3675 1
371 3823 1
371 4771 1
371 4805 1
372 39 1
372 169 1
372 314 1
372 319 1
372 382 1
372 981 1
372 1654 1
372 2132 1
372 2239 1
372 2579 1
372 3103 1
372 3157 1
372 3231 1
372 3920 1
372 4638 1
373 11 1
373 194 1
373 244 1
373 325 1
373 612 1
373 631 1
373 785 1
373 1038 1
373 1082 1
373 1179 1
373 1306 1
373 1337 1
373 1461 1
373 1492 1
373 2392 1
373 2410 1
373 2483 1
373 3046 1
373 3608 1
373 3936 1
373 4952 1
374 8 1
374 45 1
374 193 1
374 205 1
374 388 1
374 454 1
374 691 1
374 725 1
374 792 1
374 1034 1
374 1055 1
374 1460 1
374 1784 1
374 1909 1
374 2049 1
374 3315 1
374 4682 1
374 4844 1
375 5 1
375 13 1
375 354 1
375 370 1
375 1041 1
375 1054 1
375 1072 1
375 4037 1
375 4195 1
376 14 1
376 15 1
376 86 1
376 329 1
376 902 1
376 1478 1
376 4233 1
377 107 1
377 266 1
377 296 1
377 331 1
377 613 1
377 1977 1
377 2258 1
377 2774 1
378 3 1
378 97 1
378 246 1
378 317 1
378 567 1
378 887 1
378 901 1
378 1014 1
378 1124 1
378 1216 1
378 1230 1
378 1272 1
378 1694 1
378 1998 1
378 2004 1
378 2025 1
378 2054 1
378 2491 1
378 2548 1
378 2619 1
378 2743 1
378 4670 1
378 4777 1
378 4862 1
378 4876 1
379 158 1
379 198 1
379 290 1
379 358 1
379 451 1
379 964 1
379 1406 1
379 1524 1
379 2697 1
379 3512 1
379 3738 1
379 4122 1
379 4723 1
380 1 1
380 2 1
380 45 1
380 173 1
380 1142 1
380 1445 1
380 1534 1
380 1768 1
380 1933 1
380 1969 1
380 2109 1
380 3670 1
380 3839 1
380 3930 1
380 4042 1
380 4065 1
380 4226 1
380 4440 1
380 4460 1
380 4651 1
380 4741 1
381 1 1
381 194 1
381 211 1
381 253 1
381 665 1
381 864 1
381 1017 1
381 1439 1
381 1939 1
381 3464 1
381 4242 1
381 4935 1
382 6 1
382 79 1
382 169 1
382 372 1
382 502 1
382 950 1
382 955 1
382 967 1
382 1013 1
382 1444 1
382 1539 1
382 1734 1
382 2185 1
382 2579 1
382 3262 1
382 3600 1
382 3657 1
382 4171 1
382 4387 1
383 1 1
383 3 1
383 15 1
383 146 1
383 820 1
383 1261 1
383 4522 1
384 176 1
384 215 1
384 217 1
384 264 1
384 731 1
384 1148 1
385 3 1
385 179 1
385 237 1
385 269 1
385 461 1
385 485 1
385 486 1
385 569 1
385 781 1
385 957 1
385 984 1
385 1049 1
385 1200 1
385 1382 1
385 1445 1
385 1749 1
385 2099 1
385 2128 1
385 2224 1
385 2270 1
385 2430 1
385 2520 1
385 2536 1
385 2685 1
385 3922 1
385 4065 1
385 4380 1
385 4451 1
385 4517 1
385 4613 1
386 5 1
386 88 1
386 229 1
386 233 1
386 678 1
386 698 1
386 885 1
386 1115 1
386 1145 1
386 1759 1
386 1929 1
386 1992 1
386 2409 1
386 2450 1
386 2568 1
386 3172 1
386 3243 1
386 3578 1
386 3794 1
386 4034 1
386 4799 1
387 57 1
387 105 1
387 106 1
387 177 1
387 511 1
387 519 1
387 668 1
387 800 1
387 1178 1
387 1219 1
387 1723 1
387 1740 1
387 1781 1
387 1863 1
387 1945 1
387 2015 1
387 2044 1
387 2384 1
387 2620 1
387 2771 1
387 2793 1
387 4035 1
387 4243 1
387 4333 1
387 4533 1
387 4547 1
387 4873 1
388 70 1
388 91 1
388 193 1
388 374 1
388 546 1
388 1034 1
388 1105 1
388 1430 1
388 1555 1
388 1710 1
388 2092 1
388 2188 1
388 2318 1
388 2367 1
388 2436 1
388 2515 1
388 2624 1
388 2963 1
388 3767 1
388 3820 1
388 4416 1
388 4610 1
388 4660 1
389 6 1
389 24 1
389 41 1
389 131 1
389 2329 1
389 2954 1
389 3160 1
389 4191 1
389 4366 1
390 10 1
390 17 1
390 33 1
390 91 1
390 427 1
390 1258 1
391 51 1
391 90 1
391 169 1
391 170 1
391 408 1
391 2621 1
391 3155 1
391 4594 1
392 42 1
392 48 1
392 121 1
392 144 1
392 743 1
392 836 1
392 3161 1
392 3891 1
393 20 1
393 55 1
393 170 1
393 370 1
393 409 1
393 493 1
393 652 1
393 915 1
393 940 1
393 954 1
393 1398 1
393 1557 1
393 2052 1
393 3755 1
393 3866 1
393 4907 1
394 42 1
394 141 1
394 204 1
394 229 1
394 715 1
394 743 1
394 843 1
394 1136 1
394 1865 1
394 1900 1
394 2390 1
394 2510 1
394 2971 1
394 3339 1
394 4018 1
395 1 1
395 19 1
395 70 1
395 193 1
395 507 1
395 792 1
395 1554 1
395 1661 1
395 2290 1
395 2404 1
395 4676 1
396 10 1
396 11 1
396 62 1
396 71 1
396 408 1
396 586 1
396 647 1
396 713 1
396 919 1
396 1009 1
396 1014 1
396 1424 1
396 1566 1
396 2248 1
396 3396 1
396 3866 1
396 3887 1
396 3911 1
396 4689 1
397 49 1
397 97 1
397 178 1
397 180 1
397 730 1
397 836 1
397 853 1
397 1025 1
397 1049 1
397 1113 1
397 1147 1
397 1197 1
397 1540 1
397 1643 1
397 1778 1
397 2397 1
397 3767 1
397 4100 1
397 4401 1
398 2 1
398 22 1
398 99 1
398 295 1
398 1166 1
398 3770 1
398 4214 1
399 5 1
399 35 1
399 65 1
399 81 1
399 466 1
399 762 1
399 898 1
399 927 1
399 1596 1
399 2313 1
399 3018 1
399 3576 1
399 3585 1
399 3652 1
399 3842 1
399 4104 1
399 4211 1
399 4460 1
400 16 1
400 17 1
400 131 1
400 171 1
400 555 1
400 853 1
400 1287 1
400 1478 1
400 2153 1
400 2637 1
400 2697 1
400 3284 1
400 4369 1
400 4598 1
401 25 1
401 76 1
401 120 1
401 274 1
401 410 1
401 426 1
401 549 1
401 1066 1
401 1341 1
401 1516 1
401 1676 1
401 2424 1
401 2570 1
401 3732 1
401 4285 1
401 4535 1
401 4951 1
402 48 1
402 89 1
402 97 1
402 227 1
402 446 1
402 455 1
402 500 1
402 557 1
402 2358 1
402 2996 1
402 3035 1
402 3716 1
403 41 1
403 57 1
403 98 1
403 222 1
403 650 1
403 833 1
403 968 1
403 989 1
403 1378 1
403 2007 1
403 2527 1
403 2674 1
403 3023 1
403 3538 1
403 4027 1
403 4345 1
404 2 1
404 177 1
404 242 1
404 345 1
404 706 1
404 824 1
404 874 1
404 1187 1
404 1413 1
404 1819 1
404 1896 1
404 2456 1
404 3100 1
404 3212 1
404 4193 1
405 3 1
405 18 1
405 114 1
405 322 1
405 411 1
405 454 1
405 646 1
405 664 1
405 1091 1
405 1121 1
405 1169 1
405 1204 1
405 1438 1
405 1494 1
405 1619 1
405 1769 1
405 1798 1
405 2317 1
405 2361 1
405 2603 1
405 2769 1
405 2889 1
405 2981 1
405 3354 1
405 3587 1
405 3638 1
405 3820 1
405 4078 1
405 4514 1
405 4677 1
405 4732 1
406 2 1
406 12 1
406 17 1
406 85 1
406 530 1
406 584 1
406 633 1
406 1405 1
406 1511 1
406 1880 1
406 1941 1
406 2045 1
406 2446 1
406 2745 1
406 2776 1
406 3135 1
406 3213 1
406 3279 1
406 3713 1
406 3836 1
406 3924 1
406 4569 1
406 4845 1
407 3 1
407 38 1
407 180 1
407 285 1
407 516 1
407 765 1
407 865 1
407 1061 1
407 1480 1
407 1941 1
407 2123 1
407 3994 1
408 183 1
408 228 1
408 391 1
408 396 1
408 1684 1
408 2165 1
409 16 1
409 146 1
409 158 1
409 393 1
409 519 1
409 630 1
409 659 1
409 828 1
409 920 1
409 924 1
409 996 1
409 1118 1
409 1288 1
409 2095 1
409 2465 1
409 2500 1
409 3939 1
409 4573 1
409 4704 1
410 25 1
410 75 1
410 85 1
410 401 1
410 439 1
410 755 1
410 761 1
410 1090 1
410 1211 1
410 1491 1
410 1674 1
410 1910 1
410 2016 1
410 2071 1
410 2488 1
410 2596 1
410 2669 1
410 3121 1
410 3199 1
410 3371 1
410 4908 1
410 4958 1
411 1 1
411 75 1
411 345 1
411 405 1
411 452 1
411 467 1
411 623 1
411 663 1
411 770 1
411 772 1
411 1078 1
411 1593 1
411 1670 1
411 1800 1
411 2673 1
411 2805 1
411 3138 1
411 3458 1
411 4334 1
411 4471 1
412 92 1
412 105 1
412 266 1
412 347 1
412 505 1
412 2018 1
412 2122 1
412 2193 1
412 2230 1
412 2474 1
412 2980 1
412 3920 1
412 4132 1
412 4337 1
412 4406 1
412 4990 1
413 43 1
413 89 1
413 92 1
413 285 1
413 415 1
413 716 1
413 881 1
413 934 1
413 952 1
413 1210 1
413 1291 1
413 1761 1
413 2055 1
413 2443 1
413 2640 1
413 4035 1
413 4821 1
414 28 1
414 51 1
414 108 1
414 154 1
414 514 1
414 805 1
414 1103 1
414 1549 1
414 1658 1
414 2251 1
414 2431 1
415 92 1
415 284 1
415 335 1
415 413 1
415 559 1
415 582 1
415 716 1
415 1045 1
415 2124 1
415 3345 1
415 4448 1
415 4515 1
415 4588 1
416 29 1
416 74 1
416 242 1
416 357 1
416 619 1
416 982 1
416 1044 1
416 1125 1
416 1514 1
416 2339 1
416 2894 1
416 3869 1
416 4552 1
417 9 1
417 48 1
417 138 1
417 190 1
417 712 1
417 1007 1
417 1340 1
417 1509 1
417 2096 1
417 2565 1
417 2655 1
417 2835 1
417 3910 1
418 3 1
418 9 1
418 226 1
418 239 1
418 709 1
418 1010 1
418 1095 1
418 1120 1
418 1477 1
418 1490 1
418 1857 1
418 2220 1
418 2538 1
418 2938 1
418 3143 1
418 3242 1
418 3366 1
418 4295 1
418 4322 1
419 14 1
419 39 1
419 52 1
419 158 1
419 513 1
419 594 1
419 695 1
419 738 1
419 751 1
419 756 1
419 941 1
419 1205 1
419 1371 1
419 1451 1
419 1543 1
419 2053 1
419 2376 1
419 2961 1
419 3042 1
419 3144 1
419 3289 1
419 3691 1
419 4767 1
420 11 1
420 48 1
420 237 1
420 365 1
420 796 1
420 906 1
420 1071 1
420 1136 1
420 1140 1
420 1270 1
420 1285 1
420 1289 1
420 1357 1
420 2904 1
420 3982 1
420 4513 1
420 4867 1
421 5 1
421 11 1
421 199 1
421 295 1
421 476 1
421 905 1
421 1235 1
421 1505 1
421 2028 1
421 2420 1
421 2839 1
421 3531 1
421 4033 1
422 213 1
422 282 1
422 293 1
422 369 1
422 469 1
422 480 1
422 4082 1
422 4392 1
423 19 1
423 203 1
423 316 1
423 370 1
423 465 1
423 815 1
423 878 1
423 1579 1
423 1643 1
423 2615 1
423 4769 1
423 4992 1
424 21 1
424 253 1
424 304 1
424 325 1
424 532 1
424 575 1
425 17 1
425 71 1
425 81 1
425 227 1
425 593 1
425 617 1
425 630 1
425 1093 1
425 1348 1
425 1827 1
425 2147 1
425 2344 1
425 2418 1
425 2748 1
425 2876 1
425 4080 1
426 63 1
426 123 1
426 309 1
426 401 1
426 732 1
426 848 1
426 1066 1
426 1164 1
426 1771 1
426 2120 1
426 2309 1
426 2510 1
426 2513 1
426 2662 1
426 2724 1
426 3017 1
426 3020 1
426 3106 1
426 3251 1
426 3271 1
426 3684 1
426 3782 1
426 4316 1
426 4881 1
427 35 1
427 166 1
427 200 1
427 390 1
427 660 1
427 775 1
427 1656 1
427 3188 1
427 4868 1
428 3 1
428 27 1
428 131 1
428 189 1
428 894 1
428 1428 1
428 3224 1
429 49 1
429 65 1
429 97 1
429 126 1
429 601 1
429 697 1
429 707 1
429 773 1
429 1461 1
429 2085 1
429 2467 1
429 2822 1
429 2885 1
429 3507 1
429 4227 1
429 4414 1
430 35 1
430 44 1
430 93 1
430 332 1
430 767 1
430 1697 1
430 2228 1
430 2365 1
430 2377 1
430 2770 1
430 3045 1
430 4182 1
430 4379 1
430 4431 1
431 66 1
431 105 1
431 168 1
431 177 1
431 1238 1
431 1375 1
431 1456 1
431 1899 1
431 2115 1
431 2407 1
431 3087 1
431 3186 1
431 3797 1
431 4265 1
431 4560 1
431 4949 1
432 18 1
432 90 1
432 150 1
432 195 1
432 2445 1
432 2589 1
433 17 1
433 58 1
433 83 1
433 288 1
433 661 1
433 749 1
433 1314 1
433 1694 1
433 1741 1
433 1960 1
433 2240 1
433 2364 1
433 2881 1
433 2964 1
433 4508 1
434 20 1
434 53 1
434 88 1
434 140 1
434 495 1
434 884 1
434 935 1
434 984 1
434 1692 1
434 1859 1
434 2039 1
434 2135 1
434 2306 1
434 2477 1
434 2767 1
434 3355 1
434 3905 1
435 4 1
435 29 1
435 33 1
435 239 1
435 1236 1
435 2111 1
435 2758 1
435 2867 1
435 4925 1
436 3 1
436 113 1
436 156 1
436 226 1
436 504 1
436 592 1
436 628 1
436 1772 1
436 1830 1
436 2769 1
436 3824 1
436 4540 1
436 4586 1
436 4933 1
437 6 1
437 9 1
437 95 1
437 369 1
437 515 1
437 642 1
437 675 1
437 811 1
437 903 1
437 1107 1
437 2713 1
437 2899 1
437 3158 1
437 3253 1
437 3381 1
437 3771 1
438 65 1
438 103 1
438 176 1
438 296 1
438 796 1
438 1062 1
438 1319 1
438 1669 1
438 1825 1
438 2384 1
438 2533 1
439 118 1
439 276 1
439 310 1
439 410 1
439 1498 1
439 1674 1
439 2753 1
439 2829 1
439 2931 1
439 4518 1
440 25 1
440 108 1
440 186 1
440 231 1
440 750 1
440 907 1
440 940 1
440 2505 1
440 2514 1
440 4976 1
441 1 1
441 101 1
441 206 1
441 326 1
441 547 1
441 627 1
441 705 1
441 801 1
441 1291 1
441 1807 1
441 1868 1
441 2001 1
441 2170 1
441 2955 1
441 4064 1
441 4632 1
441 4741 1
442 4 1
442 5 1
442 10 1
442 130 1
442 949 1
442 1150 1
442 1957 1
442 2043 1
442 3106 1
442 4172 1
443 10 1
443 115 1
443 296 1
443 325 1
443 648 1
443 773 1
443 1012 1
443 1337 1
443 1526 1
443 1692 1
443 2502 1
443 2913 1
443 2986 1
443 3480 1
443 3742 1
443 3955 1
443 4470 1
443 4672 1
443 4675 1
443 4919 1
444 53 1
444 102 1
444 147 1
444 331 1
444 1546 1
444 2018 1
444 2566 1
444 2664 1
444 3440 1
444 4241 1
445 10 1
445 58 1
445 74 1
445 303 1
445 577 1
445 600 1
445 610 1
445 759 1
445 1127 1
445 1237 1
445 1471 1
445 1729 1
445 1801 1
445 1956 1
445 2595 1
446 2 1
446 17 1
446 73 1
446 402 1
446 456 1
446 552 1
446 569 1
446 1223 1
446 1636 1
446 2063 1
446 2303 1
446 2834 1
446 2996 1
446 3096 1
446 3772 1
446 4402 1
447 1 1
447 13 1
447 51 1
447 331 1
447 595 1
447 621 1
447 629 1
447 1047 1
447 1372 1
447 1702 1
447 1968 1
447 2907 1
447 3031 1
447 3135 1
447 4555 1
447 4653 1
447 4979 1
448 11 1
448 25 1
448 51 1
448 157 1
448 811 1
448 1497 1
448 1734 1
448 1961 1
448 2035 1
448 3273 1
448 4614 1
448 4926 1
449 5 1
449 135 1
449 147 1
449 225 1
449 467 1
449 809 1
449 1052 1
449 1097 1
449 1235 1
449 2846 1
449 3382 1
449 3457 1
449 4323 1
449 4393 1
449 4585 1
450 18 1
450 92 1
450 323 1
450 342 1
450 1233 1
450 1686 1
450 1795 1
450 2442 1
450 2502 1
450 2568 1
450 2942 1
450 3314 1
450 3718 1
450 3902 1
450 4133 1
450 4419 1
451 89 1
451 176 1
451 369 1
451 379 1
451 1202 1
451 1406 1
451 1924 1
451 1992 1
451 2320 1
451 3086 1
451 3233 1
451 3365 1
451 3515 1
451 4794 1
452 198 1
452 275 1
452 345 1
452 411 1
452 551 1
452 575 1
452 592 1
452 750 1
452 865 1
452 1547 1
452 2240 1
452 2739 1
452 3092 1
452 3853 1
452 4880 1
453 3 1
453 38 1
453 54 1
453 177 1
453 499 1
453 878 1
453 920 1
453 1634 1
453 1932 1
453 2497 1
453 2609 1
453 2714 1
453 3863 1
453 4049 1
454 2 1
454 18 1
454 374 1
454 405 1
454 591 1
454 902 1
454 1204 1
454 1315 1
454 2923 1
454 3430 1
455 55 1
455 89 1
455 337 1
455 402 1
455 882 1
455 1248 1
455 1750 1
455 1810 1
455 1838 1
455 2195 1
455 2366 1
455 2703 1
455 3278 1
455 3610 1
456 82 1
456 117 1
456 261 1
456 446 1
456 655 1
456 724 1
456 2661 1
456 2955 1
456 4255 1
457 11 1
457 74 1
457 102 1
457 278 1
457 478 1
457 605 1
457 834 1
457 1020 1
457 1228 1
457 1274 1
457 1739 1
457 2242 1
457 2848 1
457 2969 1
457 3078 1
457 3246 1
457 3318 1
457 3636 1
457 3669 1
457 3844 1
457 4357 1
457 4516 1
457 4740 1
458 234 1
458 241 1
458 268 1
458 330 1
458 1031 1
458 2887 1
458 4393 1
459 26 1
459 89 1
459 199 1
459 348 1
459 1091 1
459 1711 1
459 1820 1
459 1907 1
459 2255 1
459 2770 1
459 3072 1
459 3119 1
459 3315 1
459 3698 1
459 3703 1
459 3948 1
459 3993 1
459 4444 1
459 4786 1
460 23 1
460 84 1
460 106 1
460 131 1
460 893 1
460 986 1
460 1064 1
460 1894 1
460 2334 1
460 2508 1
460 3637 1
460 4471 1
460 4523 1
461 2 1
461 88 1
461 217 1
461 385 1
461 670 1
461 1970 1
461 3736 1
461 4736 1
462 29 1
462 49 1
462 277 1
462 293 1
462 610 1
462 752 1
462 821 1
462 1116 1
462 2040 1
462 3797 1
463 21 1
463 58 1
463 83 1
463 233 1
463 985 1
463 1805 1
463 2217 1
463 2393 1
463 4009 1
463 4051 1
463 4067 1
463 4562 1
463 4626 1
464 37 1
464 41 1
464 52 1
464 76 1
464 1487 1
464 3054 1
464 3828 1
464 4735 1
465 100 1
465 203 1
465 354 1
465 423 1
465 752 1
465 786 1
465 815 1
465 826 1
465 1951 1
465 2182 1
465 4246 1
466 5 1
466 79 1
466 209 1
466 399 1
466 575 1
466 762 1
466 771 1
466 893 1
466 957 1
466 1249 1
466 1338 1
466 1596 1
466 1638 1
466 1712 1
466 1918 1
466 2068 1
466 2119 1
466 2803 1
466 3191 1
466 3202 1
466 3576 1
466 3964 1
466 4058 1
466 4554 1
467 10 1
467 135 1
467 411 1
467 449 1
467 1075 1
467 1215 1
467 1280 1
467 1657 1
467 2578 1
467 3518 1
467 3650 1
467 3929 1
468 58 1
468 288 1
468 295 1
468 321 1
468 793 1
468 3975 1
469 89 1
469 90 1
469 213 1
469 422 1
469 529 1
469 951 1
469 1035 1
469 1391 1
469 1397 1
469 1609 1
469 3243 1
470 4 1
470 105 1
470 117 1
470 308 1
470 733 1
470 953 1
470 1157 1
470 1432 1
470 1472 1
470 1588 1
470 1652 1
470 2289 1
470 2311 1
470 2836 1
470 3612 1
470 3929 1
470 4213 1
471 41 1
471 52 1
471 241 1
471 324 1
471 987 1
471 1453 1
471 2198 1
471 2494 1
471 4302 1
472 12 1
472 100 1
472 107 1
472 226 1
472 611 1
472 705 1
472 1852 1
472 2211 1
472 2222 1
472 2533 1
472 2589 1
472 3226 1
473 38 1
473 131 1
473 154 1
473 234 1
473 625 1
473 2323 1
473 4409 1
473 4458 1
473 4891 1
474 5 1
474 135 1
474 154 1
474 179 1
474 925 1
474 1318 1
474 2008 1
474 2046 1
474 2338 1
474 2547 1
474 3007 1
474 3029 1
474 3417 1
474 4358 1
474 4577 1
474 4963 1
475 3 1
475 137 1
475 184 1
475 342 1
475 609 1
475 613 1
475 685 1
475 1170 1
475 1177 1
475 1262 1
475 1407 1
475 1438 1
475 1665 1
475 1793 1
475 1798 1
475 2060 1
475 2162 1
475 2261 1
475 2319 1
475 2389 1
475 2608 1
475 2705 1
475 2953 1
475 3064 1
475 3077 1
475 3107 1
475 3417 1
475 3537 1
475 3592 1
475 3754 1
475 3838 1
475 3893 1
475 3900 1
475 4138 1
475 4398 1
475 4540 1
475 4930 1
476 11 1
476 81 1
476 295 1
476 421 1
476 526 1
476 734 1
476 809 1
476 872 1
476 982 1
476 1050 1
476 1580 1
476 1834 1
476 3437 1
476 3776 1
476 3882 1
476 3959 1
477 25 1
477 29 1
477 273 1
477 324 1
477 532 1
477 1006 1
477 1555 1
477 1605 1
477 2563 1
477 3403 1
477 4700 1
477 4804 1
478 11 1
478 18 1
478 314 1
478 457 1
478 545 1
478 834 1
478 1298 1
478 1575 1
478 1739 1
478 2445 1
478 2523 1
478 2537 1
478 2583 1
478 3000 1
478 3640 1
478 3845 1
478 4780 1
478 4813 1
478 4860 1
479 5 1
479 11 1
479 141 1
479 299 1
479 510 1
479 715 1
479 996 1
479 1191 1
479 1462 1
479 1845 1
479 2921 1
479 3204 1
479 4824 1
480 17 1
480 27 1
480 158 1
480 422 1
480 2485 1
481 25 1
481 66 1
481 73 1
481 84 1
481 606 1
481 620 1
481 747 1
481 819 1
481 851 1
481 909 1
481 1112 1
481 1471 1
481 1622 1
481 1699 1
481 1826 1
481 1893 1
481 2178 1
481 2407 1
481 2577 1
481 3461 1
481 3478 1
481 3596 1
481 3826 1
481 3835 1
481 4224 1
481 4263 1
481 4481 1
481 4490 1
481 4541 1
481 4617 1
482 73 1
482 155 1
482 218 1
482 251 1
482 587 1
482 599 1
482 1161 1
482 2084 1
482 2385 1
482 2695 1
482 2736 1
482 3523 1
482 3577 1
482 3974 1
482 4039 1
482 4115 1
482 4438 1
483 54 1
483 93 1
483 251 1
483 276 1
483 659 1
483 979 1
483 1141 1
483 1736 1
483 2402 1
483 2460 1
483 2988 1
483 3035 1
483 3361 1
483 3548 1
483 3552 1
483 3609 1
483 3790 1
483 3968 1
484 19 1
484 20 1
484 115 1
484 290 1
484 938 1
484 1076 1
484 1158 1
484 1477 1
484 1479 1
484 1882 1
484 2169 1
484 2259 1
484 2628 1
484 2816 1
485 41 1
485 114 1
485 179 1
485 385 1
485 1009 1
485 1887 1
485 2721 1
485 2914 1
485 3233 1
485 4072 1
486 11 1
486 109 1
486 179 1
486 385 1
486 1057 1
486 1607 1
486 1636 1
486 1755 1
486 1908 1
486 2072 1
486 2809 1
486 2828 1
486 3266 1
486 3319 1
486 4189 1
487 73 1
487 160 1
487 220 1
487 259 1
487 691 1
487 712 1
487 1048 1
487 1079 1
487 1647 1
487 1721 1
487 1982 1
487 2250 1
487 2633 1
487 2669 1
488 41 1
488 131 1
488 299 1
488 336 1
488 846 1
489 22 1
489 31 1
489 254 1
489 331 1
489 611 1
489 1499 1
489 1524 1
489 1594 1
489 1796 1
489 1876 1
489 3102 1
489 3359 1
489 3928 1
489 4353 1
490 29 1
490 82 1
490 248 1
490 353 1
490 512 1
490 849 1
490 2458 1
491 6 1
491 18 1
491 25 1
491 61 1
491 555 1
491 688 1
491 1293 1
491 1452 1
491 1600 1
491 2081 1
491 2263 1
491 2759 1
491 3207 1
491 3400 1
491 4270 1
491 4506 1
491 4636 1
492 19 1
492 20 1
492 59 1
492 64 1
492 1074 1
492 1499 1
492 1816 1
492 2360 1
492 3764 1
493 5 1
493 19 1
493 58 1
493 393 1
493 1346 1
493 1492 1
493 3147 1
494 35 1
494 160 1
494 259 1
494 285 1
494 661 1
494 726 1
494 808 1
494 976 1
494 1040 1
494 1195 1
494 1568 1
494 3979 1
495 92 1
495 125 1
495 323 1
495 434 1
495 845 1
495 4616 1
496 85 1
496 126 1
496 130 1
496 172 1
496 616 1
496 1983 1
496 2875 1
497 16 1
497 95 1
497 108 1
497 190 1
497 668 1
497 980 1
497 1356 1
497 2245 1
497 2483 1
497 2780 1
497 3445 1
497 3975 1
497 4194 1
497 4925 1
498 1 1
498 50 1
498 101 1
498 199 1
498 679 1
498 768 1
498 1274 1
499 3 1
499 10 1
499 11 1
499 453 1
499 602 1
499 687 1
499 703 1
499 1024 1
499 1081 1
499 1227 1
499 1317 1
499 2668 1
499 2757 1
499 3063 1
499 3151 1
499 3438 1
499 3479 1
499 3486 1
499 3516 1
499 3654 1
499 4208 1
499 4909 1
500 9 1
500 89 1
500 100 1
500 402 1
500 525 1
500 797 1
500 1458 1
500 1728 1
500 2556 1
500 3655 1
500 3850 1
500 4055 1
500 4501 1
501 3 1
501 9 1
501 267 1
501 295 1
501 522 1
501 649 1
501 811 1
501 842 1
501 1343 1
501 1655 1
501 2487 1
501 3044 1
501 3096 1
501 3179 1
501 3548 1
501 4011 1
501 4192 1
501 4620 1
502 5 1
502 18 1
502 90 1
502 382 1
502 2362 1
503 36 1
503 67 1
503 101 1
503 265 1
503 1611 1
503 2003 1
503 2741 1
503 4609 1
504 113 1
504 143 1
504 158 1
504 436 1
505 75 1
505 105 1
505 114 1
505 412 1
505 1088 1
505 1279 1
505 1316 1
505 1325 1
505 2980 1
505 3317 1
505 4075 1
505 4116 1
505 4302 1
505 4462 1
505 4562 1
506 91 1
506 154 1
506 173 1
506 234 1
506 572 1
506 654 1
506 717 1
506 888 1
506 1027 1
506 1431 1
506 1585 1
506 1971 1
506 2032 1
506 3112 1
506 4087 1
506 4164 1
506 4170 1
506 4815 1
506 4871 1
507 19 1
507 132 1
507 347 1
507 395 1
507 1128 1
507 1650 1
507 3335 1
508 4 1
508 42 1
508 44 1
508 270 1
508 923 1
508 1475 1
508 1668 1
508 2942 1
508 4240 1
508 4639 1
508 4980 1
509 41 1
509 54 1
509 132 1
509 336 1
509 899 1
509 1247 1
509 3832 1
509 4393 1
510 2 1
510 19 1
510 28 1
510 479 1
510 1326 1
510 1506 1
510 1517 1
510 2403 1
510 2567 1
510 3309 1
511 10 1
511 105 1
511 306 1
511 387 1
511 519 1
511 703 1
511 1088 1
511 1303 1
511 1412 1
511 1474 1
511 4243 1
512 104 1
512 325 1
512 353 1
512 490 1
512 2458 1
512 2732 1
512 3065 1
513 6 1
513 122 1
513 263 1
513 419 1
513 2500 1
514 30 1
514 33 1
514 107 1
514 414 1
514 1256 1
514 1537 1
514 3270 1
514 3784 1
514 4239 1
514 4442 1
514 4512 1
515 5 1
515 170 1
515 347 1
515 437 1
515 604 1
515 776 1
515 855 1
515 1107 1
515 1166 1
515 1174 1
515 1241 1
515 1840 1
515 1899 1
515 2177 1
515 2279 1
515 2909 1
515 3047 1
515 3081 1
515 3113 1
515 3190 1
515 4412 1
516 9 1
516 45 1
516 52 1
516 407 1
516 611 1
516 943 1
516 1480 1
516 4521 1
517 3 1
517 108 1
517 231 1
517 237 1
517 748 1
517 896 1
517 1380 1
517 2990 1
517 4069 1
517 4149 1
517 4371 1
518 40 1
518 85 1
518 154 1
518 266 1
518 589 1
518 697 1
518 807 1
518 1349 1
518 1811 1
519 44 1
519 387 1
519 409 1
519 511 1
519 536 1
519 595 1
519 4633 1
519 4872 1
520 37 1
520 78 1
520 177 1
520 286 1
520 1211 1
520 1283 1
521 17 1
521 277 1
521 336 1
521 342 1
521 2081 1
521 2489 1
521 3026 1
521 3403 1
521 3517 1
521 4482 1
521 4672 1
522 3 1
522 109 1
522 117 1
522 501 1
522 638 1
522 656 1
522 2166 1
522 3617 1
523 3 1
523 8 1
523 78 1
523 123 1
523 548 1
523 1729 1
523 1974 1
523 3105 1
523 3420 1
523 4336 1
523 4405 1
523 4593 1
523 4810 1
524 75 1
524 169 1
524 203 1
524 316 1
524 1167 1
524 1905 1
524 2405 1
524 3279 1
524 3950 1
524 4166 1
525 9 1
525 81 1
525 194 1
525 500 1
525 789 1
525 1179 1
525 1400 1
525 1850 1
525 1914 1
525 2015 1
525 3127 1
526 2 1
526 73 1
526 81 1
526 476 1
526 902 1
526 1834 1
526 2846 1
526 3535 1
526 4158 1
527 5 1
527 148 1
527 153 1
527 218 1
527 1245 1
527 4684 1
527 4695 1
528 49 1
528 120 1
528 214 1
528 227 1
529 3 1
529 29 1
529 117 1
529 469 1
529 1035 1
529 1067 1
529 1106 1
529 1651 1
529 1854 1
529 1945 1
529 1951 1
529 2144 1
529 2227 1
529 2695 1
529 3121 1
529 3207 1
529 3649 1
529 4354 1
529 4497 1
529 4855 1
530 16 1
530 42 1
530 203 1
530 406 1
530 542 1
530 1139 1
530 1307 1
530 1500 1
530 1706 1
530 2284 1
530 2307 1
530 2351 1
530 2353 1
530 2489 1
530 2530 1
530 3079 1
530 3213 1
530 3978 1
530 4048 1
530 4682 1
531 2 1
531 50 1
531 222 1
531 357 1
531 777 1
531 863 1
531 1298 1
531 1411 1
531 1865 1
531 2017 1
531 2111 1
531 2490 1
531 2517 1
531 3049 1
531 4384 1
531 4944 1
531 4946 1
532 25 1
532 329 1
532 424 1
532 477 1
532 934 1
532 1168 1
532 1520 1
532 2554 1
532 2610 1
532 3009 1
532 3423 1
532 3562 1
533 16 1
533 54 1
533 216 1
533 252 1
533 625 1
533 1487 1
533 1738 1
533 2310 1
533 2509 1
533 2888 1
533 3170 1
533 3229 1
533 4027 1
534 5 1
534 17 1
534 305 1
534 307 1
534 2191 1
534 2365 1
534 2582 1
534 4559 1
534 4881 1
535 19 1
535 131 1
535 235 1
535 267 1
535 666 1
535 697 1
535 1192 1
535 1643 1
535 2272 1
535 2596 1
536 1 1
536 206 1
536 269 1
536 519 1
536 1159 1
536 2475 1
536 2983 1
537 6 1
537 13 1
537 58 1
537 122 1
537 645 1
537 863 1
537 1275 1
537 2168 1
537 2691 1
537 2867 1
537 3814 1
537 3943 1
537 4023 1
537 4623 1
537 4686 1
538 85 1
538 87 1
538 105 1
538 191 1
538 690 1
538 1366 1
538 1384 1
538 1668 1
538 4111 1
539 66 1
539 91 1
539 100 1
539 346 1
539 979 1
539 3090 1
540 6 1
540 10 1
540 53 1
540 81 1
540 1642 1
540 1810 1
540 2237 1
540 2425 1
540 3288 1
540 3496 1
540 3685 1
540 4585 1
541 11 1
541 108 1
541 137 1
541 160 1
541 1780 1
541 4390 1
541 4551 1
542 16 1
542 21 1
542 58 1
542 530 1
542 840 1
542 848 1
542 1022 1
542 1499 1
542 1657 1
542 1849 1
542 3215 1
542 3518 1
542 3664 1
542 3768 1
542 3830 1
542 4126 1
542 4705 1
543 9 1
543 37 1
543 153 1
543 331 1
543 1021 1
543 1395 1
543 1576 1
543 1595 1
543 1658 1
543 1784 1
543 3019 1
544 17 1
544 91 1
544 193 1
544 347 1
544 578 1
544 754 1
544 812 1
544 853 1
544 1590 1
544 1687 1
544 1955 1
544 2040 1
544 2279 1
544 4962 1
545 35 1
545 161 1
545 314 1
545 478 1
545 556 1
545 583 1
545 1061 1
545 1452 1
545 1633 1
545 1915 1
545 1925 1
545 2236 1
545 2759 1
545 3506 1
545 4598 1
545 4680 1
545 4993 1
546 3 1
546 5 1
546 64 1
546 388 1
546 1924 1
546 2093 1
546 2963 1
547 12 1
547 19 1
547 79 1
547 441 1
547 1959 1
548 3 1
548 63 1
548 362 1
548 523 1
548 563 1
548 876 1
548 1051 1
548 1352 1
548 1614 1
548 1645 1
548 1817 1
548 2461 1
548 3787 1
548 4156 1
548 4216 1
548 4593 1
549 25 1
549 53 1
549 363 1
549 401 1
549 1351 1
549 1507 1
549 1676 1
549 3165 1
549 4748 1
550 114 1
550 164 1
550 299 1
550 336 1
550 1015 1
550 1299 1
550 2896 1
551 44 1
551 174 1
551 307 1
551 452 1
551 666 1
551 1547 1
551 1690 1
551 4102 1
552 2 1
552 316 1
552 347 1
552 446 1
552 2473 1
552 2791 1
552 3772 1
553 55 1
553 70 1
553 243 1
553 370 1
553 1440 1
553 1537 1
553 1627 1
553 1664 1
553 2128 1
553 2509 1
553 2911 1
553 3697 1
553 4185 1
553 4801 1
554 4 1
554 21 1
554 80 1
554 254 1
554 1083 1
554 1295 1
554 1312 1
554 2151 1
554 3350 1
554 4052 1
554 4160 1
555 17 1
555 235 1
555 400 1
555 491 1
555 616 1
555 1528 1
555 3280 1
555 3336 1
555 4636 1
556 1 1
556 83 1
556 349 1
556 545 1
556 1673 1
556 2916 1
556 3317 1
556 3778 1
556 4610 1
557 1 1
557 233 1
557 294 1
557 402 1
557 2409 1
558 17 1
558 43 1
558 203 1
558 316 1
558 639 1
558 1309 1
558 1361 1
558 3606 1
559 5 1
559 19 1
559 335 1
559 415 1
559 822 1
559 1214 1
559 1259 1
559 1267 1
559 1684 1
559 2658 1
559 2873 1
559 3027 1
559 3407 1
559 4827 1
559 4988 1
560 3 1
560 24 1
560 122 1
560 184 1
560 2671 1
560 4953 1
561 81 1
561 113 1
561 130 1
561 285 1
561 637 1
561 1143 1
561 1185 1
561 1495 1
561 1511 1
561 1608 1
561 1759 1
561 2192 1
561 2447 1
561 2549 1
561 2855 1
561 3048 1
562 66 1
562 85 1
562 171 1
562 245 1
562 579 1
562 875 1
562 1044 1
562 1587 1
562 1822 1
562 1881 1
562 1923 1
562 2175 1
562 2407 1
562 2408 1
562 2602 1
562 2752 1
562 3146 1
562 3198 1
562 3415 1
562 3676 1
562 4223 1
562 4321 1
563 3 1
563 24 1
563 81 1
563 548 1
563 688 1
563 1051 1
563 1389 1
563 1472 1
563 1629 1
563 1881 1
563 2142 1
563 2229 1
563 2559 1
563 2560 1
563 2772 1
563 3198 1
563 3347 1
563 3992 1
563 4742 1
563 4849 1
563 4989 1
564 9 1
564 21 1
564 137 1
564 153 1
564 711 1
564 789 1
564 1176 1
564 1337 1
564 1449 1
564 1805 1
564 1838 1
564 3390 1
564 4499 1
564 4750 1
565 19 1
565 99 1
565 146 1
565 256 1
565 1718 1
565 2859 1
566 38 1
566 188 1
566 260 1
566 305 1
566 1515 1
566 1568 1
566 1993 1
566 2080 1
566 2394 1
566 3073 1
566 3624 1
566 4257 1
567 3 1
567 50 1
567 105 1
567 378 1
567 684 1
567 963 1
567 1023 1
567 1536 1
567 1737 1
567 2075 1
567 3081 1
567 4960 1
568 11 1
568 25 1
568 58 1
568 324 1
568 2916 1
568 4645 1
569 1 1
569 52 1
569 385 1
569 446 1
569 719 1
569 1109 1
569 2834 1
569 3418 1
569 3482 1
569 4790 1
570 19 1
570 52 1
570 267 1
570 298 1
570 771 1
570 787 1
570 1639 1
570 1861 1
570 2922 1
570 2995 1
570 4615 1
571 3 1
571 9 1
571 17 1
571 20 1
571 961 1
571 1349 1
571 1791 1
571 2340 1
571 2632 1
571 3151 1
571 3662 1
571 3974 1
571 4500 1
572 173 1
572 298 1
572 339 1
572 506 1
572 888 1
572 931 1
572 1027 1
572 1109 1
572 1144 1
572 1416 1
572 1545 1
572 1971 1
572 1976 1
572 2405 1
572 2843 1
572 3019 1
572 3534 1
572 3880 1
572 4057 1
572 4374 1
573 47 1
573 114 1
573 155 1
573 298 1
573 982 1
573 4754 1
574 16 1
574 59 1
574 100 1
574 207 1
574 949 1
574 3597 1
574 4116 1
574 4568 1
575 325 1
575 424 1
575 452 1
575 466 1
575 762 1
575 3761 1
576 41 1
576 134 1
576 172 1
576 299 1
576 607 1
576 609 1
576 1748 1
576 3454 1
576 4347 1
576 4436 1
577 58 1
577 106 1
577 116 1
577 445 1
577 895 1
577 966 1
577 1237 1
577 1741 1
577 1778 1
577 2148 1
577 2291 1
577 2397 1
577 2679 1
577 3435 1
578 17 1
578 268 1
578 361 1
578 544 1
578 689 1
578 718 1
578 1104 1
578 1400 1
578 1697 1
578 1844 1
578 2353 1
578 2400 1
578 2653 1
578 2863 1
578 3967 1
578 4333 1
579 25 1
579 66 1
579 142 1
579 562 1
579 1268 1
579 3653 1
579 4297 1
579 4378 1
579 4551 1
580 6 1
580 41 1
580 49 1
580 371 1
580 726 1
580 1312 1
580 1435 1
580 1869 1
580 1934 1
580 2206 1
580 2638 1
580 2848 1
580 3467 1
580 3568 1
580 3777 1
580 4924 1
581 5 1
581 111 1
581 135 1
581 205 1
581 623 1
581 932 1
581 1011 1
581 1153 1
581 1160 1
581 1651 1
581 2295 1
581 2550 1
581 3034 1
581 4400 1
582 301 1
582 322 1
582 325 1
582 415 1
582 652 1
582 915 1
582 922 1
582 1895 1
582 2056 1
582 2106 1
582 2144 1
582 3379 1
582 3842 1
582 4029 1
582 4046 1
582 4123 1
582 4160 1
582 4311 1
582 4350 1
583 10 1
583 65 1
583 253 1
583 545 1
583 698 1
583 719 1
583 923 1
583 985 1
583 1298 1
583 1455 1
583 2574 1
583 3909 1
583 4713 1
584 17 1
584 49 1
584 143 1
584 406 1
584 639 1
584 4988 1
585 13 1
585 81 1
585 130 1
585 201 1
585 1234 1
585 2314 1
585 2337 1
586 10 1
586 58 1
586 73 1
586 396 1
586 590 1
586 618 1
586 647 1
586 699 1
586 2301 1
586 2850 1
586 3100 1
586 3554 1
586 3622 1
586 3986 1
586 4130 1
587 19 1
587 45 1
587 113 1
587 482 1
587 1188 1
588 1 1
588 12 1
588 73 1
588 348 1
588 816 1
588 911 1
588 946 1
588 1005 1
588 1921 1
588 1928 1
588 2041 1
588 2070 1
588 2264 1
588 2632 1
588 2949 1
588 3203 1
588 3822 1
588 4281 1
588 4449 1
588 4453 1
588 4702 1
589 4 1
589 5 1
589 127 1
589 518 1
589 880 1
589 1399 1
589 2644 1
589 2651 1
589 3764 1
590 1 1
590 11 1
590 36 1
590 586 1
590 1346 1
590 3055 1
590 4130 1
590 4910 1
591 3 1
591 18 1
591 287 1
591 454 1
591 837 1
591 1019 1
591 1151 1
591 1181 1
592 156 1
592 161 1
592 436 1
592 452 1
592 628 1
592 1169 1
592 2039 1
592 3092 1
592 3824 1
593 13 1
593 73 1
593 99 1
593 425 1
593 617 1
593 784 1
593 1083 1
593 1329 1
593 1756 1
593 2702 1
593 3451 1
593 4447 1
594 3 1
594 75 1
594 308 1
594 419 1
594 1583 1
594 2812 1
594 3363 1
595 54 1
595 292 1
595 447 1
595 519 1
595 835 1
595 994 1
595 1219 1
595 1401 1
595 1968 1
595 1984 1
595 2155 1
595 2778 1
595 4473 1
595 4812 1
595 4872 1
596 50 1
596 65 1
596 98 1
596 147 1
596 721 1
596 734 1
596 811 1
596 1240 1
596 1825 1
596 2687 1
596 2790 1
596 2950 1
596 3109 1
596 3818 1
596 3821 1
596 3890 1
596 4095 1
596 4264 1
597 25 1
597 245 1
597 267 1
597 275 1
597 621 1
597 700 1
597 853 1
597 1385 1
597 1531 1
597 1586 1
597 1773 1
597 2427 1
597 2599 1
597 2731 1
597 2873 1
597 3341 1
597 3672 1
597 4188 1
597 4385 1
597 4793 1
598 105 1
598 195 1
598 291 1
598 317 1
598 605 1
598 657 1
598 2274 1
599 2 1
599 5 1
599 7 1
599 482 1
599 3769 1
599 4901 1
600 74 1
600 107 1
600 245 1
600 445 1
600 1729 1
600 1956 1
600 3413 1
600 3512 1
600 4541 1
601 25 1
601 196 1
601 332 1
601 429 1
601 740 1
601 1870 1
601 1929 1
601 2073 1
601 2262 1
601 2440 1
601 3000 1
601 3196 1
601 3256 1
601 3528 1
601 3952 1
601 3969 1
601 4196 1
601 4490 1
601 4757 1
602 9 1
602 105 1
602 112 1
602 499 1
602 964 1
602 1638 1
602 1829 1
602 2002 1
602 2082 1
602 2726 1
602 2740 1
602 2893 1
602 3218 1
602 4694 1
602 4909 1
602 4982 1
603 9 1
603 26 1
603 102 1
603 221 1
603 1594 1
603 1602 1
603 1828 1
603 2188 1
603 2227 1
603 2398 1
603 2416 1
603 2454 1
603 3203 1
603 3227 1
603 4330 1
603 4981 1
604 2 1
604 36 1
604 69 1
604 515 1
604 3789 1
604 4934 1
605 105 1
605 307 1
605 457 1
605 598 1
605 615 1
605 794 1
605 1006 1
605 1359 1
605 1701 1
605 3487 1
605 4269 1
606 21 1
606 66 1
606 239 1
606 481 1
606 619 1
606 1154 1
606 1893 1
606 3788 1
606 4042 1
607 158 1
607 159 1
607 295 1
607 576 1
607 987 1
607 2864 1
607 3758 1
608 3 1
608 41 1
608 299 1
608 336 1
608 1373 1
608 3287 1
609 41 1
609 370 1
609 475 1
609 576 1
609 673 1
609 797 1
609 1069 1
609 1076 1
609 1170 1
609 1253 1
609 1748 1
609 1949 1
609 2162 1
609 2434 1
609 2552 1
609 2827 1
609 3454 1
609 4037 1
609 4062 1
609 4077 1
609 4182 1
609 4436 1
609 4747 1
609 4756 1
609 4815 1
610 251 1
610 263 1
610 445 1
610 462 1
610 634 1
610 759 1
610 1178 1
610 1719 1
610 1823 1
610 2595 1
610 3189 1
610 3756 1
610 3903 1
611 14 1
611 472 1
611 489 1
611 516 1
611 1197 1
611 1724 1
611 1852 1
611 1979 1
611 2163 1
611 3102 1
611 4141 1
611 4372 1
612 5 1
612 182 1
612 194 1
612 373 1
612 785 1
612 800 1
612 1038 1
612 1217 1
612 1681 1
612 2011 1
612 2190 1
612 3033 1
612 3228 1
612 3718 1
612 4537 1
613 290 1
613 296 1
613 377 1
613 475 1
613 626 1
613 1224 1
613 1489 1
613 1977 1
613 2136 1
613 2258 1
613 2322 1
613 2637 1
613 3066 1
613 3417 1
613 3707 1
613 4203 1
613 4870 1
614 22 1
614 125 1
614 197 1
614 323 1
614 846 1
614 2210 1
614 2566 1
614 2792 1
614 3106 1
614 3429 1
614 4175 1
615 76 1
615 105 1
615 366 1
615 605 1
615 700 1
615 1446 1
615 1682 1
615 1728 1
615 3694 1
615 4089 1
615 4395 1
615 4955 1
616 17 1
616 130 1
616 496 1
616 555 1
616 1195 1
616 1959 1
616 4636 1
617 13 1
617 139 1
617 425 1
617 593 1
617 784 1
617 1468 1
617 2358 1
617 2432 1
617 2635 1
617 2748 1
617 4076 1
617 4811 1
618 3 1
618 153 1
618 336 1
618 586 1
618 647 1
618 1407 1
618 1418 1
618 1676 1
618 1707 1
618 2189 1
618 2625 1
618 2840 1
618 3659 1
618 4295 1
618 4773 1
618 4814 1
619 3 1
619 177 1
619 416 1
619 606 1
619 691 1
619 701 1
619 796 1
619 1154 1
619 1456 1
619 1583 1
619 3564 1
619 4600 1
619 4996 1
620 17 1
620 75 1
620 223 1
620 481 1
620 729 1
620 819 1
620 1780 1
620 2724 1
620 2979 1
620 4767 1
621 158 1
621 275 1
621 447 1
621 597 1
621 806 1
621 829 1
621 868 1
621 881 1
621 1201 1
621 1481 1
621 1586 1
621 1626 1
621 4574 1
622 19 1
622 68 1
622 143 1
622 166 1
622 1546 1
622 2992 1
622 3667 1
623 29 1
623 362 1
623 411 1
623 581 1
623 663 1
623 713 1
623 1231 1
623 1317 1
623 4032 1
624 58 1
624 73 1
624 155 1
624 347 1
624 756 1
624 1220 1
624 1420 1
624 1561 1
624 2264 1
625 129 1
625 131 1
625 473 1
625 533 1
625 777 1
625 790 1
625 1189 1
625 1254 1
625 1311 1
625 1367 1
625 2535 1
625 2710 1
625 3056 1
625 3319 1
625 3872 1
625 3964 1
625 4112 1
625 4259 1
625 4409 1
625 4458 1
626 16 1
626 28 1
626 234 1
626 613 1
626 700 1
626 720 1
626 862 1
626 1567 1
626 1627 1
626 2322 1
626 3134 1
626 3707 1
627 1 1
627 25 1
627 101 1
627 441 1
627 830 1
627 925 1
627 1318 1
627 1807 1
627 2275 1
627 2512 1
627 3693 1
627 4339 1
627 4681 1
628 3 1
628 17 1
628 436 1
628 592 1
628 1086 1
628 2039 1
628 2047 1
628 2382 1
628 2581 1
628 2663 1
628 2985 1
628 3441 1
628 3886 1
628 4292 1
628 4533 1
628 4720 1
629 1 1
629 19 1
629 288 1
629 447 1
629 723 1
629 819 1
629 1361 1
629 1372 1
629 1510 1
629 1526 1
629 1913 1
629 2372 1
629 2674 1
629 2925 1
629 3338 1
629 4516 1
629 4676 1
629 4697 1
630 134 1
630 352 1
630 409 1
630 425 1
630 659 1
630 691 1
630 1093 1
631 2 1
631 325 1
631 353 1
631 373 1
631 867 1
631 1870 1
631 2404 1
631 3770 1
631 4540 1
632 129 1
632 147 1
632 169 1
632 171 1
632 2584 1
633 194 1
633 230 1
633 349 1
633 406 1
633 1405 1
633 1698 1
633 1892 1
633 2045 1
633 2468 1
633 2869 1
633 3792 1
633 3886 1
634 70 1
634 251 1
634 361 1
634 610 1
634 651 1
634 710 1
634 761 1
634 866 1
634 1178 1
634 1184 1
634 1203 1
634 1356 1
634 1389 1
634 1597 1
634 2104 1
634 2216 1
634 2543 1
634 3173 1
634 4127 1
634 4547 1
634 4906 1
635 3 1
635 5 1
635 80 1
635 127 1
635 739 1
635 2895 1
635 3542 1
635 3583 1
635 4201 1
636 1 1
636 18 1
636 77 1
636 228 1
636 749 1
636 2105 1
636 2177 1
636 2877 1
636 2990 1
636 3372 1
636 3646 1
636 4800 1
637 49 1
637 113 1
637 148 1
637 561 1
637 892 1
637 1110 1
637 1374 1
637 2751 1
637 2837 1
637 3141 1
637 4096 1
638 18 1
638 19 1
638 141 1
638 522 1
638 1192 1
638 1911 1
639 17 1
639 135 1
639 558 1
639 584 1
639 1637 1
639 1814 1
639 3274 1
640 5 1
640 17 1
640 65 1
640 176 1
640 978 1
640 1839 1
640 2455 1
640 4875 1
641 10 1
641 51 1
641 223 1
641 237 1
641 686 1
641 698 1
641 1044 1
641 1937 1
641 2197 1
641 2234 1
641 2519 1
641 3209 1
641 3620 1
641 4053 1
641 4383 1
642 3 1
642 70 1
642 338 1
642 437 1
642 2158 1
642 2399 1
642 3381 1
642 4294 1
643 49 1
643 102 1
643 150 1
643 283 1
644 1 1
644 7 1
644 90 1
644 252 1
644 816 1
644 921 1
644 956 1
644 1159 1
644 1250 1
644 1726 1
644 1804 1
644 1998 1
644 2020 1
644 2098 1
644 2161 1
644 2389 1
644 2576 1
644 2771 1
644 3914 1
644 4234 1
644 4296 1
645 92 1
645 219 1
645 298 1
645 537 1
645 646 1
645 728 1
645 2292 1
645 2310 1
645 2594 1
645 3290 1
646 2 1
646 10 1
646 405 1
646 645 1
646 1866 1
646 1982 1
646 2117 1
646 3741 1
646 3827 1
646 4036 1
646 4490 1
646 4618 1
647 10 1
647 396 1
647 586 1
647 618 1
647 699 1
647 788 1
647 2413 1
647 3933 1
647 4773 1
648 90 1
648 283 1
648 284 1
648 443 1
648 1494 1
648 1692 1
648 2428 1
648 3446 1
648 4126 1
648 4189 1
649 268 1
649 295 1
649 321 1
649 501 1
649 1098 1
649 1394 1
649 1470 1
649 3117 1
650 2 1
650 46 1
650 348 1
650 403 1
650 1080 1
650 1177 1
650 2311 1
650 2410 1
650 3609 1
650 3892 1
651 13 1
651 49 1
651 361 1
651 634 1
651 670 1
651 761 1
651 854 1
651 892 1
651 1203 1
651 2229 1
651 2537 1
651 3157 1
651 3678 1
651 4001 1
651 4487 1
652 34 1
652 212 1
652 393 1
652 582 1
652 915 1
652 954 1
652 1008 1
652 1241 1
652 1258 1
652 1308 1
652 1469 1
652 1593 1
652 2434 1
652 2571 1
652 2837 1
652 2884 1
652 3589 1
652 4123 1
652 4467 1
652 4743 1
652 4849 1
653 2 1
653 9 1
653 76 1
653 330 1
653 810 1
653 2126 1
653 2152 1
653 2604 1
653 2923 1
653 4312 1
653 4984 1
654 108 1
654 154 1
654 240 1
654 506 1
654 805 1
654 1245 1
654 1799 1
654 1874 1
654 2360 1
654 4052 1
655 44 1
655 63 1
655 82 1
655 456 1
655 724 1
655 729 1
655 1037 1
655 1320 1
655 1653 1
655 1838 1
655 2077 1
655 2366 1
655 2454 1
655 3062 1
655 3708 1
655 3980 1
656 20 1
656 152 1
656 182 1
656 522 1
656 677 1
656 877 1
656 1025 1
656 1751 1
656 3901 1
656 4370 1
657 1 1
657 234 1
657 240 1
657 598 1
657 4596 1
657 4817 1
657 4909 1
658 36 1
658 41 1
658 50 1
658 52 1
658 833 1
658 907 1
658 1044 1
658 1202 1
658 1411 1
658 1739 1
658 2134 1
658 2242 1
658 2522 1
658 2702 1
658 3397 1
658 3930 1
658 4831 1
659 47 1
659 409 1
659 483 1
659 630 1
659 711 1
659 1511 1
660 61 1
660 119 1
660 200 1
660 427 1
660 709 1
660 775 1
660 1243 1
660 1338 1
660 1487 1
660 1627 1
660 1701 1
660 2732 1
660 3667 1
660 3975 1
660 3980 1
660 4844 1
661 208 1
661 259 1
661 433 1
661 494 1
661 2232 1
662 10 1
662 250 1
662 261 1
662 268 1
662 1295 1
662 2174 1
662 2417 1
662 2524 1
662 2527 1
663 52 1
663 351 1
663 411 1
663 623 1
663 1486 1
663 4310 1
663 4835 1
664 12 1
664 26 1
664 185 1
664 405 1
664 1642 1
664 2070 1
664 2308 1
664 2901 1
664 3108 1
664 4514 1
665 11 1
665 19 1
665 211 1
665 381 1
665 864 1
665 1390 1
665 1579 1
665 1917 1
665 2215 1
665 4910 1
666 8 1
666 205 1
666 535 1
666 551 1
666 832 1
666 911 1
666 1482 1
666 1810 1
666 1926 1
666 2272 1
666 2834 1
666 4102 1
666 4463 1
666 4474 1
666 4585 1
667 5 1
667 66 1
667 149 1
667 366 1
667 696 1
667 743 1
667 799 1
667 1138 1
667 1280 1
667 1806 1
667 2254 1
667 2273 1
667 2468 1
667 3922 1
667 4203 1
668 95 1
668 214 1
668 387 1
668 497 1
668 1863 1
668 4113 1
669 16 1
669 71 1
669 85 1
669 298 1
669 1854 1
669 2218 1
669 2357 1
669 2427 1
669 2860 1
669 2999 1
669 3862 1
670 217 1
670 242 1
670 461 1
670 651 1
670 1888 1
670 1970 1
670 2536 1
670 2572 1
670 2916 1
670 3362 1
671 10 1
671 27 1
671 250 1
671 294 1
671 843 1
671 1380 1
671 1999 1
671 2681 1
671 2871 1
671 3200 1
671 3331 1
671 4169 1
672 108 1
672 259 1
672 292 1
672 302 1
672 933 1
672 958 1
672 4059 1
673 19 1
673 308 1
673 370 1
673 609 1
673 1069 1
673 1135 1
673 1253 1
673 2318 1
673 2370 1
673 2434 1
673 2552 1
673 2868 1
673 3514 1
673 4241 1
674 19 1
674 45 1
674 137 1
674 170 1
674 680 1
674 789 1
674 831 1
674 997 1
674 1678 1
674 2067 1
674 2154 1
674 2475 1
674 2638 1
674 2814 1
674 3407 1
674 3430 1
674 4507 1
674 4579 1
674 4655 1
675 1 1
675 135 1
675 140 1
675 437 1
675 771 1
675 870 1
675 1634 1
675 1714 1
675 2001 1
675 2049 1
675 4503 1
675 4914 1
676 3 1
676 25 1
676 107 1
676 314 1
676 692 1
676 727 1
676 951 1
676 1096 1
676 1537 1
676 1757 1
676 1809 1
676 2306 1
676 2790 1
676 2799 1
676 2817 1
676 3373 1
676 3900 1
676 4185 1
677 41 1
677 49 1
677 74 1
677 656 1
677 1025 1
677 1548 1
677 2395 1
677 3244 1
678 71 1
678 149 1
678 242 1
678 386 1
678 1020 1
678 3622 1
679 3 1
679 50 1
679 151 1
679 498 1
679 705 1
679 1512 1
679 2285 1
680 2 1
680 179 1
680 306 1
680 674 1
680 730 1
680 736 1
680 900 1
680 1418 1
680 1550 1
680 2090 1
680 2321 1
680 2501 1
680 3139 1
681 1 1
681 5 1
681 107 1
681 363 1
681 758 1
681 800 1
681 971 1
681 1442 1
681 1529 1
681 1723 1
681 1774 1
681 2027 1
681 2355 1
681 2865 1
681 3261 1
681 3289 1
681 3296 1
681 4145 1
681 4200 1
681 4329 1
681 4413 1
681 4872 1
682 5 1
682 11 1
682 19 1
682 133 1
682 758 1
682 910 1
682 1367 1
682 2166 1
683 26 1
683 272 1
683 343 1
683 353 1
683 1194 1
683 2022 1
683 2644 1
683 2868 1
683 2967 1
683 3075 1
683 3791 1
683 3856 1
683 4457 1
684 17 1
684 47 1
684 105 1
684 567 1
684 780 1
684 1163 1
684 1760 1
684 2161 1
684 2346 1
684 2618 1
684 2930 1
684 2984 1
684 3277 1
684 3470 1
684 4381 1
685 3 1
685 29 1
685 254 1
685 475 1
685 1310 1
685 2224 1
685 2334 1
685 2629 1
685 2683 1
685 2765 1
685 3653 1
685 3689 1
685 4140 1
686 11 1
686 228 1
686 314 1
686 641 1
686 1083 1
686 1646 1
686 1937 1
686 3192 1
687 10 1
687 11 1
687 59 1
687 499 1
687 1242 1
687 3234 1
687 3486 1
687 3709 1
687 4015 1
688 3 1
688 263 1
688 491 1
688 563 1
688 952 1
688 987 1
688 1019 1
688 1141 1
688 1149 1
688 1357 1
688 2874 1
688 3643 1
688 4807 1
689 17 1
689 19 1
689 106 1
689 578 1
689 718 1
689 962 1
689 1056 1
689 1077 1
689 1080 1
689 2115 1
689 3435 1
689 3658 1
689 4375 1
690 38 1
690 140 1
690 191 1
690 538 1
690 692 1
690 757 1
690 801 1
690 857 1
690 944 1
690 1073 1
690 1326 1
690 2047 1
690 2212 1
690 2337 1
690 2476 1
690 2485 1
690 3302 1
690 3456 1
690 3901 1
690 4820 1
691 374 1
691 487 1
691 619 1
691 630 1
691 1647 1
691 2617 1
691 3586 1
692 3 1
692 5 1
692 676 1
692 690 1
692 1809 1
692 2622 1
693 2 1
693 5 1
693 164 1
693 315 1
693 2924 1
693 3008 1
693 3187 1
693 4348 1
694 10 1
694 83 1
694 105 1
694 114 1
694 1146 1
694 1737 1
694 2002 1
694 2607 1
694 3145 1
694 3517 1
695 52 1
695 99 1
695 132 1
695 419 1
696 29 1
696 36 1
696 40 1
696 667 1
696 4061 1
697 303 1
697 429 1
697 518 1
697 535 1
697 807 1
697 862 1
697 1804 1
697 2106 1
697 3523 1
697 4296 1
698 10 1
698 386 1
698 583 1
698 641 1
698 740 1
698 885 1
698 951 1
698 985 1
698 1214 1
698 1391 1
698 1485 1
698 1779 1
698 3148 1
698 4623 1
698 4711 1
699 51 1
699 88 1
699 586 1
699 647 1
699 788 1
699 4097 1
700 26 1
700 597 1
700 615 1
700 626 1
700 862 1
700 1273 1
700 1567 1
700 2103 1
700 2171 1
700 2191 1
700 4362 1
700 4878 1
701 69 1
701 228 1
701 356 1
701 619 1
701 759 1
701 766 1
701 795 1
701 1060 1
701 1373 1
701 1706 1
701 2034 1
701 2859 1
701 2909 1
701 3697 1
701 4882 1
702 65 1
702 106 1
702 169 1
702 342 1
702 1741 1
702 1767 1
702 2751 1
702 4656 1
703 10 1
703 83 1
703 499 1
703 511 1
703 1317 1
703 1777 1
703 2508 1
703 2695 1
703 2785 1
703 3968 1
703 4114 1
703 4608 1
704 21 1
704 49 1
704 57 1
704 227 1
704 2196 1
705 253 1
705 441 1
705 472 1
705 679 1
705 848 1
705 1047 1
705 1327 1
705 1379 1
705 1410 1
705 2285 1
705 3392 1
706 11 1
706 283 1
706 286 1
706 404 1
706 884 1
706 1504 1
706 1859 1
706 1896 1
706 1904 1
706 2302 1
706 3100 1
706 3166 1
706 3474 1
706 3717 1
706 4301 1
706 4775 1
706 4861 1
707 5 1
707 34 1
707 298 1
707 429 1
707 773 1
707 941 1
707 1526 1
707 2813 1
707 2918 1
707 2926 1
707 3351 1
707 3527 1
707 4545 1
707 4780 1
708 81 1
708 110 1
708 123 1
708 131 1
708 1666 1
708 1928 1
708 1953 1
708 2918 1
708 2945 1
708 3631 1
708 4282 1
708 4836 1
709 9 1
709 119 1
709 418 1
709 660 1
709 719 1
709 1068 1
710 19 1
710 29 1
710 138 1
710 634 1
710 1917 1
710 2000 1
710 2216 1
710 2443 1
710 2485 1
710 3412 1
710 4649 1
711 199 1
711 370 1
711 564 1
711 659 1
711 3336 1
711 4877 1
712 197 1
712 241 1
712 417 1
712 487 1
712 1143 1
712 2655 1
712 2835 1
713 132 1
713 269 1
713 396 1
713 623 1
713 1317 1
714 186 1
714 212 1
714 267 1
714 358 1
714 1321 1
714 2079 1
714 2806 1
714 3571 1
714 4739 1
715 11 1
715 266 1
715 394 1
715 479 1
715 843 1
715 1413 1
715 1833 1
715 2122 1
715 2165 1
715 3152 1
715 5000 1
716 5 1
716 92 1
716 413 1
716 415 1
716 1761 1
716 3473 1
717 30 1
717 55 1
717 314 1
717 506 1
717 1940 1
717 2199 1
717 3469 1
718 17 1
718 250 1
718 578 1
718 689 1
718 2363 1
719 324 1
719 569 1
719 583 1
719 709 1
719 803 1
719 861 1
719 3482 1
720 2 1
720 20 1
720 28 1
720 626 1
720 1110 1
720 3872 1
721 75 1
721 97 1
721 120 1
721 596 1
721 1126 1
721 1205 1
721 1435 1
721 2257 1
721 2260 1
721 3013 1
721 3639 1
722 2 1
722 51 1
722 114 1
722 158 1
722 1030 1
722 1147 1
722 1666 1
722 1733 1
722 1958 1
722 1971 1
722 2333 1
722 2781 1
722 2900 1
722 3211 1
722 4168 1
723 2 1
723 19 1
723 42 1
723 629 1
723 1259 1
723 1977 1
723 2579 1
723 2613 1
723 4516 1
724 33 1
724 169 1
724 456 1
724 655 1
724 1653 1
724 2203 1
724 2239 1
724 2815 1
724 2942 1
724 3094 1
724 3245 1
724 4459 1
725 3 1
725 45 1
725 229 1
725 374 1
725 1204 1
725 1909 1
725 3335 1
725 4807 1
726 65 1
726 177 1
726 494 1
726 580 1
726 903 1
727 5 1
727 75 1
727 163 1
727 676 1
727 977 1
727 1077 1
727 1160 1
727 1494 1
727 2609 1
727 3353 1
727 3428 1
728 29 1
728 215 1
728 323 1
728 645 1
728 1848 1
728 3290 1
729 21 1
729 152 1
729 620 1
729 655 1
729 852 1
729 1066 1
729 1171 1
729 1213 1
729 1266 1
729 1441 1
729 1936 1
729 1966 1
729 2424 1
729 2796 1
729 3062 1
729 3361 1
729 4478 1
729 4536 1
729 4717 1
729 4751 1
730 81 1
730 306 1
730 397 1
730 680 1
731 3 1
731 108 1
731 264 1
731 384 1
731 864 1
731 879 1
731 930 1
731 1190 1
731 1574 1
731 2271 1
731 4131 1
731 4784 1
732 84 1
732 161 1
732 306 1
732 426 1
732 1117 1
732 1145 1
732 1578 1
732 2439 1
732 2694 1
732 2977 1
732 3036 1
732 3251 1
732 3664 1
732 3720 1
732 3781 1
732 3944 1
732 4090 1
733 244 1
733 340 1
733 361 1
733 470 1
733 953 1
733 1157 1
733 1464 1
733 4338 1
733 4414 1
734 91 1
734 131 1
734 476 1
734 596 1
734 1324 1
734 2428 1
734 3821 1
735 57 1
735 70 1
735 101 1
735 116 1
735 948 1
735 2076 1
736 2 1
736 72 1
736 141 1
736 680 1
736 1244 1
736 1320 1
737 19 1
737 154 1
737 221 1
737 291 1
737 1502 1
737 1957 1
737 2140 1
737 2225 1
737 2328 1
737 2372 1
737 3234 1
737 4055 1
737 4187 1
737 4301 1
738 16 1
738 78 1
738 298 1
738 419 1
738 741 1
738 806 1
738 818 1
738 1026 1
738 1201 1
738 1546 1
738 1695 1
738 2359 1
738 2557 1
738 2605 1
738 2817 1
738 2948 1
738 3032 1
738 3055 1
738 3103 1
738 3827 1
738 3870 1
738 4307 1
738 4879 1
738 4989 1
739 13 1
739 91 1
739 331 1
739 635 1
739 1129 1
739 2590 1
739 2895 1
739 3746 1
739 3799 1
740 196 1
740 332 1
740 601 1
740 698 1
740 815 1
740 1003 1
740 2210 1
740 3148 1
740 3715 1
740 4045 1
740 4151 1
740 4839 1
741 19 1
741 50 1
741 66 1
741 738 1
741 1313 1
741 3301 1
741 4433 1
742 28 1
742 50 1
742 171 1
742 270 1
742 969 1
742 1033 1
742 3405 1
742 3656 1
743 42 1
743 392 1
743 394 1
743 667 1
743 1280 1
743 1724 1
743 2510 1
743 3804 1
743 4121 1
743 4404 1
744 1 1
744 57 1
744 205 1
744 215 1
745 150 1
745 190 1
745 296 1
745 304 1
745 999 1
745 1302 1
745 1463 1
745 1539 1
745 2114 1
745 2345 1
745 2716 1
745 3104 1
745 3328 1
745 4000 1
746 3 1
746 8 1
746 52 1
746 234 1
746 768 1
746 889 1
746 1262 1
746 3164 1
746 3533 1
746 4052 1
747 31 1
747 66 1
747 283 1
747 481 1
747 1284 1
747 1530 1
747 1753 1
747 1809 1
747 1898 1
747 2927 1
747 3442 1
747 4464 1
747 4579 1
748 28 1
748 108 1
748 255 1
748 517 1
748 2476 1
748 3539 1
748 4640 1
749 20 1
749 59 1
749 433 1
749 636 1
749 817 1
749 1172 1
749 1507 1
749 1610 1
749 1791 1
749 2296 1
749 2881 1
749 3287 1
750 35 1
750 42 1
750 440 1
750 452 1
750 4976 1
751 45 1
751 65 1
751 251 1
751 419 1
751 1205 1
751 1363 1
751 3218 1
751 3589 1
752 49 1
752 75 1
752 462 1
752 465 1
752 892 1
752 2176 1
752 2182 1
753 3 1
753 5 1
753 73 1
753 98 1
753 830 1
753 1515 1
753 1651 1
753 2195 1
753 2616 1
753 4005 1
753 4138 1
753 4285 1
753 4452 1
753 4966 1
754 12 1
754 17 1
754 33 1
754 544 1
754 1008 1
754 1122 1
754 1131 1
754 3857 1
754 4506 1
755 85 1
755 168 1
755 286 1
755 410 1
755 838 1
755 2017 1
755 2488 1
755 2841 1
755 2946 1
755 3183 1
755 4163 1
756 174 1
756 312 1
756 419 1
756 624 1
756 1420 1
756 3220 1
756 3751 1
757 16 1
757 59 1
757 199 1
757 690 1
757 3085 1
757 3234 1
758 133 1
758 221 1
758 681 1
758 682 1
758 930 1
758 1475 1
758 2865 1
758 2910 1
758 4408 1
758 4544 1
759 273 1
759 445 1
759 610 1
759 701 1
759 1334 1
759 1706 1
759 1807 1
759 4060 1
759 4274 1
760 19 1
760 268 1
760 285 1
760 357 1
760 1094 1
760 1098 1
760 1523 1
760 3118 1
761 49 1
761 410 1
761 634 1
761 651 1
761 929 1
761 1207 1
761 1425 1
761 2626 1
761 3121 1
761 3283 1
761 3902 1
761 3977 1
761 4131 1
761 4321 1
761 4428 1
761 4888 1
761 4960 1
762 209 1
762 399 1
762 466 1
762 575 1
762 1127 1
762 1413 1
762 3761 1
762 4965 1
763 10 1
763 128 1
763 170 1
763 308 1
763 1360 1
763 1944 1
763 2429 1
763 3071 1
763 3212 1
763 3465 1
763 3894 1
763 4235 1
764 12 1
764 283 1
764 293 1
764 361 1
764 871 1
764 1591 1
764 2491 1
764 2798 1
764 4381 1
764 4816 1
765 13 1
765 57 1
765 180 1
765 407 1
765 865 1
765 889 1
765 1092 1
765 1100 1
765 1301 1
765 1503 1
765 2062 1
765 2123 1
765 2380 1
765 3170 1
765 4580 1
766 131 1
766 188 1
766 251 1
766 701 1
766 795 1
766 1744 1
766 1906 1
767 44 1
767 155 1
767 298 1
767 430 1
767 896 1
767 898 1
767 2377 1
768 3 1
768 35 1
768 498 1
768 746 1
768 1274 1
768 2388 1
768 2506 1
768 3533 1
768 4520 1
769 41 1
769 113 1
769 122 1
769 185 1
769 905 1
769 1128 1
769 1457 1
769 2048 1
769 2449 1
769 2690 1
769 3249 1
769 3607 1
769 3880 1
769 4184 1
769 4842 1
770 12 1
770 19 1
770 121 1
770 411 1
770 787 1
770 813 1
770 1276 1
770 1282 1
770 1331 1
770 1670 1
770 1696 1
770 2102 1
770 2612 1
770 2682 1
770 3443 1
770 3795 1
770 3965 1
770 4567 1
770 4913 1
771 160 1
771 466 1
771 570 1
771 675 1
771 976 1
771 1249 1
771 1281 1
771 2119 1
771 2991 1
771 2995 1
771 3123 1
771 3171 1
771 3499 1
771 3626 1
771 3628 1
771 3666 1
771 4495 1
772 4 1
772 10 1
772 22 1
772 411 1
772 1078 1
772 1970 1
772 3129 1
773 283 1
773 429 1
773 443 1
773 707 1
773 786 1
773 1017 1
773 1526 1
773 1685 1
773 1858 1
773 2021 1
773 2065 1
773 2174 1
773 2755 1
773 2986 1
773 3521 1
773 4067 1
774 17 1
774 51 1
774 60 1
774 314 1
774 775 1
774 1478 1
774 1958 1
774 1975 1
774 2089 1
774 2307 1
774 2388 1
775 102 1
775 427 1
775 660 1
775 774 1
775 932 1
775 2829 1
775 4456 1
776 169 1
776 180 1
776 337 1
776 515 1
776 778 1
776 1423 1
776 1840 1
776 1993 1
776 3624 1
777 131 1
777 237 1
777 531 1
777 625 1
777 2111 1
778 13 1
778 169 1
778 295 1
778 776 1
778 1013 1
778 1238 1
778 1599 1
778 2584 1
778 2945 1
778 3411 1
778 4455 1
778 4620 1
779 26 1
779 172 1
779 338 1
779 371 1
779 888 1
779 1277 1
779 1637 1
779 2317 1
779 2338 1
779 2517 1
779 2645 1
779 2733 1
779 3561 1
779 3574 1
779 3864 1
779 4217 1
779 4395 1
779 4995 1
780 91 1
780 105 1
780 332 1
780 684 1
780 1444 1
780 1484 1
780 1972 1
780 1999 1
780 2401 1
780 3286 1
780 3705 1
780 4004 1
780 4954 1
781 81 1
781 166 1
781 179 1
781 385 1
781 846 1
781 1355 1
781 1376 1
781 1997 1
781 2006 1
781 2430 1
781 2687 1
781 2708 1
781 4288 1
782 13 1
782 33 1
782 209 1
782 239 1
782 3426 1
782 4735 1
783 92 1
783 157 1
783 176 1
783 308 1
784 70 1
784 211 1
784 593 1
784 617 1
784 1468 1
784 2747 1
784 2948 1
784 3110 1
784 3803 1
784 4970 1
785 25 1
785 75 1
785 373 1
785 612 1
785 1082 1
785 1162 1
785 1187 1
785 1297 1
785 2053 1
785 2483 1
785 2631 1
785 2698 1
785 2798 1
785 2826 1
785 2930 1
785 3619 1
785 3960 1
785 3990 1
785 4421 1
785 4496 1
785 4537 1
786 100 1
786 290 1
786 465 1
786 773 1
786 826 1
786 1017 1
786 1089 1
786 1335 1
786 1439 1
786 1858 1
786 2073 1
786 2337 1
786 3482 1
786 3521 1
787 19 1
787 171 1
787 570 1
787 770 1
787 1650 1
787 2102 1
787 2359 1
787 3366 1
787 3463 1
787 3613 1
787 3998 1
787 4592 1
787 4754 1
787 4913 1
788 105 1
788 195 1
788 647 1
788 699 1
788 1818 1
788 2056 1
788 2413 1
788 2899 1
788 3185 1
788 4097 1
789 9 1
789 525 1
789 564 1
789 674 1
789 997 1
789 2116 1
789 2428 1
789 3153 1
790 1 1
790 129 1
790 175 1
790 625 1
790 1856 1
790 2296 1
790 2640 1
790 3578 1
791 13 1
791 91 1
791 92 1
791 266 1
791 1947 1
791 2715 1
792 193 1
792 293 1
792 374 1
792 395 1
792 2892 1
793 65 1
793 130 1
793 321 1
793 468 1
793 1018 1
793 1351 1
793 1491 1
793 1967 1
793 2189 1
793 2313 1
793 2518 1
793 2814 1
793 4611 1
794 91 1
794 307 1
794 354 1
794 605 1
794 814 1
794 1359 1
794 3153 1
794 3950 1
795 13 1
795 137 1
795 701 1
795 766 1
795 971 1
795 1088 1
795 1125 1
795 1287 1
795 1886 1
795 3513 1
796 365 1
796 420 1
796 438 1
796 619 1
796 1062 1
796 2212 1
796 3662 1
796 4102 1
796 4895 1
797 41 1
797 58 1
797 500 1
797 609 1
797 886 1
797 2561 1
797 4062 1
797 4064 1
798 11 1
798 41 1
798 58 1
798 194 1
798 926 1
798 961 1
798 963 1
798 1124 1
798 1196 1
798 1606 1
798 2371 1
798 2784 1
798 3050 1
798 3394 1
798 3634 1
798 3965 1
799 37 1
799 40 1
799 164 1
799 667 1
799 1042 1
799 3648 1
799 4443 1
800 5 1
800 387 1
800 612 1
800 681 1
800 1442 1
800 1723 1
800 1781 1
800 2355 1
800 3033 1
800 4902 1
801 76 1
801 206 1
801 441 1
801 690 1
801 852 1
801 904 1
801 944 1
801 1073 1
801 1257 1
801 1327 1
801 1556 1
801 2165 1
801 2229 1
801 2377 1
801 2635 1
801 2805 1
801 2840 1
801 2965 1
801 3025 1
801 3049 1
801 3864 1
801 4271 1
801 4853 1
802 49 1
802 92 1
802 214 1
802 227 1
802 1102 1
802 1180 1
802 2418 1
802 2472 1
802 3709 1
802 4774 1
803 8 1
803 132 1
803 212 1
803 719 1
803 861 1
803 996 1
803 1287 1
803 1455 1
803 1819 1
803 2461 1
803 2801 1
803 3356 1
803 4268 1
804 102 1
804 172 1
804 289 1
804 316 1
804 932 1
804 1117 1
804 1731 1
804 1738 1
804 1870 1
804 1912 1
804 1930 1
804 2065 1
804 2816 1
804 3829 1
805 3 1
805 108 1
805 414 1
805 654 1
805 936 1
805 1021 1
805 1656 1
805 2686 1
805 3597 1
805 4044 1
805 4937 1
806 158 1
806 298 1
806 621 1
806 738 1
806 1026 1
806 1862 1
806 3870 1
806 4228 1
807 52 1
807 235 1
807 518 1
807 697 1
807 1055 1
807 1311 1
807 1500 1
807 1978 1
807 3342 1
807 4323 1
808 35 1
808 154 1
808 188 1
808 494 1
808 1695 1
808 1978 1
808 1994 1
808 4758 1
808 4768 1
809 147 1
809 241 1
809 449 1
809 476 1
810 1 1
810 10 1
810 192 1
810 653 1
810 2126 1
810 2162 1
810 2463 1
810 2573 1
810 3667 1
810 4312 1
810 4506 1
810 4917 1
811 437 1
811 448 1
811 501 1
811 596 1
811 1689 1
811 1734 1
811 2344 1
811 2366 1
811 2950 1
811 3548 1
811 3876 1
811 4054 1
812 24 1
812 42 1
812 193 1
812 544 1
812 872 1
812 939 1
812 2174 1
812 2383 1
812 2601 1
812 3617 1
812 3926 1
812 4412 1
812 4480 1
812 4810 1
813 19 1
813 26 1
813 181 1
813 770 1
813 1401 1
813 2936 1
813 2960 1
814 99 1
814 137 1
814 307 1
814 794 1
814 924 1
814 1039 1
814 1156 1
814 1459 1
814 1565 1
814 1617 1
814 1949 1
814 2003 1
814 2050 1
814 2866 1
815 162 1
815 423 1
815 465 1
815 740 1
815 1406 1
815 1774 1
815 1883 1
816 13 1
816 26 1
816 588 1
816 644 1
816 1005 1
817 10 1
817 154 1
817 211 1
817 749 1
817 1172 1
817 1173 1
817 1273 1
817 1507 1
817 1585 1
817 1610 1
817 1677 1
817 1848 1
817 1879 1
817 2097 1
817 2103 1
817 2146 1
817 2296 1
817 3330 1
817 3616 1
817 3811 1
817 4086 1
817 4147 1
817 4304 1
817 4505 1
817 4684 1
817 4700 1
817 4765 1
818 3 1
818 92 1
818 298 1
818 738 1
818 1661 1
818 1854 1
818 2754 1
818 2922 1
818 3015 1
818 3540 1
818 3931 1
818 4426 1
818 4489 1
818 4867 1
819 130 1
819 481 1
819 620 1
819 629 1
819 1780 1
819 2724 1
819 4665 1
820 79 1
820 85 1
820 239 1
820 383 1
820 2435 1
821 9 1
821 13 1
821 17 1
821 462 1
821 1943 1
821 2268 1
821 2674 1
822 30 1
822 41 1
822 149 1
822 559 1
822 1130 1
822 1214 1
823 1 1
823 27 1
823 37 1
823 260 1
823 1784 1
823 1973 1
823 2194 1
823 2547 1
823 2775 1
823 3601 1
824 2 1
824 8 1
824 91 1
824 404 1
824 874 1
824 1225 1
824 2026 1
824 3915 1
825 2 1
825 3 1
825 17 1
825 28 1
825 1000 1
825 1466 1
825 1948 1
825 2147 1
825 2548 1
825 2592 1
825 2742 1
825 3037 1
825 3052 1
826 5 1
826 269 1
826 465 1
826 786 1
826 891 1
826 2823 1
826 3039 1
826 4246 1
827 2 1
827 19 1
827 41 1
827 357 1
827 3398 1
828 132 1
828 224 1
828 267 1
828 409 1
828 2138 1
828 3710 1
828 4077 1
828 4371 1
828 4590 1
829 26 1
829 292 1
829 327 1
829 621 1
829 868 1
829 1043 1
829 1817 1
829 2361 1
829 2439 1
829 4723 1
830 73 1
830 132 1
830 627 1
830 753 1
830 925 1
830 969 1
830 1276 1
830 1629 1
830 1688 1
830 1838 1
830 2143 1
830 2330 1
830 2438 1
830 2493 1
830 2739 1
830 2959 1
830 3077 1
830 4144 1
830 4831 1
831 12 1
831 105 1
831 137 1
831 674 1
831 1063 1
831 1678 1
831 1993 1
831 2652 1
831 2957 1
831 3531 1
831 3719 1
832 29 1
832 141 1
832 330 1
832 666 1
833 10 1
833 41 1
833 403 1
833 658 1
833 1270 1
833 1813 1
833 2522 1
833 3076 1
833 3397 1
833 3455 1
833 3616 1
833 3649 1
834 30 1
834 345 1
834 457 1
834 478 1
834 1739 1
834 2242 1
834 2346 1
834 2782 1
834 2973 1
834 3421 1
834 3775 1
834 4654 1
835 42 1
835 131 1
835 292 1
835 595 1
835 993 1
835 2525 1
835 2634 1
835 4980 1
836 19 1
836 194 1
836 392 1
836 397 1
836 936 1
836 1113 1
836 2098 1
836 2191 1
836 2281 1
836 2787 1
836 2846 1
836 3161 1
836 3403 1
836 3891 1
836 4239 1
837 3 1
837 193 1
837 259 1
837 591 1
837 926 1
837 1385 1
837 1763 1
837 4838 1
838 168 1
838 186 1
838 363 1
838 755 1
838 4418 1
838 4939 1
839 85 1
839 177 1
839 196 1
839 217 1
839 901 1
839 1221 1
839 1333 1
839 1456 1
839 1886 1
839 2078 1
839 2952 1
839 3273 1
839 3917 1
839 4341 1
840 19 1
840 38 1
840 188 1
840 542 1
841 14 1
841 49 1
841 172 1
841 237 1
841 1003 1
841 1358 1
841 1382 1
841 1890 1
841 2146 1
841 2220 1
841 2685 1
841 2816 1
841 2827 1
841 3191 1
841 3225 1
841 3405 1
841 4318 1
841 4790 1
842 40 1
842 66 1
842 295 1
842 501 1
842 2136 1
842 3454 1
842 4663 1
843 229 1
843 394 1
843 671 1
843 715 1
843 3331 1
844 12 1
844 36 1
844 102 1
844 229 1
844 983 1
844 4040 1
844 4215 1
844 4439 1
845 69 1
845 101 1
845 170 1
845 495 1
845 1588 1
845 1667 1
845 2985 1
845 4248 1
846 197 1
846 488 1
846 614 1
846 781 1
846 924 1
846 995 1
846 1747 1
846 3063 1
847 86 1
847 101 1
847 175 1
847 177 1
847 1369 1
847 1552 1
847 1649 1
847 1768 1
847 3188 1
847 3355 1
847 3809 1
847 4629 1
848 2 1
848 426 1
848 542 1
848 705 1
848 1287 1
848 2267 1
849 18 1
849 349 1
849 353 1
849 490 1
849 1185 1
849 1303 1
849 1419 1
849 1534 1
849 1656 1
849 1673 1
849 4086 1
850 5 1
850 58 1
850 160 1
850 177 1
850 1410 1
850 1878 1
850 1965 1
850 2160 1
850 2196 1
850 2984 1
850 3088 1
850 3550 1
850 3714 1
850 4450 1
850 4891 1
851 1 1
851 299 1
851 366 1
851 481 1
851 1906 1
852 58 1
852 356 1
852 729 1
852 801 1
852 917 1
852 944 1
852 1075 1
852 1108 1
852 1171 1
852 1917 1
852 2061 1
852 2644 1
852 2898 1
852 3684 1
852 4873 1
853 397 1
853 400 1
853 544 1
853 597 1
853 1025 1
853 1586 1
853 2493 1
853 2959 1
853 3067 1
853 3332 1
854 2 1
854 11 1
854 359 1
854 651 1
854 1972 1
854 3185 1
855 9 1
855 40 1
855 90 1
855 515 1
855 1914 1
856 1 1
856 90 1
856 116 1
856 164 1
856 1342 1
856 1387 1
856 1393 1
856 1451 1
856 2127 1
856 2316 1
856 2577 1
856 4053 1
857 14 1
857 15 1
857 268 1
857 690 1
857 1079 1
857 1426 1
857 1971 1
857 1980 1
857 3677 1
857 3824 1
857 4499 1
858 2 1
858 45 1
858 172 1
858 338 1
858 1572 1
858 2114 1
859 1 1
859 137 1
859 147 1
859 283 1
859 1986 1
859 3494 1
859 4277 1
860 132 1
860 147 1
860 211 1
860 282 1
860 2663 1
860 4805 1
861 21 1
861 158 1
861 719 1
861 803 1
861 1139 1
861 1935 1
861 2347 1
861 4461 1
861 4565 1
861 4673 1
862 28 1
862 626 1
862 697 1
862 700 1
862 2321 1
862 3079 1
862 4948 1
863 122 1
863 360 1
863 531 1
863 537 1
863 974 1
863 1298 1
863 2008 1
863 2088 1
863 2399 1
863 3943 1
864 253 1
864 381 1
864 665 1
864 731 1
864 895 1
864 1022 1
864 2378 1
864 4784 1
865 180 1
865 407 1
865 452 1
865 765 1
865 1301 1
865 1474 1
866 3 1
866 17 1
866 49 1
866 634 1
866 2123 1
866 2498 1
866 3272 1
866 3800 1
866 3826 1
867 16 1
867 21 1
867 240 1
867 631 1
867 2269 1
867 3843 1
868 25 1
868 53 1
868 621 1
868 829 1
868 1454 1
868 3447 1
869 21 1
869 132 1
869 202 1
869 242 1
869 988 1
869 1599 1
869 1770 1
869 1877 1
869 2114 1
869 3646 1
869 3686 1
870 286 1
870 318 1
870 347 1
870 675 1
870 879 1
870 1532 1
870 3126 1
870 3433 1
870 4665 1
870 4914 1
871 227 1
871 283 1
871 293 1
871 764 1
871 3445 1
872 52 1
872 68 1
872 476 1
872 812 1
872 3504 1
872 3795 1
872 3871 1
872 3926 1
873 2 1
873 73 1
873 98 1
873 355 1
873 2554 1
873 2730 1
873 4305 1
874 12 1
874 361 1
874 404 1
874 824 1
874 1005 1
874 1028 1
874 1187 1
874 1225 1
874 1414 1
874 1492 1
874 1623 1
874 2021 1
874 2026 1
874 2170 1
874 2444 1
874 2649 1
874 2704 1
874 3043 1
874 3123 1
874 3181 1
874 3287 1
874 3446 1
874 3936 1
874 4127 1
874 4819 1
874 4911 1
874 4987 1
875 9 1
875 23 1
875 247 1
875 562 1
875 998 1
875 1016 1
875 1087 1
875 1119 1
875 1353 1
875 1368 1
875 1491 1
875 1680 1
875 1691 1
875 1822 1
875 2066 1
875 2332 1
875 2406 1
875 3075 1
875 3313 1
875 3508 1
875 4272 1
875 4300 1
875 4550 1
876 5 1
876 238 1
876 362 1
876 548 1
876 1352 1
876 1601 1
876 1924 1
876 2720 1
876 4892 1
877 20 1
877 52 1
877 164 1
877 656 1
877 1896 1
877 2448 1
877 2857 1
877 2964 1
877 3943 1
878 3 1
878 203 1
878 423 1
878 453 1
878 963 1
878 2609 1
878 4542 1
879 3 1
879 108 1
879 731 1
879 870 1
879 1190 1
879 3433 1
879 3449 1
879 3643 1
879 3733 1
879 4237 1
880 4 1
880 25 1
880 172 1
880 589 1
880 2722 1
880 3126 1
881 43 1
881 65 1
881 413 1
881 621 1
881 1633 1
881 1667 1
881 2201 1
881 2257 1
881 2401 1
881 3177 1
881 3416 1
881 4574 1
881 4715 1
882 142 1
882 261 1
882 337 1
882 455 1
882 1279 1
882 2140 1
882 2195 1
882 2703 1
883 26 1
883 115 1
883 325 1
883 353 1
883 2551 1
883 4276 1
884 53 1
884 196 1
884 434 1
884 706 1
884 935 1
884 1504 1
884 1743 1
884 1859 1
884 1904 1
884 2030 1
884 2328 1
884 2431 1
884 3070 1
884 3307 1
884 3897 1
884 4275 1
884 4847 1
885 5 1
885 219 1
885 386 1
885 698 1
885 1364 1
885 1953 1
885 3562 1
885 4546 1
886 45 1
886 188 1
886 205 1
886 797 1
886 1208 1
886 3605 1
886 3879 1
886 4123 1
887 12 1
887 23 1
887 317 1
887 378 1
887 970 1
887 1296 1
887 1584 1
887 2054 1
887 2104 1
887 2208 1
887 2820 1
887 2928 1
887 3031 1
887 4635 1
888 289 1
888 506 1
888 572 1
888 779 1
888 3685 1
889 169 1
889 180 1
889 746 1
889 765 1
889 1092 1
889 1121 1
889 1134 1
889 1288 1
889 1307 1
889 1395 1
889 2123 1
889 2380 1
889 2395 1
889 2575 1
889 3059 1
889 3132 1
889 3164 1
889 3229 1
889 3722 1
889 4580 1
889 4752 1
889 4931 1
890 11 1
890 20 1
890 77 1
890 103 1
890 2386 1
891 91 1
891 175 1
891 210 1
891 826 1
892 49 1
892 637 1
892 651 1
892 752 1
892 945 1
892 947 1
892 973 1
892 1231 1
892 1291 1
892 1300 1
892 1803 1
892 2023 1
892 2110 1
892 3399 1
892 4298 1
893 43 1
893 339 1
893 460 1
893 466 1
893 1179 1
893 1503 1
893 2281 1
893 2487 1
893 2519 1
893 3202 1
893 3637 1
893 3904 1
893 4782 1
894 3 1
894 29 1
894 194 1
894 428 1
894 1330 1
894 1428 1
894 1969 1
894 3665 1
894 3940 1
895 90 1
895 221 1
895 577 1
895 864 1
895 1120 1
895 1244 1
895 1605 1
895 2211 1
895 2291 1
896 231 1
896 356 1
896 517 1
896 767 1
896 2937 1
897 8 1
897 9 1
897 130 1
897 139 1
897 1802 1
897 2648 1
897 4667 1
898 4 1
898 23 1
898 399 1
898 767 1
898 947 1
898 1140 1
898 1266 1
898 1300 1
898 1506 1
898 1523 1
898 1703 1
898 2200 1
898 2278 1
898 2521 1
898 2932 1
898 2990 1
898 3018 1
898 3058 1
898 3408 1
898 4012 1
898 4236 1
898 4266 1
898 4806 1
898 4844 1
899 85 1
899 197 1
899 249 1
899 509 1
899 999 1
899 1421 1
899 1425 1
899 1536 1
899 1540 1
899 2214 1
899 2593 1
899 2638 1
899 3010 1
899 3439 1
899 3467 1
899 3701 1
899 3790 1
899 3938 1
899 4336 1
899 4753 1
899 4863 1
900 11 1
900 20 1
900 322 1
900 680 1
900 1370 1
900 1887 1
900 2719 1
900 2844 1
900 2905 1
900 3344 1
900 3448 1
900 3576 1
900 4523 1
900 4576 1
900 4810 1
901 177 1
901 345 1
901 378 1
901 839 1
901 1416 1
901 1580 1
901 1967 1
901 2004 1
901 2619 1
901 3678 1
902 211 1
902 376 1
902 454 1
902 526 1
902 911 1
903 38 1
903 177 1
903 437 1
903 726 1
904 30 1
904 76 1
904 206 1
904 801 1
904 2929 1
905 11 1
905 41 1
905 421 1
905 769 1
905 4033 1
906 51 1
906 158 1
906 365 1
906 420 1
906 1254 1
906 1270 1
906 1433 1
906 1867 1
906 2042 1
906 2519 1
906 2728 1
906 2764 1
906 3805 1
906 3913 1
906 4013 1
906 4039 1
906 4067 1
906 4325 1
906 4903 1
906 4946 1
907 25 1
907 52 1
907 440 1
907 658 1
907 1549 1
907 2104 1
907 2107 1
907 3140 1
907 4697 1
908 25 1
908 98 1
908 157 1
908 176 1
908 1791 1
908 2369 1
908 2917 1
908 3610 1
908 4269 1
909 23 1
909 84 1
909 226 1
909 481 1
909 1471 1
909 2451 1
910 10 1
910 19 1
910 43 1
910 682 1
911 205 1
911 588 1
911 666 1
911 902 1
911 1482 1
911 1962 1
911 2257 1
911 2272 1
911 4281 1
912 1 1
912 19 1
912 50 1
912 229 1
912 1808 1
912 2570 1
912 2940 1
912 3310 1
913 17 1
913 49 1
913 53 1
913 83 1
913 1209 1
913 1328 1
913 1528 1
913 1565 1
913 2632 1
913 2696 1
913 2913 1
913 3515 1
913 3752 1
913 4785 1
914 31 1
914 51 1
914 88 1
914 360 1
914 1762 1
914 2295 1
914 3041 1
914 3435 1
914 4150 1
914 4947 1
915 74 1
915 393 1
915 582 1
915 652 1
915 922 1
915 1895 1
915 2735 1
916 29 1
916 36 1
916 74 1
916 229 1
916 1669 1
916 1845 1
916 3704 1
916 3777 1
917 175 1
917 211 1
917 274 1
917 852 1
917 1379 1
917 1756 1
917 2167 1
917 3939 1
917 4494 1
917 4704 1
918 5 1
918 11 1
918 172 1
918 338 1
918 928 1
918 1153 1
918 1821 1
919 36 1
919 71 1
919 201 1
919 396 1
919 1447 1
919 3818 1
920 1 1
920 54 1
920 409 1
920 453 1
920 1008 1
920 2115 1
920 2459 1
920 2624 1
921 7 1
921 76 1
921 129 1
921 644 1
921 956 1
921 1622 1
921 2112 1
921 2285 1
921 2364 1
921 2804 1
921 3586 1
921 4437 1
922 38 1
922 102 1
922 582 1
922 915 1
922 3195 1
922 3484 1
922 4028 1
922 4232 1
923 42 1
923 52 1
923 508 1
923 583 1
923 1200 1
923 1927 1
923 2481 1
923 2942 1
923 2999 1
923 3423 1
923 4244 1
923 4713 1
923 4765 1
923 4841 1
923 4954 1
923 4978 1
924 43 1
924 409 1
924 814 1
924 846 1
924 1041 1
924 1116 1
924 1643 1
924 2385 1
924 2631 1
924 3298 1
924 3320 1
924 3706 1
925 1 1
925 474 1
925 627 1
925 830 1
925 969 1
925 1213 1
925 1318 1
925 1476 1
925 1501 1
925 1868 1
925 1888 1
925 1894 1
925 1991 1
925 2192 1
925 3042 1
925 3320 1
925 3417 1
925 3421 1
925 3425 1
925 3437 1
925 4109 1
925 4487 1
926 131 1
926 157 1
926 798 1
926 837 1
926 1256 1
926 2145 1
926 2332 1
926 2523 1
927 10 1
927 11 1
927 261 1
927 399 1
927 1115 1
927 1230 1
927 2508 1
927 3535 1
927 4319 1
928 22 1
928 38 1
928 332 1
928 918 1
928 2282 1
929 49 1
929 238 1
929 243 1
929 761 1
929 1875 1
929 3250 1
929 3599 1
929 4534 1
929 4818 1
930 353 1
930 360 1
930 731 1
930 758 1
931 117 1
931 228 1
931 233 1
931 572 1
931 976 1
931 1899 1
931 2659 1
931 3080 1
931 3129 1
931 3540 1
931 3876 1
931 4120 1
931 4604 1
932 43 1
932 581 1
932 775 1
932 804 1
932 1604 1
932 3633 1
932 3907 1
932 4430 1
932 4630 1
933 1 1
933 91 1
933 292 1
933 672 1
933 958 1
933 1114 1
933 1229 1
933 1872 1
933 2506 1
933 2841 1
933 3037 1
934 42 1
934 214 1
934 413 1
934 532 1
934 1035 1
934 1489 1
934 1609 1
934 2061 1
934 3510 1
934 4527 1
935 41 1
935 186 1
935 434 1
935 884 1
935 1154 1
935 1252 1
935 1454 1
935 1743 1
935 2034 1
935 2891 1
935 4517 1
936 41 1
936 168 1
936 805 1
936 836 1
936 1113 1
936 1396 1
936 2974 1
937 19 1
937 52 1
937 65 1
937 298 1
937 973 1
937 2542 1
937 3194 1
937 4498 1
938 158 1
938 193 1
938 290 1
938 484 1
938 1985 1
938 2169 1
938 4325 1
939 13 1
939 42 1
939 193 1
939 812 1
939 1307 1
939 1639 1
939 2421 1
939 2689 1
939 3285 1
939 3617 1
939 3753 1
939 4244 1
940 20 1
940 108 1
940 393 1
940 440 1
940 1075 1
940 1108 1
940 1465 1
940 2092 1
940 2505 1
940 3215 1
940 3386 1
940 3758 1
940 4553 1
941 155 1
941 298 1
941 419 1
941 707 1
941 1137 1
941 1396 1
941 2926 1
941 4010 1
942 13 1
942 25 1
942 155 1
942 262 1
943 93 1
943 109 1
943 123 1
943 516 1
943 1480 1
943 2882 1
943 3024 1
943 3215 1
943 4836 1
944 206 1
944 690 1
944 801 1
944 852 1
944 1476 1
944 2761 1
944 4979 1
945 10 1
945 49 1
945 83 1
945 892 1
945 947 1
945 992 1
945 1291 1
945 1803 1
945 1864 1
945 1968 1
945 2108 1
945 2521 1
945 3058 1
945 3643 1
946 19 1
946 54 1
946 139 1
946 588 1
946 2505 1
946 2949 1
947 131 1
947 892 1
947 898 1
947 945 1
947 973 1
947 1058 1
947 1214 1
947 1300 1
947 1302 1
947 1422 1
947 2962 1
947 4012 1
947 4309 1
948 2 1
948 116 1
948 306 1
948 735 1
948 1953 1
948 4477 1
949 5 1
949 10 1
949 442 1
949 574 1
949 2425 1
949 2920 1
949 3000 1
949 4030 1
949 4188 1
950 6 1
950 97 1
950 364 1
950 382 1
950 967 1
950 1106 1
950 1294 1
950 1954 1
950 2330 1
950 3345 1
950 4520 1
951 178 1
951 469 1
951 676 1
951 698 1
951 1391 1
951 1397 1
951 2817 1
951 4307 1
952 75 1
952 302 1
952 413 1
952 688 1
952 1433 1
952 3913 1
952 4091 1
953 3 1
953 141 1
953 470 1
953 733 1
953 1493 1
953 2152 1
953 3929 1
953 4338 1
954 97 1
954 143 1
954 393 1
954 652 1
954 1377 1
954 1654 1
954 1828 1
954 2068 1
954 2112 1
954 2182 1
954 2209 1
954 3495 1
954 3747 1
954 3940 1
954 3999 1
954 4344 1
954 4573 1
954 4886 1
954 4907 1
955 6 1
955 75 1
955 236 1
955 382 1
955 1046 1
955 1095 1
955 1442 1
955 1720 1
955 4766 1
956 85 1
956 252 1
956 644 1
956 921 1
956 1152 1
956 1818 1
956 1904 1
956 1998 1
956 2020 1
956 3747 1
956 4653 1
957 138 1
957 170 1
957 385 1
957 466 1
957 1338 1
957 1483 1
957 1892 1
957 2052 1
957 3326 1
957 4689 1
958 1 1
958 3 1
958 672 1
958 933 1
958 1054 1
958 2590 1
958 2853 1
958 3987 1
958 4488 1
959 62 1
959 91 1
959 145 1
959 1071 1
959 2244 1
960 11 1
960 13 1
960 150 1
960 366 1
961 17 1
961 122 1
961 571 1
961 798 1
961 2340 1
961 2991 1
961 4553 1
962 3 1
962 17 1
962 19 1
962 689 1
962 1278 1
962 1521 1
962 3796 1
962 4722 1
963 3 1
963 567 1
963 798 1
963 878 1
963 1023 1
963 1158 1
963 1603 1
963 1606 1
963 2371 1
963 3522 1
963 4544 1
963 4849 1
963 4874 1
964 3 1
964 11 1
964 379 1
964 602 1
964 998 1
964 1332 1
964 1362 1
964 1600 1
964 1652 1
964 2233 1
964 2266 1
964 3177 1
964 4122 1
964 4641 1
964 4694 1
964 4783 1
965 43 1
965 89 1
965 124 1
965 173 1
965 2966 1
965 4204 1
966 58 1
966 101 1
966 241 1
966 577 1
966 1237 1
966 1453 1
966 2348 1
966 2635 1
966 2679 1
966 3995 1
967 46 1
967 163 1
967 382 1
967 950 1
967 1049 1
967 1954 1
967 3222 1
968 1 1
968 83 1
968 229 1
968 403 1
968 1056 1
968 1579 1
968 3570 1
969 206 1
969 742 1
969 830 1
969 925 1
969 1033 1
969 1159 1
969 1318 1
969 1387 1
969 1657 1
969 2611 1
969 3003 1
969 3487 1
969 3677 1
969 3850 1
969 3937 1
969 3986 1
969 4664 1
970 2 1
970 28 1
970 367 1
970 887 1
970 1354 1
970 1648 1
970 3031 1
970 3385 1
970 3525 1
970 4118 1
970 4937 1
971 13 1
971 166 1
971 681 1
971 795 1
971 1125 1
971 1230 1
971 1529 1
971 2034 1
971 2156 1
971 2403 1
971 2647 1
971 3248 1
971 3289 1
971 3650 1
971 4200 1
971 4329 1
971 4727 1
972 92 1
972 125 1
972 138 1
972 153 1
972 1349 1
972 1350 1
972 1536 1
972 1789 1
972 2309 1
972 2742 1
972 2919 1
972 3414 1
972 3939 1
972 4691 1
973 251 1
973 892 1
973 937 1
973 947 1
973 3194 1
974 316 1
974 347 1
974 360 1
974 863 1
974 2129 1
974 2372 1
974 2761 1
974 2794 1
975 16 1
975 28 1
975 132 1
975 160 1
975 2271 1
975 2675 1
975 4859 1
976 160 1
976 494 1
976 771 1
976 931 1
976 1102 1
976 3979 1
977 52 1
977 99 1
977 361 1
977 727 1
977 1010 1
977 1489 1
977 2299 1
977 2422 1
977 2496 1
977 2961 1
977 3079 1
978 2 1
978 19 1
978 252 1
978 640 1
978 1731 1
978 2705 1
978 3080 1
978 3570 1
978 3572 1
978 4815 1
979 18 1
979 43 1
979 483 1
979 539 1
979 1598 1
979 2460 1
979 2988 1
979 3060 1
979 3090 1
979 3186 1
979 3552 1
979 3609 1
979 4648 1
980 76 1
980 105 1
980 108 1
980 497 1
980 1199 1
980 2245 1
981 36 1
981 321 1
981 347 1
981 372 1
981 2620 1
981 3559 1
981 4602 1
982 242 1
982 416 1
982 476 1
982 573 1
982 988 1
982 1336 1
982 1834 1
982 4105 1
983 11 1
983 19 1
983 296 1
983 844 1
983 1252 1
983 4624 1
984 2 1
984 295 1
984 385 1
984 434 1
984 2135 1
984 2734 1
984 2767 1
984 4855 1
985 58 1
985 463 1
985 583 1
985 698 1
985 1987 1
985 2217 1
985 2398 1
985 3508 1
985 3589 1
985 3706 1
985 3909 1
985 4039 1
986 67 1
986 141 1
986 262 1
986 460 1
986 1064 1
986 1091 1
986 1504 1
986 1674 1
986 1742 1
986 2016 1
986 2753 1
986 3356 1
986 3636 1
986 3727 1
986 4062 1
987 13 1
987 471 1
987 607 1
987 688 1
987 2722 1
987 3934 1
987 4287 1
987 4899 1
988 25 1
988 242 1
988 869 1
988 982 1
988 1277 1
988 3097 1
988 3320 1
988 4390 1
988 4742 1
989 12 1
989 36 1
989 40 1
989 403 1
989 1156 1
989 1290 1
989 1367 1
989 2859 1
989 3413 1
989 4086 1
990 66 1
990 91 1
990 92 1
990 180 1
990 1187 1
990 1813 1
990 1860 1
990 1985 1
990 2292 1
990 4504 1
991 25 1
991 27 1
991 29 1
991 323 1
991 3463 1
991 3815 1
991 4189 1
991 4566 1
992 50 1
992 83 1
992 181 1
992 945 1
992 1127 1
992 3053 1
993 105 1
993 135 1
993 240 1
993 835 1
993 1165 1
993 4066 1
993 4662 1
994 54 1
994 198 1
994 257 1
994 595 1
994 2536 1
994 2673 1
995 49 1
995 197 1
995 261 1
995 846 1
995 1605 1
995 4320 1
995 4890 1
996 198 1
996 409 1
996 479 1
996 803 1
996 1191 1
996 4318 1
997 9 1
997 43 1
997 674 1
997 789 1
997 4279 1
997 4399 1
998 9 1
998 72 1
998 875 1
998 964 1
998 1332 1
998 1680 1
998 3313 1
998 3490 1
998 4693 1
998 4744 1
999 151 1
999 249 1
999 745 1
999 899 1
999 1139 1
999 1528 1
999 2214 1
999 2638 1
999 2716 1
999 4456 1
999 4461 1
1000 3 1
1000 17 1
1000 40 1
1000 825 1
1000 1077 1
1000 2213 1
1000 3024 1
1000 3169 1
1001 27 1
1001 29 1
1001 59 1
1001 226 1
1001 3102 1
1001 3226 1
1001 3343 1
1001 3387 1
1001 3529 1
1002 10 1
1002 43 1
1002 95 1
1002 195 1
1002 1990 1
1002 2043 1
1002 2374 1
1002 3235 1
1002 3741 1
1002 3915 1
1002 4011 1
1003 196 1
1003 332 1
1003 740 1
1003 841 1
1003 1274 1
1003 1316 1
1003 3715 1
1003 4267 1
1003 4839 1
1004 1 1
1004 18 1
1004 25 1
1004 343 1
1004 2293 1
1004 4587 1
1004 4755 1
1005 59 1
1005 588 1
1005 816 1
1005 874 1
1005 1414 1
1006 66 1
1006 290 1
1006 477 1
1006 605 1
1006 3403 1
1007 2 1
1007 25 1
1007 354 1
1007 417 1
1007 1509 1
1007 3150 1
1008 54 1
1008 652 1
1008 754 1
1008 920 1
1008 1241 1
1008 1429 1
1008 2208 1
1008 2252 1
1009 10 1
1009 114 1
1009 396 1
1009 485 1
1009 1076 1
1009 1584 1
1009 3396 1
1009 3398 1
1009 3641 1
1009 4072 1
1010 2 1
1010 3 1
1010 418 1
1010 977 1
1010 1095 1
1010 2299 1
1010 3143 1
1010 3319 1
1010 4651 1
1010 4745 1
1010 4778 1
1011 5 1
1011 170 1
1011 363 1
1011 581 1
1011 3224 1
1011 4295 1
1012 61 1
1012 140 1
1012 203 1
1012 443 1
1012 1883 1
1012 3015 1
1013 169 1
1013 203 1
1013 382 1
1013 778 1
1013 2945 1
1013 4620 1
1014 97 1
1014 305 1
1014 378 1
1014 396 1
1014 2582 1
1014 4107 1
1015 36 1
1015 139 1
1015 164 1
1015 550 1
1015 1257 1
1015 1737 1
1015 1888 1
1015 2075 1
1015 2093 1
1015 4162 1
1016 9 1
1016 89 1
1016 361 1
1016 875 1
1016 1228 1
1016 1491 1
1016 2116 1
1016 2715 1
1016 2951 1
1016 3137 1
1016 3869 1
1017 290 1
1017 381 1
1017 773 1
1017 786 1
1017 1439 1
1017 2416 1
1017 2982 1
1017 3464 1
1017 4935 1
1018 34 1
1018 295 1
1018 321 1
1018 793 1
1018 1094 1
1018 1198 1
1018 1339 1
1018 1538 1
1018 2079 1
1018 2437 1
1018 2526 1
1018 2539 1
1018 2594 1
1018 2989 1
1018 3502 1
1019 133 1
1019 343 1
1019 591 1
1019 688 1
1019 1141 1
1019 1149 1
1019 1357 1
1019 2645 1
1019 2646 1
1019 3071 1
1019 3119 1
1020 74 1
1020 242 1
1020 457 1
1020 678 1
1020 2205 1
1020 2864 1
1020 3622 1
1020 4740 1
1021 153 1
1021 362 1
1021 543 1
1021 805 1
1021 1395 1
1021 4184 1
1021 4937 1
1022 11 1
1022 38 1
1022 542 1
1022 864 1
1022 2204 1
1022 3243 1
1023 45 1
1023 114 1
1023 567 1
1023 963 1
1023 1138 1
1024 11 1
1024 193 1
1024 322 1
1024 499 1
1024 1891 1
1024 3125 1
1025 397 1
1025 656 1
1025 677 1
1025 853 1
1025 1147 1
1025 1424 1
1025 2395 1
1025 3244 1
1025 3573 1
1025 3656 1
1025 3783 1
1026 155 1
1026 270 1
1026 738 1
1026 806 1
1026 2359 1
1026 2946 1
1026 3018 1
1026 3841 1
1027 95 1
1027 114 1
1027 506 1
1027 572 1
1027 1144 1
1027 1813 1
1027 3245 1
1027 3680 1
1028 12 1
1028 81 1
1028 122 1
1028 874 1
1028 1645 1
1028 3160 1
1028 3471 1
1028 3655 1
1029 55 1
1029 76 1
1029 108 1
1029 247 1
1029 1260 1
1029 2746 1
1029 3332 1
1029 3682 1
1029 4050 1
1030 2 1
1030 114 1
1030 158 1
1030 722 1
1030 2480 1
1030 2604 1
1030 4243 1
1030 4488 1
1030 4634 1
1031 61 1
1031 69 1
1031 280 1
1031 458 1
1031 2887 1
1031 3451 1
1031 3663 1
1032 48 1
1032 100 1
1032 141 1
1032 290 1
1032 1486 1
1032 2802 1
1033 37 1
1033 140 1
1033 742 1
1033 969 1
1033 2581 1
1033 2611 1
1033 2799 1
1033 4613 1
1034 159 1
1034 222 1
1034 374 1
1034 388 1
1034 1105 1
1034 2963 1
1034 4829 1
1035 19 1
1035 469 1
1035 529 1
1035 934 1
1035 1609 1
1035 2142 1
1035 2144 1
1035 3510 1
1036 100 1
1036 130 1
1036 286 1
1036 316 1
1036 2243 1
1036 2624 1
1036 3214 1
1036 3377 1
1036 3652 1
1037 6 1
1037 79 1
1037 82 1
1037 655 1
1037 3722 1
1037 4442 1
1037 4581 1
1038 10 1
1038 182 1
1038 373 1
1038 612 1
1038 2129 1
1038 2410 1
1038 4968 1
1039 52 1
1039 99 1
1039 156 1
1039 814 1
1039 2718 1
1039 3310 1
1039 3641 1
1039 3671 1
1039 4004 1
1039 4469 1
1040 33 1
1040 160 1
1040 277 1
1040 494 1
1040 1146 1
1040 1645 1
1041 5 1
1041 46 1
1041 375 1
1041 924 1
1041 1054 1
1041 4418 1
1042 157 1
1042 164 1
1042 359 1
1042 799 1
1042 3466 1
1042 4660 1
1043 3 1
1043 19 1
1043 322 1
1043 829 1
1043 1111 1
1043 1512 1
1043 1652 1
1043 3178 1
1043 3598 1
1043 3834 1
1043 4256 1
1044 416 1
1044 562 1
1044 641 1
1044 658 1
1044 1436 1
1044 2217 1
1044 2565 1
1044 2752 1
1044 2849 1
1044 2927 1
1044 2982 1
1044 2987 1
1044 3083 1
1044 4534 1
1044 4901 1
1045 77 1
1045 300 1
1045 335 1
1045 415 1
1045 2124 1
1045 2378 1
1045 2558 1
1045 3141 1
1045 3844 1
1045 4104 1
1045 4448 1
1046 49 1
1046 75 1
1046 236 1
1046 955 1
1046 1548 1
1046 1616 1
1046 1720 1
1046 2773 1
1046 3012 1
1046 4118 1
1047 101 1
1047 298 1
1047 447 1
1047 705 1
1047 2650 1
1047 4017 1
1047 4198 1
1047 4225 1
1047 4802 1
1048 18 1
1048 29 1
1048 259 1
1048 487 1
1048 3570 1
1048 4885 1
1049 163 1
1049 385 1
1049 397 1
1049 967 1
1049 1195 1
1049 2187 1
1049 2259 1
1049 2536 1
1049 2560 1
1049 2660 1
1049 2713 1
1049 3188 1
1049 3197 1
1049 3408 1
1049 4709 1
1050 5 1
1050 91 1
1050 129 1
1050 476 1
1050 1265 1
1050 1488 1
1050 1797 1
1050 2717 1
1050 3035 1
1050 4002 1
1050 4123 1
1050 4155 1
1051 3 1
1051 81 1
1051 548 1
1051 563 1
1051 1606 1
1051 1817 1
1051 2361 1
1051 2423 1
1051 2610 1
1051 4721 1
1052 12 1
1052 36 1
1052 203 1
1052 449 1
1052 1097 1
1052 1156 1
1052 1235 1
1052 1632 1
1052 1790 1
1052 2184 1
1052 2530 1
1052 2681 1
1052 3003 1
1052 3641 1
1052 3887 1
1052 4967 1
1053 4 1
1053 6 1
1053 275 1
1053 277 1
1053 1265 1
1053 1584 1
1053 3222 1
1053 3642 1
1054 1 1
1054 375 1
1054 958 1
1054 1041 1
1054 2291 1
1054 2514 1
1054 3333 1
1054 4020 1
1055 122 1
1055 185 1
1055 374 1
1055 807 1
1055 3342 1
1056 155 1
1056 225 1
1056 689 1
1056 968 1
1056 1850 1
1056 2858 1
1056 3900 1
1056 4846 1
1057 2 1
1057 13 1
1057 349 1
1057 486 1
1057 1505 1
1057 1607 1
1057 1908 1
1057 2072 1
1057 2831 1
1058 79 1
1058 199 1
1058 315 1
1058 947 1
1058 1222 1
1058 1422 1
1058 1787 1
1058 2048 1
1058 3189 1
1059 75 1
1059 105 1
1059 299 1
1059 359 1
1059 1981 1
1059 2670 1
1059 3054 1
1060 129 1
1060 291 1
1060 299 1
1060 701 1
1060 1516 1
1060 2306 1
1060 2452 1
1060 4410 1
1061 9 1
1061 144 1
1061 407 1
1061 545 1
1061 1493 1
1061 1792 1
1061 2808 1
1061 2928 1
1061 3455 1
1061 3591 1
1062 2 1
1062 124 1
1062 438 1
1062 796 1
1062 1071 1
1062 4141 1
1063 5 1
1063 138 1
1063 153 1
1063 831 1
1063 1218 1
1063 1595 1
1063 2652 1
1063 3846 1
1063 4486 1
1064 141 1
1064 222 1
1064 460 1
1064 986 1
1064 1304 1
1065 2 1
1065 17 1
1065 43 1
1065 339 1
1065 1729 1
1065 1997 1
1065 3250 1
1065 3938 1
1065 4818 1
1065 5000 1
1066 123 1
1066 401 1
1066 426 1
1066 729 1
1066 1111 1
1066 1171 1
1066 1341 1
1066 1484 1
1066 1792 1
1066 2424 1
1066 2436 1
1066 2804 1
1066 3115 1
1066 4450 1
1066 4751 1
1066 4881 1
1067 24 1
1067 26 1
1067 144 1
1067 529 1
1067 1140 1
1067 1854 1
1067 2552 1
1067 2576 1
1068 9 1
1068 205 1
1068 275 1
1068 709 1
1068 1377 1
1068 1959 1
1068 2209 1
1068 3205 1
1068 3416 1
1068 3807 1
1068 4344 1
1068 4837 1
1069 308 1
1069 370 1
1069 609 1
1069 673 1
1069 1135 1
1069 3469 1
1069 3558 1
1069 4068 1
1069 4182 1
1070 77 1
1070 122 1
1070 198 1
1070 354 1
1070 1399 1
1070 3568 1
1070 3813 1
1070 4239 1
1070 4678 1
1071 365 1
1071 420 1
1071 959 1
1071 1062 1
1071 2164 1
1071 3112 1
1071 3501 1
1072 1 1
1072 5 1
1072 130 1
1072 375 1
1072 1626 1
1072 1766 1
1072 2666 1
1073 76 1
1073 178 1
1073 690 1
1073 801 1
1073 3302 1
1073 3767 1
1073 4099 1
1074 12 1
1074 19 1
1074 121 1
1074 492 1
1074 1118 1
1074 1149 1
1074 1403 1
1074 3452 1
1074 3946 1
1074 4174 1
1074 4188 1
1074 4228 1
1075 20 1
1075 467 1
1075 852 1
1075 940 1
1075 1108 1
1075 1465 1
1075 2029 1
1075 2092 1
1075 2223 1
1075 2433 1
1075 2998 1
1075 3447 1
1075 3762 1
1075 3783 1
1076 115 1
1076 484 1
1076 609 1
1076 1009 1
1076 1919 1
1076 3396 1
1077 6 1
1077 689 1
1077 727 1
1077 1000 1
1077 1079 1
1077 1812 1
1077 3046 1
1077 4038 1
1077 4153 1
1078 9 1
1078 290 1
1078 411 1
1078 772 1
1078 1970 1
1078 1985 1
1078 2641 1
1078 3021 1
1078 3833 1
1078 4360 1
1078 4799 1
1079 268 1
1079 487 1
1079 857 1
1079 1077 1
1079 1597 1
1080 35 1
1080 49 1
1080 650 1
1080 689 1
1080 1436 1
1080 3658 1
1080 4462 1
1080 4591 1
1081 11 1
1081 45 1
1081 169 1
1081 499 1
1081 1227 1
1081 1765 1
1081 2329 1
1081 3516 1
1081 3654 1
1081 4002 1
1081 4450 1
1081 4542 1
1082 75 1
1082 225 1
1082 373 1
1082 785 1
1082 2798 1
1082 3608 1
1082 4952 1
1083 4 1
1083 554 1
1083 593 1
1083 686 1
1083 1730 1
1083 2154 1
1083 3192 1
1083 3498 1
1083 3595 1
1084 26 1
1084 113 1
1084 137 1
1084 332 1
1084 1188 1
1084 1612 1
1084 2832 1
1084 4386 1
1084 4696 1
1085 178 1
1085 298 1
1085 330 1
1085 342 1
1085 2253 1
1085 2922 1
1085 3511 1
1085 4478 1
1086 21 1
1086 57 1
1086 340 1
1086 628 1
1086 1426 1
1086 2039 1
1086 2983 1
1086 4235 1
1086 4292 1
1086 4476 1
1086 4499 1
1087 2 1
1087 9 1
1087 20 1
1087 875 1
1087 1104 1
1087 1618 1
1087 2925 1
1088 105 1
1088 505 1
1088 511 1
1088 795 1
1088 2204 1
1088 2668 1
1088 3188 1
1089 3 1
1089 18 1
1089 209 1
1089 786 1
1089 2337 1
1089 3513 1
1090 25 1
1090 106 1
1090 334 1
1090 410 1
1090 1251 1
1090 2186 1
1090 2975 1
1090 3022 1
1090 3921 1
1090 4748 1
1091 18 1
1091 405 1
1091 459 1
1091 986 1
1091 1717 1
1091 2391 1
1091 3356 1
1092 180 1
1092 298 1
1092 765 1
1092 889 1
1092 1121 1
1092 1167 1
1092 1275 1
1092 2575 1
1092 2824 1
1092 3059 1
1092 3561 1
1092 4623 1
1093 52 1
1093 227 1
1093 425 1
1093 630 1
1093 1348 1
1093 1473 1
1093 1745 1
1093 2693 1
1093 2864 1
1094 321 1
1094 357 1
1094 760 1
1094 1018 1
1094 1460 1
1094 1538 1
1094 2539 1
1094 3559 1
1094 4375 1
1095 37 1
1095 418 1
1095 955 1
1095 1010 1
1095 1215 1
1095 1269 1
1095 1528 1
1095 1720 1
1095 1772 1
1095 1902 1
1095 4403 1
1096 19 1
1096 25 1
1096 66 1
1096 676 1
1096 1268 1
1096 4394 1
1097 66 1
1097 107 1
1097 449 1
1097 1052 1
1097 2530 1
1098 268 1
1098 371 1
1098 649 1
1098 760 1
1098 1394 1
1098 1582 1
1098 2856 1
1098 4622 1
1099 10 1
1099 148 1
1099 224 1
1099 303 1
1099 1591 1
1099 1603 1
1099 2207 1
1099 3935 1
1100 108 1
1100 167 1
1100 254 1
1100 765 1
1100 1349 1
1100 2062 1
1100 3191 1
1101 17 1
1101 21 1
1101 106 1
1101 271 1
1101 1542 1
1101 1800 1
1101 2464 1
1101 4518 1
1102 81 1
1102 285 1
1102 802 1
1102 976 1
1102 1180 1
1103 108 1
1103 169 1
1103 302 1
1103 414 1
1103 2153 1
1104 11 1
1104 268 1
1104 578 1
1104 1087 1
1104 3538 1
1105 37 1
1105 222 1
1105 388 1
1105 1034 1
1105 2963 1
1105 4829 1
1106 38 1
1106 364 1
1106 529 1
1106 950 1
1106 1769 1
1106 2113 1
1106 2553 1
1106 2761 1
1106 2889 1
1106 3694 1
1107 10 1
1107 170 1
1107 437 1
1107 515 1
1107 1306 1
1107 2052 1
1107 2620 1
1107 3491 1
1107 3503 1
1107 4132 1
1107 4406 1
1107 4412 1
1107 4779 1
1108 73 1
1108 852 1
1108 940 1
1108 1075 1
1108 1226 1
1108 1305 1
1108 1620 1
1108 1776 1
1108 2092 1
1108 2615 1
1108 2915 1
1108 3319 1
1108 3386 1
1108 3434 1
1108 3788 1
1108 3983 1
1109 13 1
1109 339 1
1109 569 1
1109 572 1
1109 1416 1
1109 1704 1
1109 4117 1
1110 113 1
1110 118 1
1110 637 1
1110 720 1
1110 2225 1
1110 2557 1
1110 3231 1
1110 3919 1
1111 175 1
1111 296 1
1111 1043 1
1111 1066 1
1111 1709 1
1111 1792 1
1111 3994 1
1112 5 1
1112 13 1
1112 18 1
1112 481 1
1112 2640 1
1112 4133 1
1112 4224 1
1113 194 1
1113 397 1
1113 836 1
1113 936 1
1113 2098 1
1113 2419 1
1113 2787 1
1113 3623 1
1113 4706 1
1114 12 1
1114 283 1
1114 301 1
1114 933 1
1114 1730 1
1114 2080 1
1114 2265 1
1114 2377 1
1114 2786 1
1114 3672 1
1115 11 1
1115 94 1
1115 386 1
1115 927 1
1115 2120 1
1116 29 1
1116 74 1
1116 462 1
1116 924 1
1116 1193 1
1116 1556 1
1116 4175 1
1117 89 1
1117 102 1
1117 732 1
1117 804 1
1117 2504 1
1117 3696 1
1118 12 1
1118 45 1
1118 409 1
1118 1074 1
1118 1475 1
1118 2778 1
1118 3293 1
1118 4287 1
1119 9 1
1119 20 1
1119 67 1
1119 875 1
1119 2763 1
1119 3791 1
1120 90 1
1120 340 1
1120 418 1
1120 895 1
1120 2621 1
1121 266 1
1121 405 1
1121 889 1
1121 1092 1
1121 1167 1
1121 2395 1
1121 3012 1
1121 3054 1
1121 3783 1
1122 44 1
1122 73 1
1122 307 1
1122 754 1
1122 2470 1
1122 3853 1
1122 4207 1
1123 25 1
1123 29 1
1123 330 1
1123 332 1
1123 1440 1
1123 1509 1
1123 1550 1
1123 2354 1
1123 3094 1
1123 3240 1
1123 4129 1
1124 135 1
1124 194 1
1124 378 1
1124 798 1
1124 1216 1
1124 1288 1
1124 1313 1
1124 1405 1
1125 357 1
1125 416 1
1125 795 1
1125 971 1
1125 1213 1
1125 1527 1
1125 2031 1
1125 2520 1
1126 91 1
1126 148 1
1126 234 1
1126 721 1
1126 1155 1
1126 1432 1
1126 1906 1
1126 1920 1
1126 2260 1
1126 3639 1
1126 4183 1
1127 129 1
1127 445 1
1127 762 1
1127 992 1
1127 1482 1
1128 132 1
1128 185 1
1128 507 1
1128 769 1
1128 3067 1
1129 54 1
1129 106 1
1129 252 1
1129 739 1
1129 1832 1
1129 4612 1
1130 28 1
1130 29 1
1130 41 1
1130 822 1
1130 1500 1
1130 2561 1
1131 12 1
1131 140 1
1131 313 1
1131 754 1
1131 3129 1
1131 4567 1
1131 4569 1
1132 25 1
1132 29 1
1132 44 1
1132 271 1
1132 3794 1
1133 41 1
1133 164 1
1133 299 1
1133 359 1
1133 2236 1
1133 2976 1
1133 4366 1
1134 67 1
1134 90 1
1134 162 1
1134 889 1
1134 1321 1
1134 1726 1
1134 1760 1
1134 2121 1
1134 2836 1
1134 3066 1
1134 3164 1
1134 4580 1
1134 4714 1
1135 11 1
1135 82 1
1135 673 1
1135 1069 1
1135 2552 1
1136 14 1
1136 241 1
1136 394 1
1136 420 1
1136 1285 1
1136 1900 1
1136 2390 1
1136 4408 1
1137 193 1
1137 289 1
1137 293 1
1137 941 1
1137 1569 1
1137 2183 1
1137 2312 1
1137 2876 1
1137 2992 1
1137 3472 1
1137 3848 1
1137 4726 1
1137 4768 1
1138 114 1
1138 361 1
1138 667 1
1138 1023 1
1138 2254 1
1138 3369 1
1139 36 1
1139 530 1
1139 861 1
1139 999 1
1139 4461 1
1140 26 1
1140 420 1
1140 898 1
1140 1067 1
1140 1266 1
1140 2200 1
1140 2521 1
1140 2612 1
1140 2710 1
1140 2919 1
1140 3653 1
1140 3941 1
1141 42 1
1141 483 1
1141 688 1
1141 1019 1
1141 3645 1
1141 4845 1
1142 1 1
1142 45 1
1142 108 1
1142 380 1
1142 2639 1
1143 163 1
1143 293 1
1143 561 1
1143 712 1
1144 66 1
1144 74 1
1144 572 1
1144 1027 1
1144 1629 1
1145 364 1
1145 370 1
1145 386 1
1145 732 1
1145 1154 1
1145 1294 1
1145 1545 1
1145 1578 1
1145 1735 1
1145 1851 1
1145 1959 1
1145 2450 1
1145 3788 1
1145 4042 1
1145 4090 1
1145 4599 1
1145 4882 1
1146 277 1
1146 354 1
1146 694 1
1146 1040 1
1146 3722 1
1147 51 1
1147 397 1
1147 722 1
1147 1025 1
1147 3558 1
1147 4608 1
1148 130 1
1148 150 1
1148 185 1
1148 384 1
1148 2294 1
1149 25 1
1149 688 1
1149 1019 1
1149 1074 1
1149 1166 1
1149 1913 1
1149 2646 1
1149 2705 1
1150 17 1
1150 77 1
1150 96 1
1150 442 1
1150 1443 1
1150 1831 1
1150 1957 1
1150 2041 1
1150 2825 1
1150 3106 1
1151 18 1
1151 19 1
1151 132 1
1151 591 1
1151 1756 1
1151 3101 1
1151 3685 1
1151 4376 1
1152 35 1
1152 49 1
1152 188 1
1152 956 1
1152 1575 1
1152 2229 1
1152 4734 1
1153 21 1
1153 31 1
1153 581 1
1153 918 1
1153 1821 1
1153 2897 1
1153 3034 1
1153 3757 1
1153 4955 1
1154 606 1
1154 619 1
1154 935 1
1154 1145 1
1154 3788 1
1154 4042 1
1155 91 1
1155 226 1
1155 239 1
1155 1126 1
1155 1365 1
1155 1419 1
1155 1983 1
1155 3615 1
1156 307 1
1156 814 1
1156 989 1
1156 1052 1
1156 1290 1
1156 1949 1
1156 4657 1
1157 5 1
1157 147 1
1157 470 1
1157 733 1
1157 1464 1
1157 3976 1
1157 4130 1
1158 25 1
1158 290 1
1158 484 1
1158 963 1
1158 2371 1
1158 4874 1
1159 206 1
1159 536 1
1159 644 1
1159 969 1
1159 1250 1
1159 1533 1
1159 2178 1
1159 3003 1
1159 3045 1
1160 5 1
1160 367 1
1160 581 1
1160 727 1
1161 9 1
1161 73 1
1161 96 1
1161 482 1
1161 1264 1
1161 1776 1
1161 1878 1
1161 2084 1
1161 4438 1
1162 12 1
1162 60 1
1162 77 1
1162 785 1
1162 1281 1
1162 1322 1
1162 1432 1
1162 1450 1
1162 1502 1
1162 1560 1
1162 1569 1
1162 1718 1
1162 2339 1
1162 2492 1
1162 2698 1
1162 3421 1
1162 3651 1
1162 4455 1
1163 17 1
1163 91 1
1163 223 1
1163 684 1
1163 1498 1
1163 1955 1
1163 3275 1
1164 25 1
1164 185 1
1164 299 1
1164 426 1
1164 1249 1
1164 1790 1
1164 2821 1
1164 4489 1
1165 66 1
1165 115 1
1165 299 1
1165 993 1
1165 1408 1
1165 2050 1
1165 4895 1
1166 2 1
1166 398 1
1166 515 1
1166 1149 1
1166 1757 1
1166 1840 1
1166 1912 1
1166 2648 1
1167 211 1
1167 524 1
1167 1092 1
1167 1121 1
1167 2824 1
1167 4334 1
1168 18 1
1168 137 1
1168 316 1
1168 532 1
1168 3423 1
1169 41 1
1169 156 1
1169 405 1
1169 592 1
1169 1311 1
1169 1619 1
1169 1664 1
1169 1750 1
1169 2317 1
1169 2426 1
1169 3561 1
1169 3735 1
1169 4851 1
1170 3 1
1170 342 1
1170 475 1
1170 609 1
1170 1974 1
1170 2509 1
1170 3346 1
1170 3432 1
1171 152 1
1171 729 1
1171 852 1
1171 1066 1
1171 1296 1
1171 4536 1
1171 4717 1
1172 154 1
1172 298 1
1172 749 1
1172 817 1
1172 1273 1
1172 1875 1
1172 4086 1
1173 74 1
1173 153 1
1173 211 1
1173 817 1
1173 1218 1
1173 1309 1
1173 1901 1
1173 1952 1
1173 2058 1
1173 2601 1
1173 2643 1
1174 23 1
1174 34 1
1174 170 1
1174 515 1
1174 1639 1
1174 3113 1
1175 5 1
1175 55 1
1175 265 1
1175 288 1
1175 2128 1
1176 2 1
1176 9 1
1176 72 1
1176 564 1
1176 1302 1
1176 1443 1
1176 1746 1
1177 1 1
1177 176 1
1177 475 1
1177 650 1
1177 1262 1
1177 1407 1
1177 1431 1
1177 1708 1
1177 1879 1
1177 2274 1
1177 2943 1
1177 3265 1
1177 3299 1
1177 4426 1
1177 4697 1
1178 106 1
1178 387 1
1178 610 1
1178 634 1
1178 1593 1
1178 1781 1
1178 1908 1
1178 3100 1
1178 3138 1
1178 3378 1
1178 3381 1
1178 3903 1
1178 4136 1
1178 4204 1
1178 4469 1
1179 194 1
1179 373 1
1179 525 1
1179 893 1
1179 1400 1
1179 1461 1
1179 1850 1
1179 3115 1
1179 3202 1
1179 3236 1
1180 49 1
1180 214 1
1180 802 1
1180 1102 1
1180 1540 1
1180 1758 1
1180 2091 1
1180 2155 1
1180 2664 1
1180 3019 1
1180 3036 1
1180 3083 1
1180 3709 1
1180 4643 1
1180 4774 1
1181 82 1
1181 179 1
1181 240 1
1181 591 1
1181 2534 1
1181 3829 1
1181 4690 1
1182 10 1
1182 245 1
1182 278 1
1182 344 1
1183 5 1
1183 58 1
1183 109 1
1183 268 1
1183 1570 1
1183 1601 1
1183 3258 1
1183 3916 1
1183 4472 1
1183 4902 1
1184 2 1
1184 40 1
1184 52 1
1184 634 1
1184 1562 1
1184 1623 1
1184 4892 1
1185 81 1
1185 214 1
1185 561 1
1185 849 1
1185 1303 1
1185 2394 1
1185 2855 1
1185 3048 1
1185 4628 1
1186 5 1
1186 28 1
1186 131 1
1186 353 1
1186 1568 1
1186 2601 1
1186 4284 1
1186 4832 1
1187 404 1
1187 785 1
1187 874 1
1187 990 1
1187 2170 1
1187 3960 1
1188 2 1
1188 113 1
1188 587 1
1188 1084 1
1188 1429 1
1188 1647 1
1188 2107 1
1188 3852 1
1188 4386 1
1189 129 1
1189 275 1
1189 298 1
1189 625 1
1189 1322 1
1189 3692 1
1189 4458 1
1190 3 1
1190 108 1
1190 731 1
1190 879 1
1190 3691 1
1190 4490 1
1191 198 1
1191 298 1
1191 479 1
1191 996 1
1191 1238 1
1191 2205 1
1192 19 1
1192 283 1
1192 535 1
1192 638 1
1192 1223 1
1192 1385 1
1192 3572 1
1192 3627 1
1193 29 1
1193 171 1
1193 277 1
1193 1116 1
1193 2716 1
1193 3002 1
1193 3146 1
1193 4826 1
1194 12 1
1194 92 1
1194 205 1
1194 683 1
1194 1672 1
1194 2022 1
1194 2967 1
1194 3075 1
1194 4292 1
1195 17 1
1195 494 1
1195 616 1
1195 1049 1
1195 1614 1
1195 1956 1
1195 2722 1
1195 3389 1
1195 3408 1
1195 4371 1
1195 4493 1
1195 4554 1
1196 67 1
1196 181 1
1196 265 1
1196 798 1
1196 2960 1
1196 3183 1
1196 4040 1
1197 3 1
1197 30 1
1197 397 1
1197 611 1
1197 4141 1
1197 4401 1
1198 1 1
1198 5 1
1198 193 1
1198 1018 1
1198 2526 1
1198 2755 1
1198 3502 1
1199 17 1
1199 108 1
1199 294 1
1199 980 1
1199 2256 1
1199 2935 1
1199 3274 1
1200 57 1
1200 342 1
1200 385 1
1200 923 1
1200 1404 1
1200 1523 1
1200 2585 1
1200 2885 1
1200 3991 1
1201 275 1
1201 293 1
1201 621 1
1201 738 1
1202 28 1
1202 119 1
1202 451 1
1202 658 1
1202 1519 1
1202 2252 1
1202 2387 1
1202 2797 1
1202 4794 1
1203 146 1
1203 361 1
1203 634 1
1203 651 1
1203 1544 1
1204 301 1
1204 405 1
1204 454 1
1204 725 1
1204 1869 1
1204 2756 1
1204 3820 1
1204 3952 1
1205 39 1
1205 419 1
1205 721 1
1205 751 1
1205 4005 1
1206 14 1
1206 17 1
1206 91 1
1206 132 1
1206 2455 1
1207 101 1
1207 155 1
1207 339 1
1207 761 1
1207 1594 1
1207 1602 1
1208 1 1
1208 105 1
1208 184 1
1208 886 1
1208 2465 1
1208 2987 1
1209 17 1
1209 49 1
1209 53 1
1209 913 1
1209 1565 1
1209 1939 1
1209 2023 1
1209 2887 1
1209 2939 1
1209 3752 1
1209 3793 1
1209 4446 1
1210 169 1
1210 174 1
1210 249 1
1210 413 1
1210 1348 1
1210 2019 1
1210 2729 1
1210 2882 1
1210 4074 1
1210 4501 1
1210 4821 1
1211 58 1
1211 177 1
1211 410 1
1211 520 1
1211 1575 1
1211 2160 1
1211 2497 1
1211 3228 1
1211 3295 1
1211 3787 1
1212 17 1
1212 91 1
1212 105 1
1212 210 1
1212 2340 1
1212 2699 1
1213 147 1
1213 729 1
1213 925 1
1213 1125 1
1213 1441 1
1213 3042 1
1214 559 1
1214 698 1
1214 822 1
1214 947 1
1214 1233 1
1214 1390 1
1215 50 1
1215 234 1
1215 467 1
1215 1095 1
1215 1496 1
1215 1902 1
1215 2578 1
1215 2997 1
1215 4509 1
1215 4705 1
1215 4918 1
1216 223 1
1216 291 1
1216 378 1
1216 1124 1
1216 1342 1
1216 2161 1
1216 3780 1
1217 130 1
1217 182 1
1217 194 1
1217 612 1
1217 1276 1
1217 1543 1
1217 2241 1
1218 49 1
1218 153 1
1218 1063 1
1218 1173 1
1218 1239 1
1218 2469 1
1218 3130 1
1218 3972 1
1219 102 1
1219 245 1
1219 387 1
1219 595 1
1219 3425 1
1219 3841 1
1219 4593 1
1219 4718 1
1220 23 1
1220 204 1
1220 234 1
1220 624 1
1220 2602 1
1220 3410 1
1220 4824 1
1221 45 1
1221 122 1
1221 322 1
1221 839 1
1221 1725 1
1221 2250 1
1221 3178 1
1221 3328 1
1221 3671 1
1221 4256 1
1222 79 1
1222 147 1
1222 199 1
1222 1058 1
1222 1787 1
1222 2031 1
1222 3734 1
1223 23 1
1223 35 1
1223 446 1
1223 1192 1
1223 1384 1
1223 3504 1
1224 51 1
1224 105 1
1224 231 1
1224 613 1
1224 1689 1
1224 2234 1
1224 2773 1
1224 2839 1
1224 4870 1
1225 12 1
1225 299 1
1225 824 1
1225 874 1
1225 1414 1
1225 1623 1
1225 1719 1
1225 2026 1
1225 2210 1
1225 2454 1
1225 2507 1
1225 2661 1
1225 2704 1
1225 2718 1
1225 3092 1
1225 3626 1
1225 4559 1
1225 4589 1
1226 73 1
1226 164 1
1226 309 1
1226 1108 1
1226 1305 1
1226 1404 1
1226 1721 1
1226 2843 1
1226 2871 1
1226 3386 1
1226 3554 1
1226 3615 1
1226 3702 1
1226 3863 1
1226 3871 1
1226 3981 1
1226 4222 1
1227 11 1
1227 169 1
1227 499 1
1227 1081 1
1227 2290 1
1227 2329 1
1227 2550 1
1227 2795 1
1227 3516 1
1227 3552 1
1227 4071 1
1228 54 1
1228 318 1
1228 457 1
1228 1016 1
1228 2889 1
1228 2929 1
1228 3318 1
1228 4019 1
1229 11 1
1229 15 1
1229 133 1
1229 933 1
1229 1404 1
1229 2155 1
1229 2382 1
1229 3828 1
1229 4964 1
1230 203 1
1230 378 1
1230 927 1
1230 971 1
1230 2004 1
1230 2647 1
1230 3284 1
1230 3368 1
1230 4688 1
1231 174 1
1231 250 1
1231 623 1
1231 892 1
1231 1365 1
1231 2666 1
1231 2877 1
1231 3368 1
1232 26 1
1232 145 1
1232 229 1
1232 233 1
1232 3193 1
1232 3219 1
1232 3847 1
1232 3876 1
1232 4524 1
1232 4737 1
1232 4754 1
1233 11 1
1233 209 1
1233 450 1
1233 1214 1
1233 1592 1
1233 1795 1
1233 2324 1
1233 3492 1
1233 3549 1
1234 130 1
1234 201 1
1234 220 1
1234 585 1
1234 2010 1
1234 2314 1
1234 2844 1
1234 3263 1
1234 3406 1
1235 159 1
1235 421 1
1235 449 1
1235 1052 1
1235 1790 1
1235 2420 1
1235 3120 1
1235 4885 1
1236 33 1
1236 154 1
1236 259 1
1236 435 1
1236 1794 1
1236 2758 1
1236 2867 1
1237 106 1
1237 445 1
1237 577 1
1237 966 1
1237 1559 1
1238 184 1
1238 431 1
1238 778 1
1238 1191 1
1238 4560 1
1238 4606 1
1239 9 1
1239 49 1
1239 277 1
1239 1218 1
1239 2590 1
1239 3605 1
1240 30 1
1240 45 1
1240 334 1
1240 596 1
1240 1574 1
1240 2921 1
1240 3109 1
1241 1 1
1241 515 1
1241 652 1
1241 1008 1
1241 1469 1
1241 2822 1
1241 3393 1
1241 4612 1
1242 10 1
1242 24 1
1242 193 1
1242 687 1
1242 1576 1
1242 2985 1
1242 3519 1
1242 3899 1
1243 9 1
1243 91 1
1243 295 1
1243 660 1
1243 1835 1
1243 1931 1
1244 53 1
1244 362 1
1244 736 1
1244 895 1
1244 1373 1
1244 2617 1
1245 35 1
1245 218 1
1245 527 1
1245 654 1
1245 1335 1
1245 1764 1
1246 21 1
1246 57 1
1246 100 1
1246 130 1
1246 1981 1
1246 2083 1
1246 4134 1
1247 17 1
1247 218 1
1247 307 1
1247 509 1
1247 1434 1
1248 84 1
1248 305 1
1248 337 1
1248 455 1
1248 1573 1
1248 3278 1
1248 3345 1
1248 4485 1
1249 13 1
1249 466 1
1249 771 1
1249 1164 1
1249 1281 1
1249 2119 1
1249 2821 1
1249 3258 1
1249 3580 1
1249 3964 1
1249 4587 1
1250 1 1
1250 348 1
1250 644 1
1250 1159 1
1250 1533 1
1250 1673 1
1250 2178 1
1250 4857 1
1251 5 1
1251 11 1
1251 45 1
1251 1090 1
1251 3022 1
1252 16 1
1252 51 1
1252 935 1
1252 983 1
1252 3330 1
1253 90 1
1253 91 1
1253 609 1
1253 673 1
1253 2868 1
1254 12 1
1254 121 1
1254 625 1
1254 906 1
1254 1403 1
1254 1680 1
1254 2419 1
1254 2706 1
1254 4153 1
1254 4174 1
1255 11 1
1255 66 1
1255 185 1
1255 366 1
1255 3377 1
1256 53 1
1256 108 1
1256 514 1
1256 926 1
1256 4028 1
1256 4041 1
1257 1 1
1257 22 1
1257 801 1
1257 1015 1
1257 1556 1
1257 1663 1
1257 2110 1
1257 4244 1
1257 4255 1
1258 12 1
1258 17 1
1258 390 1
1258 652 1
1258 1308 1
1258 1469 1
1258 1483 1
1258 2957 1
1258 3349 1
1258 4476 1
1259 19 1
1259 340 1
1259 559 1
1259 723 1
1259 1289 1
1259 2433 1
1259 2613 1
1259 2849 1
1259 2998 1
1259 4364 1
1260 5 1
1260 158 1
1260 247 1
1260 1029 1
1260 1481 1
1260 4345 1
1261 3 1
1261 19 1
1261 332 1
1261 383 1
1261 1779 1
1262 234 1
1262 475 1
1262 746 1
1262 1177 1
1262 1514 1
1262 1708 1
1262 2238 1
1262 3064 1
1263 1 1
1263 13 1
1263 29 1
1263 41 1
1263 1466 1
1263 2554 1
1263 3009 1
1264 9 1
1264 201 1
1264 295 1
1264 1161 1
1264 1878 1
1264 4320 1
1264 4647 1
1265 91 1
1265 258 1
1265 1050 1
1265 1053 1
1265 1679 1
1265 2608 1
1265 3267 1
1265 4346 1
1266 23 1
1266 729 1
1266 898 1
1266 1140 1
1266 1441 1
1266 1856 1
1266 2200 1
1266 2278 1
1266 2605 1
1266 2710 1
1266 2932 1
1266 3308 1
1266 4464 1
1266 4751 1
1267 19 1
1267 227 1
1267 341 1
1267 559 1
1267 1624 1
1267 1846 1
1267 2057 1
1267 2270 1
1267 2475 1
1267 2591 1
1267 2912 1
1267 3352 1
1267 3399 1
1267 3674 1
1267 4089 1
1267 4621 1
1268 25 1
1268 180 1
1268 579 1
1268 1096 1
1268 2226 1
1268 2472 1
1269 37 1
1269 45 1
1269 339 1
1269 1095 1
1269 1332 1
1269 3127 1
1269 3729 1
1270 58 1
1270 420 1
1270 833 1
1270 906 1
1270 1867 1
1270 2577 1
1270 2885 1
1270 3073 1
1270 4039 1
1270 4287 1
1270 4641 1
1271 20 1
1271 44 1
1271 49 1
1271 342 1
1271 2086 1
1272 3 1
1272 141 1
1272 281 1
1272 378 1
1272 2004 1
1272 2181 1
1272 2287 1
1272 2845 1
1272 4996 1
1273 298 1
1273 700 1
1273 817 1
1273 1172 1
1273 2103 1
1273 2189 1
1273 3097 1
1273 4071 1
1273 4362 1
1273 4558 1
1273 4878 1
1273 4919 1
1274 457 1
1274 498 1
1274 768 1
1274 1003 1
1274 4887 1
1275 2 1
1275 357 1
1275 537 1
1275 1092 1
1275 1305 1
1275 1890 1
1275 1976 1
1275 2168 1
1275 2575 1
1275 2900 1
1275 2905 1
1275 3010 1
1275 3863 1
1275 4533 1
1275 4623 1
1276 27 1
1276 770 1
1276 830 1
1276 1217 1
1276 1688 1
1276 2064 1
1276 2102 1
1276 2373 1
1276 4716 1
1277 242 1
1277 345 1
1277 779 1
1277 988 1
1277 1892 1
1277 3326 1
1278 130 1
1278 283 1
1278 348 1
1278 962 1
1279 212 1
1279 290 1
1279 505 1
1279 882 1
1279 1325 1
1280 17 1
1280 467 1
1280 667 1
1280 743 1
1280 1690 1
1280 3489 1
1281 12 1
1281 771 1
1281 1162 1
1281 1249 1
1281 1564 1
1281 2005 1
1281 2012 1
1281 2698 1
1281 2800 1
1281 3171 1
1281 3258 1
1282 1 1
1282 212 1
1282 356 1
1282 770 1
1282 1462 1
1282 1583 1
1282 2038 1
1282 2105 1
1282 3720 1
1283 89 1
1283 154 1
1283 201 1
1283 520 1
1283 1292 1
1283 1419 1
1283 2343 1
1283 3966 1
1284 21 1
1284 66 1
1284 129 1
1284 747 1
1284 1603 1
1284 1753 1
1284 2931 1
1284 3181 1
1284 3625 1
1284 3830 1
1285 5 1
1285 167 1
1285 420 1
1285 1136 1
1285 1688 1
1285 1808 1
1285 3363 1
1285 3429 1
1286 9 1
1286 29 1
1286 275 1
1286 322 1
1286 1991 1
1286 3598 1
1286 4368 1
1287 400 1
1287 795 1
1287 803 1
1287 848 1
1288 169 1
1288 409 1
1288 889 1
1288 1124 1
1288 1405 1
1289 11 1
1289 349 1
1289 420 1
1289 1259 1
1289 1659 1
1289 2613 1
1289 2833 1
1289 3125 1
1289 3728 1
1289 3934 1
1289 3987 1
1290 11 1
1290 341 1
1290 989 1
1290 1156 1
1290 1749 1
1290 1805 1
1290 3385 1
1290 4252 1
1291 413 1
1291 441 1
1291 892 1
1291 945 1
1291 1821 1
1291 1864 1
1291 1885 1
1291 1889 1
1291 2244 1
1291 3592 1
1292 89 1
1292 201 1
1292 203 1
1292 1283 1
1292 1447 1
1292 2120 1
1292 2647 1
1292 2958 1
1292 3126 1
1293 9 1
1293 11 1
1293 61 1
1293 491 1
1293 2896 1
1294 77 1
1294 364 1
1294 950 1
1294 1145 1
1294 1448 1
1294 1578 1
1294 1725 1
1294 3503 1
1295 126 1
1295 268 1
1295 554 1
1295 662 1
1296 2 1
1296 12 1
1296 887 1
1296 1171 1
1297 25 1
1297 51 1
1297 248 1
1297 785 1
1297 2235 1
1297 2598 1
1297 2766 1
1297 3542 1
1297 4300 1
1297 4421 1
1297 4985 1
1298 478 1
1298 531 1
1298 583 1
1298 863 1
1298 2786 1
1298 3049 1
1298 3242 1
1298 4860 1
1299 10 1
1299 41 1
1299 212 1
1299 550 1
1299 2494 1
1299 4840 1
1300 131 1
1300 892 1
1300 898 1
1300 947 1
1300 1812 1
1300 1923 1
1300 2208 1
1300 3719 1
1300 4030 1
1300 4236 1
1300 4686 1
1301 105 1
1301 180 1
1301 765 1
1301 865 1
1301 1356 1
1301 1386 1
1301 1503 1
1301 1686 1
1301 2555 1
1301 3384 1
1301 3740 1
1301 4281 1
1301 4387 1
1301 4666 1
1302 26 1
1302 745 1
1302 947 1
1302 1176 1
1302 1422 1
1302 2300 1
1302 2345 1
1302 2511 1
1302 3151 1
1302 3193 1
1303 306 1
1303 511 1
1303 849 1
1303 1185 1
1303 2349 1
1304 137 1
1304 192 1
1304 275 1
1304 1064 1
1304 2657 1
1304 2735 1
1304 3040 1
1304 3252 1
1305 357 1
1305 1108 1
1305 1226 1
1305 1275 1
1305 2915 1
1305 4958 1
1306 20 1
1306 105 1
1306 373 1
1306 1107 1
1306 2033 1
1306 2392 1
1306 3602 1
1306 4231 1
1307 42 1
1307 530 1
1307 889 1
1307 939 1
1307 1490 1
1307 2421 1
1307 2689 1
1307 3213 1
1307 4432 1
1307 4664 1
1308 130 1
1308 283 1
1308 652 1
1308 1258 1
1308 1376 1
1308 2149 1
1308 2545 1
1308 2684 1
1308 3349 1
1308 3953 1
1308 4467 1
1308 4922 1
1309 153 1
1309 203 1
1309 558 1
1309 1173 1
1309 1952 1
1309 2750 1
1310 25 1
1310 117 1
1310 367 1
1310 685 1
1310 1621 1
1310 2994 1
1310 3210 1
1310 4073 1
1310 4355 1
1310 4977 1
1311 161 1
1311 625 1
1311 807 1
1311 1169 1
1311 1918 1
1311 2426 1
1311 2535 1
1312 21 1
1312 41 1
1312 554 1
1312 580 1
1312 1869 1
1312 4649 1
1313 28 1
1313 194 1
1313 741 1
1313 1124 1
1313 2219 1
1313 3997 1
1313 4433 1
1313 4770 1
1314 4 1
1314 11 1
1314 288 1
1314 433 1
1314 1327 1
1314 1434 1
1314 1885 1
1314 3237 1
1314 3560 1
1314 4063 1
1314 4884 1
1315 2 1
1315 25 1
1315 154 1
1315 454 1
1315 1482 1
1315 1529 1
1315 1961 1
1315 1962 1
1315 3562 1
1315 4128 1
1315 4270 1
1315 4401 1
1316 105 1
1316 332 1
1316 505 1
1316 1003 1
1316 1325 1
1316 2197 1
1316 2721 1
1316 2978 1
1316 2980 1
1316 3919 1
1316 4116 1
1316 4451 1
1316 4785 1
1317 499 1
1317 623 1
1317 703 1
1317 713 1
1317 2460 1
1317 3479 1
1318 474 1
1318 627 1
1318 925 1
1318 969 1
1318 4577 1
1319 13 1
1319 19 1
1319 43 1
1319 438 1
1319 2533 1
1319 3557 1
1320 98 1
1320 209 1
1320 655 1
1320 736 1
1320 2454 1
1321 162 1
1321 307 1
1321 714 1
1321 1134 1
1321 1700 1
1321 2121 1
1321 2286 1
1321 3365 1
1322 298 1
1322 339 1
1322 1162 1
1322 1189 1
1322 2094 1
1323 63 1
1323 67 1
1323 174 1
1323 249 1
1323 1450 1
1323 1823 1
1323 1919 1
1323 3057 1
1324 29 1
1324 135 1
1324 362 1
1324 734 1
1324 1346 1
1325 73 1
1325 505 1
1325 1279 1
1325 1316 1
1325 1557 1
1325 3398 1
1326 19 1
1326 324 1
1326 510 1
1326 690 1
1326 2507 1
1326 4050 1
1327 4 1
1327 705 1
1327 801 1
1327 1314 1
1327 1885 1
1327 2675 1
1327 3008 1
1327 4271 1
1328 49 1
1328 101 1
1328 306 1
1328 913 1
1328 1412 1
1328 1766 1
1328 1833 1
1328 2947 1
1328 4024 1
1329 26 1
1329 308 1
1329 323 1
1329 593 1
1329 1368 1
1329 2348 1
1329 2369 1
1329 2534 1
1329 2717 1
1329 2970 1
1329 2977 1
1329 3264 1
1329 3303 1
1329 4276 1
1330 3 1
1330 9 1
1330 137 1
1330 894 1
1330 2007 1
1330 3161 1
1331 11 1
1331 121 1
1331 173 1
1331 770 1
1331 1343 1
1331 1345 1
1331 1727 1
1331 1787 1
1331 2054 1
1331 2511 1
1332 45 1
1332 964 1
1332 998 1
1332 1269 1
1332 1557 1
1332 1972 1
1332 3729 1
1333 16 1
1333 129 1
1333 132 1
1333 839 1
1333 2478 1
1333 2901 1
1334 2 1
1334 283 1
1334 303 1
1334 759 1
1334 1549 1
1335 35 1
1335 290 1
1335 786 1
1335 1245 1
1335 3521 1
1335 4418 1
1336 75 1
1336 85 1
1336 242 1
1336 982 1
1336 4105 1
1337 194 1
1337 373 1
1337 443 1
1337 564 1
1337 2290 1
1337 3633 1
1337 3798 1
1337 4014 1
1338 84 1
1338 466 1
1338 660 1
1338 957 1
1338 3215 1
1338 3308 1
1338 3630 1
1339 141 1
1339 194 1
1339 296 1
1339 1018 1
1339 1388 1
1339 2763 1
1340 42 1
1340 158 1
1340 204 1
1340 417 1
1340 1354 1
1340 2096 1
1340 2413 1
1340 3169 1
1340 3392 1
1340 3526 1
1340 3801 1
1340 3896 1
1340 4210 1
1340 4552 1
1340 4946 1
1341 76 1
1341 120 1
1341 401 1
1341 1066 1
1341 1676 1
1341 2394 1
1341 3370 1
1341 4424 1
1341 4742 1
1342 92 1
1342 195 1
1342 856 1
1342 1216 1
1342 2836 1
1342 4068 1
1342 4129 1
1342 4691 1
1343 11 1
1343 343 1
1343 501 1
1343 1331 1
1343 2327 1
1343 3044 1
1344 33 1
1344 47 1
1344 109 1
1344 290 1
1344 1662 1
1345 28 1
1345 173 1
1345 337 1
1345 1331 1
1345 2472 1
1345 2690 1
1346 36 1
1346 493 1
1346 590 1
1346 1324 1
1346 3147 1
1346 4724 1
1347 81 1
1347 155 1
1347 350 1
1347 353 1
1347 1571 1
1347 2179 1
1347 2265 1
1347 3550 1
1348 332 1
1348 425 1
1348 1093 1
1348 1210 1
1348 2729 1
1348 2789 1
1348 2876 1
1349 518 1
1349 571 1
1349 972 1
1349 1100 1
1349 2172 1
1349 3419 1
1350 3 1
1350 138 1
1350 267 1
1350 972 1
1350 1967 1
1350 1994 1
1350 2300 1
1350 3592 1
1350 4656 1
1351 36 1
1351 53 1
1351 549 1
1351 793 1
1351 2159 1
1351 2480 1
1351 3312 1
1352 35 1
1352 41 1
1352 548 1
1352 876 1
1353 68 1
1353 113 1
1353 318 1
1353 875 1
1353 3259 1
1353 4257 1
1353 4666 1
1353 4686 1
1354 42 1
1354 367 1
1354 970 1
1354 1340 1
1354 1382 1
1354 1563 1
1354 1648 1
1354 2136 1
1354 2335 1
1355 184 1
1355 264 1
1355 305 1
1355 781 1
1355 2006 1
1355 2021 1
1355 4632 1
1356 101 1
1356 497 1
1356 634 1
1356 1301 1
1356 1386 1
1356 1410 1
1356 1995 1
1356 3445 1
1356 3649 1
1356 3695 1
1356 3883 1
1356 4906 1
1357 235 1
1357 420 1
1357 688 1
1357 1019 1
1357 2132 1
1357 2965 1
1358 14 1
1358 49 1
1358 58 1
1358 841 1
1358 1571 1
1358 2898 1
1359 307 1
1359 354 1
1359 605 1
1359 794 1
1359 1754 1
1359 2470 1
1359 2641 1
1359 3487 1
1359 3648 1
1359 3831 1
1360 10 1
1360 133 1
1360 308 1
1360 763 1
1360 1717 1
1360 1944 1
1360 2993 1
1360 3465 1
1360 3497 1
1361 185 1
1361 316 1
1361 558 1
1361 629 1
1361 1372 1
1361 1922 1
1361 2738 1
1361 3007 1
1361 4700 1
1362 249 1
1362 298 1
1362 347 1
1362 964 1
1362 1381 1
1362 1653 1
1362 2820 1
1362 3735 1
1362 3882 1
1362 4520 1
1362 4650 1
1362 4783 1
1362 4837 1
1363 1 1
1363 94 1
1363 174 1
1363 751 1
1363 1467 1
1363 1714 1
1363 3232 1
1363 3589 1
1363 3927 1
1364 57 1
1364 100 1
1364 158 1
1364 885 1
1364 1847 1
1364 1953 1
1364 3639 1
1364 4385 1
1365 250 1
1365 341 1
1365 1155 1
1365 1231 1
1365 2666 1
1365 2877 1
1365 3276 1
1365 4622 1
1366 131 1
1366 189 1
1366 365 1
1366 538 1
1366 2173 1
1366 2970 1
1366 3577 1
1366 4010 1
1367 251 1
1367 625 1
1367 682 1
1367 989 1
1367 2373 1
1367 2859 1
1367 3380 1
1368 26 1
1368 338 1
1368 875 1
1368 1329 1
1368 1946 1
1369 35 1
1369 86 1
1369 116 1
1369 847 1
1369 3148 1
1369 4583 1
1369 4988 1
1370 169 1
1370 172 1
1370 270 1
1370 900 1
1370 2412 1
1370 3448 1
1370 4273 1
1370 4315 1
1370 4576 1
1371 6 1
1371 89 1
1371 177 1
1371 419 1
1371 2376 1
1371 3603 1
1372 9 1
1372 447 1
1372 629 1
1372 1361 1
1372 3490 1
1373 45 1
1373 608 1
1373 701 1
1373 1244 1
1374 113 1
1374 194 1
1374 244 1
1374 637 1
1374 2164 1
1374 3038 1
1374 3739 1
1375 36 1
1375 105 1
1375 106 1
1375 431 1
1375 3337 1
1375 3535 1
1375 4126 1
1375 4579 1
1376 10 1
1376 81 1
1376 781 1
1376 1308 1
1377 25 1
1377 275 1
1377 954 1
1377 1068 1
1377 1654 1
1377 1700 1
1377 2209 1
1377 2596 1
1377 3041 1
1377 3205 1
1377 3416 1
1377 3874 1
1377 4199 1
1377 4822 1
1378 98 1
1378 146 1
1378 222 1
1378 403 1
1378 2005 1
1378 2343 1
1378 2687 1
1378 3299 1
1379 211 1
1379 253 1
1379 705 1
1379 917 1
1379 1679 1
1379 1687 1
1379 2507 1
1380 10 1
1380 74 1
1380 517 1
1380 671 1
1380 1938 1
1380 3216 1
1380 4149 1
1380 4274 1
1381 177 1
1381 282 1
1381 345 1
1381 1362 1
1381 1580 1
1381 3292 1
1381 3840 1
1381 3882 1
1381 3963 1
1381 4341 1
1382 42 1
1382 385 1
1382 841 1
1382 1354 1
1383 98 1
1383 105 1
1383 268 1
1383 369 1
1384 23 1
1384 84 1
1384 538 1
1384 1223 1
1384 1668 1
1384 3504 1
1384 4639 1
1385 10 1
1385 597 1
1385 837 1
1385 1192 1
1385 1531 1
1385 2623 1
1385 3375 1
1385 3448 1
1385 3627 1
1385 3693 1
1386 52 1
1386 101 1
1386 1301 1
1386 1356 1
1386 1814 1
1386 3883 1
1387 90 1
1387 201 1
1387 856 1
1387 969 1
1387 2580 1
1387 3877 1
1388 17 1
1388 174 1
1388 177 1
1388 1339 1
1388 3003 1
1389 29 1
1389 70 1
1389 563 1
1389 634 1
1389 1881 1
1389 2962 1
1389 3269 1
1389 3365 1
1389 3660 1
1389 3869 1
1389 4507 1
1389 4703 1
1389 4854 1
1390 135 1
1390 211 1
1390 665 1
1390 1214 1
1390 1675 1
1390 4910 1
1391 369 1
1391 469 1
1391 698 1
1391 951 1
1391 3301 1
1392 83 1
1392 142 1
1392 226 1
1392 239 1
1393 8 1
1393 235 1
1393 345 1
1393 856 1
1393 1451 1
1393 1789 1
1393 2127 1
1393 4602 1
1394 268 1
1394 295 1
1394 649 1
1394 1098 1
1394 1671 1
1395 75 1
1395 543 1
1395 889 1
1395 1021 1
1395 2499 1
1395 3019 1
1395 3512 1
1396 10 1
1396 283 1
1396 936 1
1396 941 1
1396 1513 1
1397 9 1
1397 89 1
1397 469 1
1397 951 1
1397 1561 1
1397 1615 1
1397 3492 1
1397 4811 1
1398 2 1
1398 20 1
1398 154 1
1398 393 1
1399 120 1
1399 169 1
1399 589 1
1399 1070 1
1399 2644 1
1399 3134 1
1399 4856 1
1400 194 1
1400 525 1
1400 578 1
1400 1179 1
1401 19 1
1401 52 1
1401 595 1
1401 813 1
1401 2936 1
1401 3742 1
1401 4872 1
1402 5 1
1402 71 1
1402 194 1
1402 242 1
1402 2131 1
1402 2146 1
1402 2746 1
1402 3584 1
1402 4604 1
1403 62 1
1403 121 1
1403 1074 1
1403 1254 1
1403 4174 1
1404 5 1
1404 1200 1
1404 1226 1
1404 1229 1
1404 1540 1
1404 3028 1
1404 4744 1
1405 406 1
1405 633 1
1405 1124 1
1405 1288 1
1405 1698 1
1405 3547 1
1406 162 1
1406 379 1
1406 451 1
1406 815 1
1406 2013 1
1407 3 1
1407 475 1
1407 618 1
1407 1177 1
1407 1708 1
1407 1793 1
1407 2113 1
1407 3218 1
1407 3497 1
1408 19 1
1408 115 1
1408 299 1
1408 1165 1
1408 2551 1
1409 13 1
1409 17 1
1409 23 1
1409 141 1
1409 1984 1
1409 3684 1
1410 75 1
1410 705 1
1410 850 1
1410 1356 1
1410 1616 1
1410 2838 1
1410 3429 1
1411 50 1
1411 147 1
1411 531 1
1411 658 1
1411 1512 1
1411 2012 1
1411 2490 1
1411 2890 1
1411 4946 1
1412 42 1
1412 72 1
1412 511 1
1412 1328 1
1412 1514 1
1412 2035 1
1412 2153 1
1412 2882 1
1413 2 1
1413 404 1
1413 715 1
1413 762 1
1413 2369 1
1413 2426 1
1413 2471 1
1413 3206 1
1413 3519 1
1413 3949 1
1413 4066 1
1413 4098 1
1413 4965 1
1414 25 1
1414 874 1
1414 1005 1
1414 1225 1
1415 89 1
1415 91 1
1415 203 1
1415 368 1
1415 1765 1
1415 2627 1
1415 2667 1
1416 155 1
1416 572 1
1416 901 1
1416 1109 1
1417 17 1
1417 20 1
1417 27 1
1417 91 1
1417 2532 1
1417 2680 1
1417 4029 1
1417 4365 1
1418 114 1
1418 368 1
1418 618 1
1418 680 1
1418 1707 1
1418 1834 1
1418 3260 1
1418 3550 1
1418 3656 1
1418 4295 1
1419 353 1
1419 849 1
1419 1155 1
1419 1283 1
1419 1630 1
1419 1983 1
1419 2266 1
1419 3210 1
1419 3817 1
1419 4049 1
1419 4703 1
1419 4950 1
1420 91 1
1420 347 1
1420 624 1
1420 756 1
1420 2264 1
1420 3351 1
1420 4840 1
1421 18 1
1421 92 1
1421 137 1
1421 899 1
1421 3180 1
1421 3670 1
1422 5 1
1422 947 1
1422 1058 1
1422 1302 1
1422 2962 1
1422 3189 1
1422 3660 1
1422 4707 1
1423 41 1
1423 92 1
1423 300 1
1423 776 1
1423 1430 1
1424 89 1
1424 161 1
1424 396 1
1424 1025 1
1424 2441 1
1424 3531 1
1424 4509 1
1425 94 1
1425 143 1
1425 761 1
1425 899 1
1425 1518 1
1425 1865 1
1425 2626 1
1425 2629 1
1425 3124 1
1425 3149 1
1425 4571 1
1425 4994 1
1426 19 1
1426 21 1
1426 857 1
1426 1086 1
1426 1885 1
1426 1980 1
1426 2101 1
1426 2158 1
1426 3594 1
1426 4180 1
1426 4476 1
1426 4481 1
1426 4808 1
1427 9 1
1427 12 1
1427 41 1
1427 173 1
1427 1587 1
1427 3261 1
1427 3574 1
1427 4187 1
1427 4960 1
1428 27 1
1428 131 1
1428 428 1
1428 894 1
1428 1613 1
1428 3172 1
1428 3940 1
1429 18 1
1429 319 1
1429 1008 1
1429 1188 1
1429 1941 1
1429 1943 1
1429 2260 1
1429 3719 1
1429 3727 1
1430 77 1
1430 300 1
1430 388 1
1430 1423 1
1431 91 1
1431 317 1
1431 506 1
1431 1177 1
1431 2482 1
1431 2862 1
1431 3577 1
1431 3642 1
1432 234 1
1432 470 1
1432 1126 1
1432 1162 1
1432 4455 1
1433 51 1
1433 158 1
1433 906 1
1433 952 1
1433 2042 1
1433 3913 1
1434 44 1
1434 307 1
1434 1247 1
1434 1314 1
1435 75 1
1435 233 1
1435 580 1
1435 721 1
1435 1610 1
1435 1799 1
1435 1995 1
1435 2206 1
1435 2667 1
1435 2694 1
1435 2745 1
1435 2920 1
1435 3551 1
1435 4011 1
1436 35 1
1436 188 1
1436 1044 1
1436 1080 1
1436 2565 1
1436 4591 1
1437 37 1
1437 115 1
1437 194 1
1437 327 1
1437 1608 1
1437 1883 1
1437 2546 1
1437 2979 1
1437 3227 1
1437 4284 1
1437 4882 1
1438 51 1
1438 184 1
1438 405 1
1438 475 1
1438 1952 1
1438 3077 1
1438 3828 1
1439 290 1
1439 381 1
1439 786 1
1439 1017 1
1439 4935 1
1440 29 1
1440 146 1
1440 553 1
1440 1123 1
1440 1473 1
1441 152 1
1441 729 1
1441 1213 1
1441 1266 1
1442 74 1
1442 681 1
1442 800 1
1442 955 1
1442 2080 1
1442 2978 1
1442 4766 1
1443 1 1
1443 19 1
1443 1150 1
1443 1176 1
1443 2041 1
1443 3332 1
1443 3949 1
1443 3977 1
1444 27 1
1444 332 1
1444 382 1
1444 780 1
1444 1772 1
1444 1842 1
1444 2231 1
1444 2571 1
1444 2903 1
1444 3748 1
1444 3854 1
1445 75 1
1445 105 1
1445 380 1
1445 385 1
1445 4065 1
1446 3 1
1446 105 1
1446 317 1
1446 615 1
1446 2297 1
1446 2562 1
1446 2933 1
1446 3182 1
1446 3438 1
1446 4811 1
1447 162 1
1447 201 1
1447 919 1
1447 1292 1
1447 1628 1
1448 3 1
1448 154 1
1448 364 1
1448 1294 1
1448 2151 1
1448 2184 1
1449 75 1
1449 137 1
1449 348 1
1449 564 1
1449 1612 1
1449 2676 1
1449 2700 1
1449 3390 1
1449 3856 1
1450 41 1
1450 77 1
1450 1162 1
1450 1323 1
1450 1569 1
1450 2312 1
1450 2569 1
1450 4171 1
1450 4238 1
1451 308 1
1451 419 1
1451 856 1
1451 1393 1
1451 2740 1
1451 2870 1
1451 3567 1
1451 3833 1
1452 161 1
1452 338 1
1452 491 1
1452 545 1
1452 2433 1
1452 2998 1
1453 228 1
1453 241 1
1453 471 1
1453 966 1
1453 2198 1
1453 2700 1
1453 3951 1
1454 84 1
1454 90 1
1454 868 1
1454 935 1
1454 1553 1
1454 2891 1
1454 4605 1
1455 10 1
1455 48 1
1455 583 1
1455 803 1
1455 1573 1
1456 177 1
1456 431 1
1456 619 1
1456 839 1
1457 26 1
1457 113 1
1457 122 1
1457 769 1
1457 2278 1
1457 2932 1
1457 3154 1
1457 3348 1
1457 3666 1
1457 3870 1
1457 4357 1
1457 4606 1
1458 26 1
1458 50 1
1458 147 1
1458 500 1
1458 1525 1
1458 1608 1
1458 3592 1
1459 26 1
1459 56 1
1459 234 1
1459 814 1
1459 2367 1
1459 3072 1
1460 5 1
1460 357 1
1460 374 1
1460 1094 1
1460 4180 1
1460 4549 1
1461 43 1
1461 373 1
1461 429 1
1461 1179 1
1461 2028 1
1461 4414 1
1462 1 1
1462 166 1
1462 479 1
1462 1282 1
1462 2158 1
1462 2250 1
1462 2774 1
1462 3093 1
1463 3 1
1463 67 1
1463 92 1
1463 745 1
1463 2345 1
1463 3881 1
1464 97 1
1464 339 1
1464 733 1
1464 1157 1
1464 3745 1
1465 20 1
1465 33 1
1465 940 1
1465 1075 1
1465 1693 1
1465 2029 1
1465 3163 1
1466 3 1
1466 5 1
1466 825 1
1466 1263 1
1466 1704 1
1466 4933 1
1467 117 1
1467 159 1
1467 246 1
1467 1363 1
1467 1778 1
1467 1793 1
1467 1849 1
1467 2021 1
1467 2071 1
1467 2109 1
1467 2512 1
1467 3459 1
1467 3470 1
1467 4003 1
1468 1 1
1468 139 1
1468 617 1
1468 784 1
1468 1613 1
1468 1659 1
1468 4759 1
1469 218 1
1469 652 1
1469 1241 1
1469 1258 1
1469 2822 1
1469 3349 1
1469 3860 1
1469 3869 1
1469 4641 1
1470 109 1
1470 274 1
1470 321 1
1470 649 1
1470 2164 1
1470 2334 1
1470 2350 1
1470 2943 1
1471 356 1
1471 445 1
1471 481 1
1471 909 1
1471 1893 1
1471 1996 1
1472 24 1
1472 325 1
1472 470 1
1472 563 1
1472 2311 1
1472 3612 1
1472 3842 1
1473 52 1
1473 146 1
1473 1093 1
1473 1440 1
1473 1533 1
1473 1581 1
1473 2672 1
1474 132 1
1474 306 1
1474 511 1
1474 865 1
1474 3683 1
1474 3751 1
1475 270 1
1475 508 1
1475 758 1
1475 1118 1
1475 1592 1
1475 2304 1
1475 2910 1
1475 3021 1
1475 3089 1
1475 3399 1
1475 3724 1
1475 3878 1
1475 4138 1
1476 74 1
1476 206 1
1476 925 1
1476 944 1
1476 1501 1
1476 4566 1
1477 19 1
1477 20 1
1477 418 1
1477 484 1
1477 1564 1
1477 2067 1
1477 2938 1
1478 256 1
1478 376 1
1478 400 1
1478 774 1
1478 1520 1
1479 20 1
1479 52 1
1479 113 1
1479 484 1
1479 1619 1
1479 1713 1
1479 2109 1
1479 2270 1
1479 3430 1
1479 4897 1
1480 1 1
1480 407 1
1480 516 1
1480 943 1
1480 3073 1
1481 158 1
1481 287 1
1481 621 1
1481 1260 1
1482 666 1
1482 911 1
1482 1127 1
1482 1315 1
1482 1962 1
1482 2364 1
1482 4834 1
1483 12 1
1483 41 1
1483 957 1
1483 1258 1
1483 1867 1
1483 2345 1
1483 2764 1
1483 4659 1
1484 9 1
1484 332 1
1484 780 1
1484 1066 1
1484 2048 1
1484 2411 1
1484 3115 1
1484 3236 1
1484 3815 1
1484 3826 1
1484 4391 1
1484 4613 1
1485 37 1
1485 56 1
1485 108 1
1485 698 1
1485 1831 1
1485 2280 1
1486 250 1
1486 366 1
1486 663 1
1486 1032 1
1486 1738 1
1486 1884 1
1487 37 1
1487 464 1
1487 533 1
1487 660 1
1487 2310 1
1487 2509 1
1488 87 1
1488 169 1
1488 259 1
1488 1050 1
1488 4054 1
1489 138 1
1489 613 1
1489 934 1
1489 977 1
1489 1525 1
1489 3746 1
1489 4117 1
1489 4293 1
1489 4496 1
1489 4527 1
1489 4824 1
1490 109 1
1490 246 1
1490 418 1
1490 1307 1
1490 1551 1
1490 1710 1
1490 2158 1
1490 2686 1
1490 2772 1
1490 4954 1
1491 410 1
1491 793 1
1491 875 1
1491 1016 1
1491 2332 1
1491 3253 1
1491 3508 1
1492 244 1
1492 373 1
1492 493 1
1492 874 1
1492 4026 1
1492 4251 1
1492 4352 1
1493 155 1
1493 262 1
1493 953 1
1493 1061 1
1493 2150 1
1493 2468 1
1493 2733 1
1493 2808 1
1493 3374 1
1494 52 1
1494 405 1
1494 648 1
1494 727 1
1494 1581 1
1494 2665 1
1495 3 1
1495 329 1
1495 355 1
1495 561 1
1495 1759 1
1495 2036 1
1495 2855 1
1495 2884 1
1495 3604 1
1495 3922 1
1495 3937 1
1495 3948 1
1496 142 1
1496 219 1
1496 242 1
1496 1215 1
1497 19 1
1497 25 1
1497 35 1
1497 448 1
1497 1553 1
1497 2076 1
1497 3339 1
1497 3860 1
1498 118 1
1498 153 1
1498 439 1
1498 1163 1
1498 4054 1
1498 4286 1
1498 4486 1
1499 64 1
1499 489 1
1499 492 1
1499 542 1
1499 1654 1
1500 102 1
1500 530 1
1500 807 1
1500 1130 1
1500 3259 1
1500 3978 1
1500 4340 1
1500 4730 1
1501 90 1
1501 358 1
1501 925 1
1501 1476 1
1501 3243 1
1501 4376 1
1502 25 1
1502 60 1
1502 737 1
1502 1162 1
1502 1516 1
1502 2393 1
1502 3786 1
1502 4617 1
1503 84 1
1503 765 1
1503 893 1
1503 1301 1
1503 2050 1
1503 2446 1
1503 3622 1
1504 20 1
1504 706 1
1504 884 1
1504 986 1
1505 5 1
1505 324 1
1505 421 1
1505 1057 1
1505 2403 1
1505 2420 1
1505 3132 1
1505 4689 1
1506 28 1
1506 53 1
1506 510 1
1506 898 1
1506 1703 1
1506 4012 1
1507 363 1
1507 549 1
1507 749 1
1507 817 1
1507 1547 1
1507 1791 1
1507 2400 1
1507 2543 1
1507 2808 1
1507 4304 1
1507 4822 1
1508 100 1
1508 199 1
1508 346 1
1508 1894 1
1509 130 1
1509 417 1
1509 1007 1
1509 1123 1
1509 1519 1
1509 1615 1
1509 4990 1
1510 1 1
1510 129 1
1510 175 1
1510 629 1
1510 1541 1
1510 4928 1
1511 47 1
1511 406 1
1511 561 1
1511 659 1
1511 1705 1
1511 3048 1
1511 4178 1
1512 50 1
1512 679 1
1512 1043 1
1512 1411 1
1512 3834 1
1513 17 1
1513 194 1
1513 283 1
1513 1396 1
1513 1631 1
1513 2255 1
1513 2532 1
1513 3623 1
1513 4652 1
1514 5 1
1514 416 1
1514 1262 1
1514 1412 1
1514 2137 1
1514 2256 1
1514 3683 1
1515 305 1
1515 337 1
1515 566 1
1515 753 1
1515 1876 1
1515 1920 1
1515 2195 1
1515 2582 1
1515 3996 1
1515 4936 1
1516 76 1
1516 401 1
1516 1060 1
1516 1502 1
1516 1891 1
1516 2429 1
1516 3738 1
1516 3997 1
1516 4884 1
1517 2 1
1517 85 1
1517 249 1
1517 510 1
1517 1665 1
1517 2650 1
1517 4830 1
1518 25 1
1518 44 1
1518 171 1
1518 1425 1
1518 1794 1
1518 3240 1
1519 17 1
1519 130 1
1519 1202 1
1519 1509 1
1519 2797 1
1519 3028 1
1519 4021 1
1520 29 1
1520 358 1
1520 532 1
1520 1478 1
1520 2610 1
1520 2756 1
1520 3942 1
1521 29 1
1521 52 1
1521 172 1
1521 962 1
1521 1980 1
1521 2423 1
1521 3300 1
1521 3350 1
1521 3773 1
1521 3802 1
1521 3858 1
1521 4056 1
1521 4586 1
1522 2 1
1522 49 1
1522 101 1
1522 290 1
1522 2349 1
1522 2628 1
1522 3774 1
1522 4701 1
1522 4943 1
1523 57 1
1523 760 1
1523 898 1
1523 1200 1
1523 1740 1
1523 1963 1
1523 2078 1
1523 2720 1
1523 3118 1
1523 3898 1
1523 4269 1
1523 4317 1
1524 113 1
1524 254 1
1524 379 1
1524 489 1
1524 1746 1
1524 1796 1
1524 1876 1
1524 2446 1
1524 3819 1
1524 3928 1
1525 137 1
1525 138 1
1525 1458 1
1525 1489 1
1525 4293 1
1526 443 1
1526 629 1
1526 707 1
1526 773 1
1526 1669 1
1526 2755 1
1526 2813 1
1526 2986 1
1526 4063 1
1526 4067 1
1526 4332 1
1527 15 1
1527 17 1
1527 192 1
1527 1125 1
1527 2520 1
1527 3852 1
1528 555 1
1528 913 1
1528 999 1
1528 1095 1
1528 2184 1
1529 346 1
1529 681 1
1529 971 1
1529 1315 1
1529 2034 1
1529 2082 1
1529 3010 1
1529 3182 1
1529 3740 1
1529 4727 1
1530 155 1
1530 283 1
1530 348 1
1530 747 1
1530 1607 1
1530 1753 1
1530 1898 1
1530 2526 1
1530 4562 1
1531 10 1
1531 100 1
1531 597 1
1531 1385 1
1531 1743 1
1531 1773 1
1531 2427 1
1531 2529 1
1531 2731 1
1531 3602 1
1531 4233 1
1532 34 1
1532 102 1
1532 318 1
1532 870 1
1532 1681 1
1532 2303 1
1532 2813 1
1532 3361 1
1532 4177 1
1533 52 1
1533 1159 1
1533 1250 1
1533 1473 1
1534 3 1
1534 171 1
1534 380 1
1534 849 1
1534 1678 1
1534 1933 1
1534 2020 1
1534 2194 1
1535 46 1
1535 99 1
1535 132 1
1535 344 1
1535 4755 1
1536 17 1
1536 567 1
1536 899 1
1536 972 1
1537 267 1
1537 514 1
1537 553 1
1537 676 1
1537 2088 1
1537 2436 1
1537 2476 1
1537 3057 1
1537 3647 1
1537 3784 1
1537 4140 1
1537 4185 1
1537 4512 1
1537 4801 1
1538 34 1
1538 193 1
1538 1018 1
1538 1094 1
1538 2036 1
1538 2352 1
1538 3463 1
1538 4964 1
1539 79 1
1539 304 1
1539 382 1
1539 745 1
1539 1734 1
1539 3600 1
1540 397 1
1540 899 1
1540 1180 1
1540 1404 1
1540 3083 1
1540 3746 1
1540 4643 1
1540 4902 1
1541 1 1
1541 26 1
1541 218 1
1541 1510 1
1541 4928 1
1542 52 1
1542 260 1
1542 271 1
1542 1101 1
1543 130 1
1543 182 1
1543 419 1
1543 1217 1
1543 1715 1
1543 2241 1
1543 2962 1
1543 3144 1
1543 3284 1
1544 82 1
1544 118 1
1544 201 1
1544 1203 1
1544 3877 1
1544 4298 1
1545 58 1
1545 364 1
1545 572 1
1545 1145 1
1545 1561 1
1545 1754 1
1545 1760 1
1545 1965 1
1545 2315 1
1546 331 1
1546 444 1
1546 622 1
1546 738 1
1547 198 1
1547 452 1
1547 551 1
1547 1507 1
1547 2175 1
1547 3066 1
1547 3898 1
1548 49 1
1548 322 1
1548 677 1
1548 1046 1
1548 1698 1
1548 3124 1
1548 3382 1
1549 5 1
1549 414 1
1549 907 1
1549 1334 1
1549 1853 1
1549 2549 1
1549 4215 1
1549 4735 1
1550 2 1
1550 53 1
1550 680 1
1550 1123 1
1550 1615 1
1550 2223 1
1550 2637 1
1550 4985 1
1551 70 1
1551 186 1
1551 246 1
1551 1490 1
1551 4022 1
1552 91 1
1552 175 1
1552 356 1
1552 847 1
1552 4131 1
1553 35 1
1553 139 1
1553 1454 1
1553 1497 1
1553 1630 1
1553 2139 1
1553 4306 1
1554 81 1
1554 113 1
1554 189 1
1554 395 1
1554 4068 1
1555 251 1
1555 262 1
1555 388 1
1555 477 1
1555 2367 1
1555 3422 1
1555 4660 1
1556 1 1
1556 801 1
1556 1116 1
1556 1257 1
1556 1936 1
1556 3407 1
1556 3485 1
1556 3613 1
1557 132 1
1557 393 1
1557 1325 1
1557 1332 1
1557 1646 1
1557 1815 1
1557 3104 1
1557 3506 1
1557 4103 1
1558 26 1
1558 67 1
1558 265 1
1558 309 1
1558 2648 1
1558 4066 1
1559 19 1
1559 51 1
1559 85 1
1559 1237 1
1560 43 1
1560 59 1
1560 178 1
1560 1162 1
1561 261 1
1561 624 1
1561 1397 1
1561 1545 1
1561 1904 1
1561 4544 1
1562 2 1
1562 92 1
1562 163 1
1562 1184 1
1562 1716 1
1562 1856 1
1562 2059 1
1562 2546 1
1562 2908 1
1562 3025 1
1562 3303 1
1562 3411 1
1562 4581 1
1562 4738 1
1563 42 1
1563 198 1
1563 219 1
1563 1354 1
1563 1786 1
1563 1942 1
1563 2576 1
1563 3866 1
1563 4358 1
1563 4546 1
1564 12 1
1564 83 1
1564 1281 1
1564 1477 1
1565 353 1
1565 814 1
1565 913 1
1565 1209 1
1565 2696 1
1565 4351 1
1566 16 1
1566 61 1
1566 68 1
1566 396 1
1566 3154 1
1566 3597 1
1567 25 1
1567 105 1
1567 626 1
1567 700 1
1567 2167 1
1567 3029 1
1567 4522 1
1567 4668 1
1567 4863 1
1568 109 1
1568 494 1
1568 566 1
1568 1186 1
1569 77 1
1569 1137 1
1569 1162 1
1569 1450 1
1569 1592 1
1569 2312 1
1569 3308 1
1569 4238 1
1570 13 1
1570 89 1
1570 250 1
1570 1183 1
1570 2816 1
1571 49 1
1571 194 1
1571 1347 1
1571 1358 1
1571 2819 1
1571 4367 1
1571 4734 1
1572 2 1
1572 52 1
1572 311 1
1572 858 1
1572 2706 1
1572 2826 1
1572 4330 1
1573 25 1
1573 361 1
1573 1248 1
1573 1455 1
1573 1934 1
1574 52 1
1574 185 1
1574 731 1
1574 1240 1
1574 2921 1
1575 158 1
1575 478 1
1575 1152 1
1575 1211 1
1575 2444 1
1576 24 1
1576 331 1
1576 543 1
1576 1242 1
1576 2985 1
1577 17 1
1577 41 1
1577 46 1
1577 271 1
1577 1903 1
1577 2062 1
1578 331 1
1578 732 1
1578 1145 1
1578 1294 1
1578 1764 1
1578 1897 1
1578 2450 1
1579 83 1
1579 423 1
1579 665 1
1579 968 1
1579 2951 1
1580 177 1
1580 476 1
1580 901 1
1580 1381 1
1580 3297 1
1581 52 1
1581 318 1
1581 1473 1
1581 1494 1
1581 1732 1
1581 4702 1
1581 4990 1
1582 35 1
1582 95 1
1582 357 1
1582 1098 1
1582 1777 1
1582 2342 1
1582 2486 1
1583 212 1
1583 594 1
1583 619 1
1583 1282 1
1583 1652 1
1583 2524 1
1583 2581 1
1584 277 1
1584 887 1
1584 1009 1
1584 1053 1
1584 2119 1
1584 2617 1
1585 154 1
1585 221 1
1585 506 1
1585 817 1
1585 2455 1
1585 2588 1
1585 4449 1
1586 25 1
1586 597 1
1586 621 1
1586 853 1
1586 1917 1
1586 2298 1
1586 2873 1
1586 2959 1
1586 3210 1
1586 4388 1
1586 4977 1
1587 173 1
1587 209 1
1587 562 1
1587 1427 1
1587 1664 1
1587 1923 1
1587 1950 1
1587 2944 1
1587 3111 1
1587 3409 1
1587 4249 1
1587 4290 1
1587 4423 1
1587 4626 1
1587 4826 1
1588 18 1
1588 358 1
1588 470 1
1588 845 1
1588 2113 1
1588 2630 1
1589 42 1
1589 129 1
1589 139 1
1589 309 1
1589 1795 1
1589 2421 1
1589 3542 1
1590 5 1
1590 12 1
1590 35 1
1590 544 1
1590 1618 1
1590 2768 1
1590 4089 1
1591 102 1
1591 302 1
1591 764 1
1591 1099 1
1591 2207 1
1591 2491 1
1592 162 1
1592 1233 1
1592 1475 1
1592 1569 1
1592 2324 1
1592 3538 1
1592 3782 1
1593 345 1
1593 411 1
1593 652 1
1593 1178 1
1593 2778 1
1593 3138 1
1593 3212 1
1593 3475 1
1594 36 1
1594 489 1
1594 603 1
1594 1207 1
1594 1602 1
1594 4981 1
1595 5 1
1595 153 1
1595 543 1
1595 1063 1
1595 1607 1
1595 1695 1
1595 2422 1
1595 2665 1
1595 2699 1
1595 3277 1
1596 5 1
1596 342 1
1596 399 1
1596 466 1
1596 2803 1
1596 2917 1
1596 3241 1
1596 3358 1
1597 70 1
1597 268 1
1597 634 1
1597 1079 1
1597 3747 1
1598 43 1
1598 44 1
1598 201 1
1598 979 1
1598 4473 1
1598 4648 1
1598 4812 1
1598 4936 1
1599 53 1
1599 285 1
1599 778 1
1599 869 1
1599 3734 1
1599 3845 1
1600 11 1
1600 161 1
1600 491 1
1600 964 1
1601 3 1
1601 5 1
1601 876 1
1601 1183 1
1601 1822 1
1601 2245 1
1601 4875 1
1602 324 1
1602 603 1
1602 1207 1
1602 1594 1
1602 1828 1
1602 3127 1
1602 3533 1
1602 4047 1
1602 4981 1
1603 223 1
1603 963 1
1603 1099 1
1603 1284 1
1603 1606 1
1603 1743 1
1603 2486 1
1603 2630 1
1603 2915 1
1603 3033 1
1603 3309 1
1604 2 1
1604 43 1
1604 141 1
1604 932 1
1604 3633 1
1604 3907 1
1604 4430 1
1604 4479 1
1604 4894 1
1605 37 1
1605 477 1
1605 895 1
1605 995 1
1605 3839 1
1605 4890 1
1606 798 1
1606 963 1
1606 1051 1
1606 1603 1
1606 3357 1
1606 4721 1
1606 4816 1
1606 4874 1
1607 486 1
1607 1057 1
1607 1530 1
1607 1595 1
1607 1755 1
1608 37 1
1608 561 1
1608 1437 1
1608 1458 1
1608 2266 1
1609 97 1
1609 469 1
1609 934 1
1609 1035 1
1609 2288 1
1609 3510 1
1609 3582 1
1609 4857 1
1610 10 1
1610 749 1
1610 817 1
1610 1435 1
1610 1776 1
1610 1782 1
1610 1871 1
1610 1995 1
1610 2522 1
1610 2560 1
1610 2920 1
1610 4369 1
1610 4492 1
1610 4864 1
1611 123 1
1611 168 1
1611 266 1
1611 503 1
1611 2003 1
1611 2605 1
1611 3262 1
1611 4609 1
1611 4793 1
1612 137 1
1612 283 1
1612 1084 1
1612 1449 1
1612 3554 1
1612 4176 1
1613 139 1
1613 334 1
1613 1428 1
1613 1468 1
1613 2287 1
1613 2467 1
1613 2810 1
1613 2884 1
1613 3690 1
1613 4353 1
1614 3 1
1614 17 1
1614 548 1
1614 1195 1
1614 3186 1
1614 3954 1
1614 4949 1
1615 236 1
1615 1397 1
1615 1509 1
1615 1550 1
1616 58 1
1616 75 1
1616 1046 1
1616 1410 1
1616 3547 1
1616 3871 1
1617 62 1
1617 193 1
1617 355 1
1617 814 1
1617 1669 1
1617 3082 1
1617 3488 1
1617 4115 1
1617 4154 1
1618 19 1
1618 99 1
1618 1087 1
1618 1590 1
1618 2854 1
1618 2931 1
1618 4148 1
1618 4311 1
1619 52 1
1619 405 1
1619 1169 1
1619 1479 1
1619 3735 1
1619 3825 1
1619 4007 1
1620 49 1
1620 71 1
1620 83 1
1620 1108 1
1620 1776 1
1620 1866 1
1620 1947 1
1620 2667 1
1620 3386 1
1621 25 1
1621 91 1
1621 307 1
1621 1310 1
1621 2212 1
1621 3017 1
1621 3072 1
1621 3889 1
1621 4355 1
1622 25 1
1622 129 1
1622 481 1
1622 921 1
1622 1893 1
1622 2150 1
1622 2771 1
1622 3266 1
1622 3505 1
1622 3912 1
1622 4356 1
1622 4481 1
1622 4530 1
1622 4871 1
1623 17 1
1623 874 1
1623 1184 1
1623 1225 1
1623 2649 1
1623 3546 1
1624 5 1
1624 66 1
1624 341 1
1624 1267 1
1624 3806 1
1625 5 1
1625 31 1
1625 107 1
1625 113 1
1625 1744 1
1625 2180 1
1625 2376 1
1625 3811 1
1625 3812 1
1625 3884 1
1625 3965 1
1625 3989 1
1625 4847 1
1626 13 1
1626 275 1
1626 621 1
1626 1072 1
1627 370 1
1627 553 1
1627 626 1
1627 660 1
1627 1797 1
1627 2018 1
1627 2660 1
1627 3091 1
1627 3118 1
1627 3469 1
1627 3697 1
1627 4023 1
1628 33 1
1628 56 1
1628 201 1
1628 1447 1
1628 1831 1
1628 2302 1
1628 4125 1
1628 4219 1
1628 4590 1
1628 4716 1
1629 149 1
1629 563 1
1629 830 1
1629 1144 1
1629 4525 1
1629 4989 1
1630 75 1
1630 155 1
1630 1419 1
1630 1553 1
1630 2139 1
1630 2929 1
1630 3817 1
1630 4950 1
1631 10 1
1631 58 1
1631 83 1
1631 1513 1
1632 121 1
1632 203 1
1632 316 1
1632 1052 1
1632 2681 1
1632 3208 1
1632 3753 1
1633 214 1
1633 367 1
1633 545 1
1633 881 1
1633 2401 1
1634 58 1
1634 177 1
1634 453 1
1634 675 1
1634 2376 1
1634 2495 1
1634 2499 1
1634 2540 1
1634 4914 1
1634 4957 1
1635 57 1
1635 164 1
1635 213 1
1635 293 1
1635 2221 1
1635 3107 1
1635 3575 1
1636 11 1
1636 17 1
1636 446 1
1636 486 1
1636 1687 1
1636 3716 1
1637 3 1
1637 5 1
1637 639 1
1637 779 1
1637 2047 1
1637 2792 1
1637 3823 1
1637 4136 1
1637 4532 1
1638 89 1
1638 246 1
1638 466 1
1638 602 1
1638 1762 1
1638 2246 1
1638 3696 1
1639 35 1
1639 570 1
1639 939 1
1639 1174 1
1640 11 1
1640 81 1
1640 228 1
1640 356 1
1640 3544 1
1640 4229 1
1641 2 1
1641 9 1
1641 78 1
1641 81 1
1641 2608 1
1641 3267 1
1642 12 1
1642 205 1
1642 540 1
1642 664 1
1642 2037 1
1642 2341 1
1642 3765 1
1642 4277 1
1643 397 1
1643 423 1
1643 535 1
1643 924 1
1644 47 1
1644 54 1
1644 146 1
1644 225 1
1644 2157 1
1644 2318 1
1644 3097 1
1645 122 1
1645 548 1
1645 1028 1
1645 1040 1
1645 2461 1
1645 2766 1
1645 3471 1
1645 4529 1
1645 4729 1
1646 1 1
1646 5 1
1646 686 1
1646 1557 1
1646 1699 1
1646 2442 1
1646 3661 1
1647 2 1
1647 487 1
1647 691 1
1647 1188 1
1648 191 1
1648 304 1
1648 970 1
1648 1354 1
1649 90 1
1649 177 1
1649 282 1
1649 847 1
1649 2099 1
1649 2187 1
1649 3475 1
1649 3632 1
1650 19 1
1650 42 1
1650 507 1
1650 787 1
1650 3948 1
1651 135 1
1651 529 1
1651 581 1
1651 753 1
1651 2550 1
1651 2750 1
1651 4416 1
1652 470 1
1652 964 1
1652 1043 1
1652 1583 1
1653 243 1
1653 655 1
1653 724 1
1653 1362 1
1653 1860 1
1653 2203 1
1653 4733 1
1653 4837 1
1654 372 1
1654 954 1
1654 1377 1
1654 1499 1
1654 2112 1
1654 3880 1
1655 77 1
1655 267 1
1655 347 1
1655 501 1
1655 1750 1
1655 1964 1
1655 3209 1
1655 4769 1
1656 353 1
1656 427 1
1656 805 1
1656 849 1
1656 3010 1
1657 10 1
1657 467 1
1657 542 1
1657 969 1
1657 3518 1
1657 3650 1
1658 29 1
1658 177 1
1658 414 1
1658 543 1
1658 1767 1
1658 2251 1
1658 2715 1
1659 127 1
1659 139 1
1659 1289 1
1659 1468 1
1659 1735 1
1659 1808 1
1659 1977 1
1659 2044 1
1659 2177 1
1659 3130 1
1659 3618 1
1659 4550 1
1660 10 1
1660 26 1
1660 132 1
1660 273 1
1661 19 1
1661 193 1
1661 395 1
1661 818 1
1661 2140 1
1661 2847 1
1661 3021 1
1661 4426 1
1661 4549 1
1662 33 1
1662 99 1
1662 149 1
1662 1344 1
1662 3441 1
1662 3985 1
1663 1 1
1663 130 1
1663 139 1
1663 1257 1
1663 2173 1
1663 2654 1
1663 3119 1
1663 4343 1
1663 4627 1
1663 4714 1
1663 4951 1
1664 370 1
1664 553 1
1664 1169 1
1664 1587 1
1664 3111 1
1664 3827 1
1665 2 1
1665 329 1
1665 475 1
1665 1517 1
1665 2389 1
1665 4306 1
1666 19 1
1666 123 1
1666 708 1
1666 722 1
1666 2430 1
1666 2785 1
1666 3456 1
1666 3985 1
1667 170 1
1667 327 1
1667 845 1
1667 881 1
1667 2201 1
1667 3176 1
1667 3282 1
1667 4601 1
1667 4779 1
1668 87 1
1668 508 1
1668 538 1
1668 1384 1
1668 2386 1
1668 2406 1
1668 4639 1
1669 438 1
1669 916 1
1669 1526 1
1669 1617 1
1669 1999 1
1669 2384 1
1669 3754 1
1670 154 1
1670 236 1
1670 411 1
1670 770 1
1670 1735 1
1670 3458 1
1670 4335 1
1670 4646 1
1671 87 1
1671 259 1
1671 354 1
1671 1394 1
1671 1779 1
1671 3661 1
1672 12 1
1672 89 1
1672 205 1
1672 1194 1
1672 1719 1
1673 349 1
1673 556 1
1673 849 1
1673 1250 1
1674 1 1
1674 410 1
1674 439 1
1674 986 1
1674 1910 1
1674 2016 1
1674 2753 1
1674 4908 1
1675 17 1
1675 211 1
1675 262 1
1675 1390 1
1675 2280 1
1675 2726 1
1675 4127 1
1676 401 1
1676 549 1
1676 618 1
1676 1341 1
1676 2356 1
1676 3040 1
1676 3165 1
1676 3334 1
1676 3520 1
1676 4209 1
1676 4216 1
1676 4443 1
1677 21 1
1677 132 1
1677 202 1
1677 817 1
1677 1877 1
1678 45 1
1678 674 1
1678 831 1
1678 1534 1
1678 1764 1
1678 2194 1
1679 77 1
1679 252 1
1679 1265 1
1679 1379 1
1679 1890 1
1680 121 1
1680 875 1
1680 998 1
1680 1254 1
1680 2502 1
1681 182 1
1681 318 1
1681 612 1
1681 1532 1
1681 1753 1
1681 1775 1
1681 1898 1
1681 1963 1
1681 2190 1
1681 2569 1
1681 3395 1
1682 12 1
1682 203 1
1682 366 1
1682 615 1
1682 1730 1
1682 2904 1
1682 3192 1
1682 4520 1
1683 2 1
1683 200 1
1683 215 1
1683 371 1
1683 2347 1
1683 2459 1
1683 3109 1
1683 3687 1
1683 4254 1
1683 4487 1
1683 4692 1
1684 51 1
1684 157 1
1684 408 1
1684 559 1
1684 1819 1
1684 3520 1
1684 3834 1
1685 3 1
1685 56 1
1685 92 1
1685 773 1
1685 2009 1
1686 18 1
1686 190 1
1686 450 1
1686 1301 1
1686 3638 1
1687 260 1
1687 544 1
1687 1379 1
1687 1636 1
1688 2 1
1688 830 1
1688 1276 1
1688 1285 1
1689 3 1
1689 35 1
1689 811 1
1689 1224 1
1689 1732 1
1689 1921 1
1689 2399 1
1689 2466 1
1689 2828 1
1689 2972 1
1689 3458 1
1689 3976 1
1690 180 1
1690 206 1
1690 551 1
1690 1280 1
1690 2787 1
1690 4135 1
1691 53 1
1691 184 1
1691 234 1
1691 875 1
1691 2143 1
1692 283 1
1692 434 1
1692 443 1
1692 648 1
1692 2913 1
1692 3742 1
1692 3803 1
1692 4470 1
1693 5 1
1693 55 1
1693 70 1
1693 1465 1
1693 1964 1
1693 2693 1
1693 2747 1
1693 3163 1
1693 4900 1
1694 83 1
1694 305 1
1694 378 1
1694 433 1
1694 3498 1
1695 154 1
1695 738 1
1695 808 1
1695 1595 1
1695 2099 1
1695 3208 1
1695 3426 1
1695 4206 1
1696 132 1
1696 285 1
1696 300 1
1696 770 1
1696 2008 1
1696 4429 1
1696 4939 1
1697 332 1
1697 361 1
1697 430 1
1697 578 1
1698 230 1
1698 633 1
1698 1405 1
1698 1548 1
1699 29 1
1699 111 1
1699 481 1
1699 1646 1
1699 3499 1
1699 4617 1
1700 3 1
1700 36 1
1700 1321 1
1700 1377 1
1700 1897 1
1700 1927 1
1700 2121 1
1700 2633 1
1700 2944 1
1700 3631 1
1700 4400 1
1701 200 1
1701 332 1
1701 605 1
1701 660 1
1701 1775 1
1701 2197 1
1701 2380 1
1701 3371 1
1701 4724 1
1702 13 1
1702 21 1
1702 89 1
1702 447 1
1703 25 1
1703 28 1
1703 898 1
1703 1506 1
1703 2473 1
1703 2812 1
1704 88 1
1704 360 1
1704 1109 1
1704 1466 1
1705 3 1
1705 36 1
1705 346 1
1705 1511 1
1705 2738 1
1705 2883 1
1706 3 1
1706 530 1
1706 701 1
1706 759 1
1706 2351 1
1706 2725 1
1706 2758 1
1706 2909 1
1706 3697 1
1706 4060 1
1706 4096 1
1706 4915 1
1707 114 1
1707 137 1
1707 618 1
1707 1418 1
1707 2408 1
1707 3068 1
1707 3303 1
1707 4494 1
1707 4634 1
1707 4674 1
1707 4814 1
1708 176 1
1708 1177 1
1708 1262 1
1708 1407 1
1708 3265 1
1708 3327 1
1708 3891 1
1709 43 1
1709 149 1
1709 275 1
1709 1111 1
1709 3725 1
1710 193 1
1710 313 1
1710 388 1
1710 1490 1
1710 1823 1
1710 4267 1
1711 33 1
1711 163 1
1711 348 1
1711 459 1
1711 2255 1
1712 5 1
1712 65 1
1712 155 1
1712 466 1
1712 4614 1
1712 4893 1
1713 3 1
1713 206 1
1713 213 1
1713 1479 1
1713 2107 1
1713 2109 1
1714 1 1
1714 176 1
1714 675 1
1714 1363 1
1714 3232 1
1715 3 1
1715 283 1
1715 333 1
1715 1543 1
1715 2322 1
1715 2682 1
1715 3838 1
1716 99 1
1716 121 1
1716 173 1
1716 1562 1
1716 2130 1
1716 2546 1
1716 3679 1
1716 3874 1
1716 4101 1
1717 133 1
1717 370 1
1717 1091 1
1717 1360 1
1717 2707 1
1717 2993 1
1717 3004 1
1717 3241 1
1717 3427 1
1718 19 1
1718 99 1
1718 565 1
1718 1162 1
1718 4453 1
1719 12 1
1719 610 1
1719 1225 1
1719 1672 1
1719 3899 1
1719 4582 1
1720 41 1
1720 955 1
1720 1046 1
1720 1095 1
1720 2852 1
1721 2 1
1721 73 1
1721 487 1
1721 1226 1
1721 2010 1
1721 2346 1
1721 2688 1
1721 4041 1
1722 1 1
1722 10 1
1722 47 1
1722 329 1
1722 1843 1
1722 1934 1
1722 2285 1
1722 3416 1
1722 4164 1
1722 4955 1
1723 7 1
1723 387 1
1723 681 1
1723 800 1
1723 2202 1
1723 2586 1
1723 2728 1
1723 2810 1
1723 3059 1
1723 4329 1
1723 4470 1
1723 4533 1
1724 140 1
1724 349 1
1724 611 1
1724 743 1
1724 1725 1
1724 3804 1
1724 4121 1
1724 4568 1
1725 349 1
1725 1221 1
1725 1294 1
1725 1724 1
1726 90 1
1726 114 1
1726 644 1
1726 1134 1
1726 3479 1
1727 121 1
1727 356 1
1727 364 1
1727 1331 1
1727 2559 1
1727 4800 1
1728 105 1
1728 315 1
1728 500 1
1728 615 1
1728 2087 1
1728 3900 1
1729 445 1
1729 523 1
1729 600 1
1729 1065 1
1729 2183 1
1729 3105 1
1729 3420 1
1730 203 1
1730 1083 1
1730 1114 1
1730 1682 1
1730 2890 1
1730 3022 1
1730 3970 1
1730 4365 1
1730 4962 1
1731 19 1
1731 289 1
1731 804 1
1731 978 1
1731 1839 1
1731 1912 1
1731 3080 1
1731 4815 1
1732 154 1
1732 236 1
1732 1581 1
1732 1689 1
1732 4687 1
1733 84 1
1733 105 1
1733 114 1
1733 722 1
1733 1942 1
1733 2784 1
1733 2836 1
1733 2968 1
1733 4104 1
1733 4696 1
1733 4728 1
1733 4763 1
1734 382 1
1734 448 1
1734 811 1
1734 1539 1
1734 4614 1
1735 65 1
1735 1145 1
1735 1659 1
1735 1670 1
1735 4599 1
1736 25 1
1736 157 1
1736 360 1
1736 483 1
1736 2766 1
1736 2988 1
1736 3700 1
1736 3790 1
1737 233 1
1737 567 1
1737 694 1
1737 1015 1
1737 1935 1
1737 2075 1
1737 2350 1
1737 2607 1
1737 2766 1
1737 3924 1
1737 4261 1
1737 4434 1
1737 4457 1
1737 4546 1
1737 4913 1
1737 4960 1
1738 250 1
1738 533 1
1738 804 1
1738 1486 1
1739 457 1
1739 478 1
1739 658 1
1739 834 1
1739 2242 1
1739 2973 1
1739 3174 1
1739 3246 1
1739 3844 1
1739 3845 1
1739 4938 1
1740 18 1
1740 57 1
1740 387 1
1740 1523 1
1740 3881 1
1740 3898 1
1740 4429 1
1741 106 1
1741 433 1
1741 577 1
1741 702 1
1741 2094 1
1741 2819 1
1741 3745 1
1741 4602 1
1741 4653 1
1741 4699 1
1742 4 1
1742 223 1
1742 348 1
1742 986 1
1742 3476 1
1743 884 1
1743 935 1
1743 1531 1
1743 1603 1
1743 2639 1
1743 3309 1
1743 3363 1
1744 31 1
1744 107 1
1744 766 1
1744 1625 1
1745 75 1
1745 102 1
1745 177 1
1745 1093 1
1745 2773 1
1745 3087 1
1745 4280 1
1745 4590 1
1746 2 1
1746 13 1
1746 1176 1
1746 1524 1
1746 2171 1
1746 2310 1
1746 2786 1
1746 3819 1
1746 3864 1
1746 4232 1
1747 13 1
1747 77 1
1747 110 1
1747 846 1
1748 34 1
1748 41 1
1748 576 1
1748 609 1
1748 1855 1
1749 109 1
1749 178 1
1749 385 1
1749 1290 1
1749 3861 1
1750 48 1
1750 455 1
1750 1169 1
1750 1655 1
1751 26 1
1751 41 1
1751 182 1
1751 656 1
1751 2487 1
1751 3558 1
1751 3582 1
1752 17 1
1752 20 1
1752 210 1
1752 290 1
1752 3489 1
1752 4748 1
1753 747 1
1753 1284 1
1753 1530 1
1753 1681 1
1753 1898 1
1753 2378 1
1753 2878 1
1753 3395 1
1753 3442 1
1754 42 1
1754 115 1
1754 1359 1
1754 1545 1
1754 1923 1
1754 1927 1
1754 2655 1
1754 3702 1
1754 3831 1
1755 130 1
1755 269 1
1755 486 1
1755 1607 1
1755 1910 1
1755 2232 1
1755 2539 1
1755 4059 1
1755 4986 1
1756 20 1
1756 593 1
1756 917 1
1756 1151 1
1756 1907 1
1756 4716 1
1757 21 1
1757 101 1
1757 676 1
1757 1166 1
1757 2911 1
1758 19 1
1758 75 1
1758 214 1
1758 1180 1
1758 1873 1
1759 233 1
1759 386 1
1759 561 1
1759 1495 1
1759 3700 1
1760 348 1
1760 684 1
1760 1134 1
1760 1545 1
1761 92 1
1761 121 1
1761 413 1
1761 716 1
1761 2055 1
1762 19 1
1762 89 1
1762 914 1
1762 1638 1
1762 2967 1
1762 3041 1
1762 4114 1
1762 4150 1
1762 4194 1
1762 4328 1
1763 5 1
1763 60 1
1763 331 1
1763 837 1
1763 2516 1
1763 3557 1
1764 331 1
1764 1245 1
1764 1578 1
1764 1678 1
1764 4119 1
1765 19 1
1765 91 1
1765 1081 1
1765 1415 1
1765 2419 1
1766 36 1
1766 361 1
1766 1072 1
1766 1328 1
1766 1827 1
1766 2288 1
1766 2712 1
1766 3659 1
1766 3682 1
1766 4024 1
1766 4050 1
1766 4386 1
1767 29 1
1767 33 1
1767 702 1
1767 1658 1
1767 2085 1
1767 3967 1
1768 44 1
1768 173 1
1768 380 1
1768 847 1
1769 4 1
1769 141 1
1769 405 1
1769 1106 1
1769 2889 1
1769 4440 1
1770 2 1
1770 73 1
1770 164 1
1770 869 1
1770 3140 1
1770 3156 1
1770 3259 1
1770 3690 1
1771 4 1
1771 146 1
1771 254 1
1771 426 1
1771 2309 1
1771 3224 1
1772 27 1
1772 436 1
1772 1095 1
1772 1444 1
1772 4403 1
1772 4586 1
1773 10 1
1773 354 1
1773 597 1
1773 1531 1
1773 2246 1
1773 2370 1
1773 3453 1
1773 4578 1
1773 4588 1
1774 90 1
1774 162 1
1774 681 1
1774 815 1
1774 2956 1
1774 4216 1
1775 113 1
1775 332 1
1775 1681 1
1775 1701 1
1775 2832 1
1775 4537 1
1776 1108 1
1776 1161 1
1776 1610 1
1776 1620 1
1776 1871 1
1777 49 1
1777 334 1
1777 703 1
1777 1582 1
1777 2168 1
1777 2189 1
1777 4114 1
1777 4543 1
1777 4916 1
1778 5 1
1778 397 1
1778 577 1
1778 1467 1
1778 2397 1
1778 2920 1
1779 3 1
1779 698 1
1779 1261 1
1779 1671 1
1779 2831 1
1779 3148 1
1779 4749 1
1780 75 1
1780 541 1
1780 620 1
1780 819 1
1780 1899 1
1780 2711 1
1781 92 1
1781 387 1
1781 800 1
1781 1178 1
1782 2 1
1782 73 1
1782 255 1
1782 1610 1
1782 1871 1
1782 4983 1
1783 2 1
1783 11 1
1783 126 1
1783 149 1
1783 4525 1
1784 6 1
1784 374 1
1784 543 1
1784 823 1
1785 58 1
1785 91 1
1785 295 1
1785 321 1
1785 4308 1
1786 42 1
1786 105 1
1786 292 1
1786 1563 1
1786 3006 1
1786 3897 1
1787 173 1
1787 1058 1
1787 1222 1
1787 1331 1
1788 21 1
1788 155 1
1788 162 1
1788 339 1
1789 65 1
1789 153 1
1789 972 1
1789 1393 1
1789 2127 1
1789 4715 1
1790 25 1
1790 1052 1
1790 1164 1
1790 1235 1
1790 2253 1
1790 4145 1
1790 4813 1
1791 571 1
1791 749 1
1791 908 1
1791 1507 1
1791 4883 1
1792 13 1
1792 1061 1
1792 1066 1
1792 1111 1
1793 1 1
1793 475 1
1793 1407 1
1793 1467 1
1793 2319 1
1793 2512 1
1793 3459 1
1794 188 1
1794 222 1
1794 1236 1
1794 1518 1
1794 2214 1
1794 2269 1
1794 2590 1
1794 2758 1
1794 4026 1
1794 4352 1
1794 4991 1
1795 260 1
1795 450 1
1795 1233 1
1795 1589 1
1795 2315 1
1795 2324 1
1795 2568 1
1795 3549 1
1795 3681 1
1795 3912 1
1795 4254 1
1796 79 1
1796 113 1
1796 489 1
1796 1524 1
1796 1991 1
1796 3928 1
1797 60 1
1797 129 1
1797 1050 1
1797 1627 1
1797 2660 1
1797 2717 1
1797 4033 1
1798 27 1
1798 150 1
1798 405 1
1798 475 1
1798 3867 1
1799 75 1
1799 242 1
1799 654 1
1799 1435 1
1799 3541 1
1799 3569 1
1800 87 1
1800 268 1
1800 411 1
1800 1101 1
1801 10 1
1801 51 1
1801 169 1
1801 445 1
1801 2145 1
1801 2529 1
1802 8 1
1802 20 1
1802 139 1
1802 897 1
1802 2030 1
1802 2737 1
1802 3360 1
1802 4667 1
1803 1 1
1803 347 1
1803 892 1
1803 945 1
1803 2292 1
1803 2384 1
1803 3128 1
1803 3796 1
1803 4142 1
1803 4504 1
1804 120 1
1804 167 1
1804 644 1
1804 697 1
1804 4296 1
1804 4531 1
1805 74 1
1805 463 1
1805 564 1
1805 1290 1
1805 2137 1
1805 2393 1
1805 3840 1
1806 157 1
1806 184 1
1806 242 1
1806 667 1
1807 49 1
1807 441 1
1807 627 1
1807 759 1
1807 2013 1
1807 2955 1
1807 4234 1
1808 37 1
1808 912 1
1808 1285 1
1808 1659 1
1809 45 1
1809 676 1
1809 692 1
1809 747 1
1809 1920 1
1809 2261 1
1809 2747 1
1809 4017 1
1809 4082 1
1809 4351 1
1809 4709 1
1810 225 1
1810 455 1
1810 540 1
1810 666 1
1810 3503 1
1810 4585 1
1811 5 1
1811 9 1
1811 35 1
1811 518 1
1811 2857 1
1811 2990 1
1812 131 1
1812 177 1
1812 1077 1
1812 1300 1
1813 41 1
1813 833 1
1813 990 1
1813 1027 1
1813 3181 1
1813 3245 1
1814 17 1
1814 52 1
1814 639 1
1814 1386 1
1814 3614 1
1815 13 1
1815 86 1
1815 219 1
1815 1557 1
1816 15 1
1816 206 1
1816 334 1
1816 492 1
1817 13 1
1817 548 1
1817 829 1
1817 1051 1
1817 2480 1
1817 2769 1
1817 4078 1
1817 4114 1
1817 4605 1
1818 170 1
1818 287 1
1818 788 1
1818 956 1
1819 12 1
1819 404 1
1819 803 1
1819 1684 1
1819 1889 1
1819 2139 1
1820 150 1
1820 157 1
1820 323 1
1820 459 1
1820 3264 1
1820 3315 1
1820 3457 1
1820 3704 1
1820 4468 1
1820 4679 1
1820 4811 1
1821 31 1
1821 918 1
1821 1153 1
1821 1291 1
1821 2244 1
1821 2888 1
1821 3180 1
1822 5 1
1822 562 1
1822 875 1
1822 1601 1
1822 1837 1
1822 2245 1
1822 2420 1
1822 2823 1
1822 3211 1
1823 193 1
1823 610 1
1823 1323 1
1823 1710 1
1824 21 1
1824 73 1
1824 75 1
1824 101 1
1824 2618 1
1824 4031 1
1824 4452 1
1824 4926 1
1825 65 1
1825 105 1
1825 438 1
1825 596 1
1825 3821 1
1825 4787 1
1826 25 1
1826 77 1
1826 171 1
1826 481 1
1826 3279 1
1826 3440 1
1826 4094 1
1826 4263 1
1827 35 1
1827 91 1
1827 425 1
1827 1766 1
1827 2148 1
1827 3158 1
1828 9 1
1828 603 1
1828 954 1
1828 1602 1
1828 1914 1
1828 2015 1
1828 2864 1
1828 3322 1
1828 3677 1
1829 28 1
1829 341 1
1829 364 1
1829 602 1
1830 3 1
1830 113 1
1830 123 1
1830 436 1
1831 108 1
1831 1150 1
1831 1485 1
1831 1628 1
1831 1874 1
1831 2363 1
1831 4125 1
1832 91 1
1832 234 1
1832 349 1
1832 1129 1
1832 2046 1
1833 49 1
1833 319 1
1833 715 1
1833 1328 1
1833 2939 1
1833 3107 1
1833 3118 1
1833 3536 1
1833 3774 1
1833 4317 1
1834 476 1
1834 526 1
1834 982 1
1834 1418 1
1835 9 1
1835 10 1
1835 28 1
1835 1243 1
1835 1931 1
1835 2842 1
1835 3763 1
1835 4327 1
1836 46 1
1836 52 1
1836 253 1
1836 359 1
1836 2851 1
1836 4000 1
1837 10 1
1837 147 1
1837 281 1
1837 1822 1
1837 2555 1
1837 2757 1
1837 4212 1
1838 455 1
1838 564 1
1838 655 1
1838 830 1
1838 2366 1
1838 3272 1
1838 3275 1
1838 4144 1
1839 26 1
1839 159 1
1839 640 1
1839 1731 1
1839 2555 1
1840 20 1
1840 515 1
1840 776 1
1840 1166 1
1841 2 1
1841 12 1
1841 105 1
1841 132 1
1841 3370 1
1842 5 1
1842 27 1
1842 116 1
1842 1444 1
1842 2215 1
1842 3611 1
1843 3 1
1843 324 1
1843 329 1
1843 1722 1
1843 1989 1
1843 3443 1
1843 4441 1
1843 4528 1
1844 13 1
1844 155 1
1844 193 1
1844 578 1
1844 2400 1
1844 2479 1
1844 3004 1
1844 3894 1
1844 4444 1
1844 4556 1
1844 4678 1
1845 15 1
1845 25 1
1845 479 1
1845 916 1
1845 3034 1
1846 9 1
1846 93 1
1846 276 1
1846 1267 1
1847 48 1
1847 57 1
1847 222 1
1847 1364 1
1847 4588 1
1848 5 1
1848 275 1
1848 728 1
1848 817 1
1849 10 1
1849 129 1
1849 542 1
1849 1467 1
1849 2115 1
1849 2258 1
1849 2383 1
1850 155 1
1850 525 1
1850 1056 1
1850 1179 1
1850 2009 1
1851 25 1
1851 364 1
1851 370 1
1851 1145 1
1851 1961 1
1851 2344 1
1851 3401 1
1851 3728 1
1851 4747 1
1852 59 1
1852 118 1
1852 472 1
1852 611 1
1852 1979 1
1852 2589 1
1852 3096 1
1852 3176 1
1852 3603 1
1852 3664 1
1853 17 1
1853 105 1
1853 234 1
1853 1549 1
1853 3451 1
1853 4087 1
1853 4758 1
1854 529 1
1854 669 1
1854 818 1
1854 1067 1
1854 2218 1
1854 2239 1
1854 2754 1
1855 34 1
1855 214 1
1855 227 1
1855 1748 1
1856 2 1
1856 790 1
1856 1266 1
1856 1562 1
1856 3546 1
1857 109 1
1857 198 1
1857 226 1
1857 418 1
1857 3226 1
1857 3408 1
1858 100 1
1858 153 1
1858 773 1
1858 786 1
1858 4079 1
1859 3 1
1859 434 1
1859 706 1
1859 884 1
1859 2030 1
1859 2135 1
1859 2302 1
1859 3531 1
1859 4861 1
1860 66 1
1860 243 1
1860 990 1
1860 1653 1
1860 4846 1
1861 12 1
1861 52 1
1861 348 1
1861 570 1
1861 3585 1
1862 154 1
1862 210 1
1862 274 1
1862 806 1
1862 1957 1
1862 2699 1
1863 85 1
1863 103 1
1863 387 1
1863 668 1
1863 2079 1
1863 2089 1
1863 2307 1
1863 2744 1
1863 2793 1
1864 11 1
1864 314 1
1864 945 1
1864 1291 1
1865 42 1
1865 394 1
1865 531 1
1865 1425 1
1865 4110 1
1866 73 1
1866 89 1
1866 646 1
1866 1620 1
1866 2117 1
1866 2323 1
1866 2575 1
1866 4876 1
1867 365 1
1867 906 1
1867 1270 1
1867 1483 1
1867 2577 1
1867 2764 1
1867 3043 1
1867 3066 1
1867 4903 1
1868 1 1
1868 144 1
1868 441 1
1868 925 1
1869 17 1
1869 580 1
1869 1204 1
1869 1312 1
1869 2205 1
1869 3257 1
1869 3952 1
1870 35 1
1870 601 1
1870 631 1
1870 804 1
1870 1930 1
1870 2481 1
1871 195 1
1871 1610 1
1871 1776 1
1871 1782 1
1871 2388 1
1872 91 1
1872 130 1
1872 313 1
1872 933 1
1873 2 1
1873 75 1
1873 320 1
1873 1758 1
1873 2586 1
1874 50 1
1874 108 1
1874 654 1
1874 1831 1
1874 1988 1
1874 2355 1
1874 2439 1
1874 2980 1
1874 3149 1
1874 3175 1
1874 3302 1
1874 3316 1
1874 3365 1
1874 3515 1
1874 3694 1
1874 4125 1
1874 4408 1
1874 4424 1
1874 4668 1
1874 4893 1
1875 106 1
1875 154 1
1875 929 1
1875 1172 1
1875 3390 1
1875 3599 1
1875 4031 1
1876 337 1
1876 489 1
1876 1515 1
1876 1524 1
1876 2811 1
1876 2958 1
1876 3024 1
1876 4560 1
1876 4864 1
1876 4898 1
1877 125 1
1877 202 1
1877 869 1
1877 1677 1
1877 2074 1
1878 5 1
1878 850 1
1878 1161 1
1878 1264 1
1878 4438 1
1879 154 1
1879 183 1
1879 817 1
1879 1177 1
1879 2100 1
1879 2492 1
1879 3016 1
1879 3053 1
1879 3265 1
1879 3477 1
1879 3569 1
1879 3668 1
1879 4347 1
1879 4383 1
1880 5 1
1880 13 1
1880 45 1
1880 406 1
1880 3191 1
1881 24 1
1881 562 1
1881 563 1
1881 1389 1
1881 1921 1
1881 2142 1
1881 2324 1
1881 3198 1
1881 3229 1
1881 3269 1
1881 3415 1
1881 4507 1
1881 4854 1
1882 2 1
1882 20 1
1882 188 1
1882 484 1
1882 1992 1
1882 2259 1
1882 2776 1
1882 3908 1
1883 37 1
1883 815 1
1883 1012 1
1883 1437 1
1883 2064 1
1883 2727 1
1883 3225 1
1883 3768 1
1883 3962 1
1883 4882 1
1884 91 1
1884 100 1
1884 251 1
1884 1486 1
1884 2708 1
1884 3020 1
1884 3225 1
1885 1291 1
1885 1314 1
1885 1327 1
1885 1426 1
1885 2437 1
1885 4808 1
1886 43 1
1886 60 1
1886 795 1
1886 839 1
1887 41 1
1887 57 1
1887 485 1
1887 900 1
1887 3233 1
1888 242 1
1888 670 1
1888 925 1
1888 1015 1
1888 3587 1
1889 10 1
1889 103 1
1889 1291 1
1889 1819 1
1889 2525 1
1889 2924 1
1889 3038 1
1890 363 1
1890 841 1
1890 1275 1
1890 1679 1
1890 2220 1
1891 103 1
1891 142 1
1891 1024 1
1891 1516 1
1891 3125 1
1891 4884 1
1892 5 1
1892 633 1
1892 957 1
1892 1277 1
1892 2045 1
1892 3326 1
1893 481 1
1893 606 1
1893 1471 1
1893 1622 1
1893 1996 1
1893 3462 1
1893 4991 1
1894 346 1
1894 460 1
1894 925 1
1894 1508 1
1894 3320 1
1894 3428 1
1895 3 1
1895 194 1
1895 582 1
1895 915 1
1896 11 1
1896 404 1
1896 706 1
1896 877 1
1896 1966 1
1896 2033 1
1896 3563 1
1896 4662 1
1897 3 1
1897 75 1
1897 1578 1
1897 1700 1
1897 2297 1
1897 2562 1
1897 2633 1
1897 2946 1
1897 3401 1
1897 3485 1
1897 3640 1
1897 4843 1
1898 747 1
1898 1530 1
1898 1681 1
1898 1753 1
1898 1963 1
1898 3244 1
1898 3395 1
1899 431 1
1899 515 1
1899 931 1
1899 1780 1
1899 2795 1
1899 2934 1
1899 3540 1
1900 11 1
1900 314 1
1900 394 1
1900 1136 1
1900 2971 1
1900 3949 1
1900 4098 1
1900 4408 1
1900 4671 1
1901 33 1
1901 52 1
1901 153 1
1901 1173 1
1901 2126 1
1902 121 1
1902 229 1
1902 1095 1
1902 1215 1
1902 3501 1
1903 1 1
1903 41 1
1903 108 1
1903 1577 1
1903 1907 1
1903 2431 1
1903 4432 1
1904 706 1
1904 884 1
1904 956 1
1904 1561 1
1904 4544 1
1905 17 1
1905 203 1
1905 316 1
1905 524 1
1906 17 1
1906 766 1
1906 851 1
1906 1126 1
1907 244 1
1907 459 1
1907 1756 1
1907 1903 1
1907 1960 1
1907 2448 1
1908 13 1
1908 486 1
1908 1057 1
1908 1178 1
1908 2777 1
1908 2809 1
1909 19 1
1909 76 1
1909 374 1
1909 725 1
1910 92 1
1910 410 1
1910 1674 1
1910 1755 1
1910 2453 1
1910 4908 1
1911 18 1
1911 304 1
1911 361 1
1911 638 1
1911 4797 1
1912 2 1
1912 804 1
1912 1166 1
1912 1731 1
1912 3829 1
1912 3977 1
1913 265 1
1913 323 1
1913 629 1
1913 1149 1
1913 2833 1
1913 4405 1
1914 9 1
1914 525 1
1914 855 1
1914 1828 1
1914 2083 1
1915 125 1
1915 138 1
1915 314 1
1915 545 1
1915 1925 1
1915 2063 1
1916 4 1
1916 5 1
1916 160 1
1916 301 1
1916 2281 1
1917 665 1
1917 710 1
1917 852 1
1917 1586 1
1918 98 1
1918 161 1
1918 466 1
1918 1311 1
1918 2464 1
1919 75 1
1919 182 1
1919 1076 1
1919 1323 1
1919 3497 1
1919 3812 1
1920 148 1
1920 1126 1
1920 1515 1
1920 1809 1
1921 107 1
1921 588 1
1921 1689 1
1921 1881 1
1921 3269 1
1921 3976 1
1922 21 1
1922 169 1
1922 180 1
1922 1361 1
1922 2738 1
1922 3004 1
1922 3744 1
1922 3926 1
1923 562 1
1923 1300 1
1923 1587 1
1923 1754 1
1923 1927 1
1923 3651 1
1923 4194 1
1924 260 1
1924 451 1
1924 546 1
1924 876 1
1924 1973 1
1924 2356 1
1924 3086 1
1925 1 1
1925 11 1
1925 545 1
1925 1915 1
1925 2141 1
1925 2878 1
1926 3 1
1926 23 1
1926 152 1
1926 666 1
1927 923 1
1927 1700 1
1927 1754 1
1927 1923 1
1927 3831 1
1927 4400 1
1928 131 1
1928 150 1
1928 588 1
1928 708 1
1928 3434 1
1929 5 1
1929 51 1
1929 386 1
1929 601 1
1929 1992 1
1929 2262 1
1929 3607 1
1930 41 1
1930 265 1
1930 804 1
1930 1870 1
1930 2731 1
1930 3364 1
1931 10 1
1931 282 1
1931 1243 1
1931 1835 1
1931 2842 1
1931 4917 1
1932 3 1
1932 49 1
1932 77 1
1932 453 1
1932 3947 1
1933 21 1
1933 96 1
1933 380 1
1933 1534 1
1933 3670 1
1934 329 1
1934 580 1
1934 1573 1
1934 1722 1
1934 3769 1
1935 70 1
1935 307 1
1935 861 1
1935 1737 1
1935 4261 1
1936 21 1
1936 152 1
1936 729 1
1936 1556 1
1936 3466 1
1936 4099 1
1937 85 1
1937 242 1
1937 641 1
1937 686 1
1937 2089 1
1937 3351 1
1938 4 1
1938 232 1
1938 254 1
1938 1380 1
1938 2997 1
1938 3039 1
1938 3557 1
1939 15 1
1939 253 1
1939 381 1
1939 1209 1
1939 3391 1
1940 9 1
1940 52 1
1940 68 1
1940 717 1
1940 1988 1
1940 3723 1
1940 4038 1
1941 285 1
1941 406 1
1941 407 1
1941 1429 1
1941 2260 1
1941 3924 1
1942 23 1
1942 219 1
1942 1563 1
1942 1733 1
1942 3866 1
1942 4858 1
1943 17 1
1943 27 1
1943 821 1
1943 1429 1
1944 126 1
1944 128 1
1944 763 1
1944 1360 1
1945 82 1
1945 106 1
1945 387 1
1945 529 1
1945 2077 1
1945 2765 1
1945 2793 1
1945 4604 1
1945 4730 1
1946 45 1
1946 137 1
1946 338 1
1946 1368 1
1946 2594 1
1946 3249 1
1947 90 1
1947 91 1
1947 791 1
1947 1620 1
1947 2667 1
1948 3 1
1948 17 1
1948 105 1
1948 825 1
1949 9 1
1949 609 1
1949 814 1
1949 1156 1
1949 1987 1
1950 106 1
1950 209 1
1950 300 1
1950 1587 1
1950 4944 1
1951 84 1
1951 305 1
1951 465 1
1951 529 1
1951 2198 1
1951 2531 1
1951 4547 1
1952 185 1
1952 1173 1
1952 1309 1
1952 1438 1
1952 4316 1
1952 4603 1
1953 708 1
1953 885 1
1953 948 1
1953 1364 1
1954 5 1
1954 351 1
1954 950 1
1954 967 1
1954 2009 1
1954 2330 1
1954 2743 1
1954 2791 1
1954 2860 1
1954 3222 1
1954 4403 1
1955 17 1
1955 107 1
1955 544 1
1955 1163 1
1955 4508 1
1955 4962 1
1956 17 1
1956 445 1
1956 600 1
1956 1195 1
1956 4371 1
1957 442 1
1957 737 1
1957 1150 1
1957 1862 1
1957 2325 1
1957 4363 1
1958 41 1
1958 51 1
1958 722 1
1958 774 1
1958 2333 1
1958 4948 1
1959 547 1
1959 616 1
1959 1068 1
1959 1145 1
1959 4837 1
1960 101 1
1960 105 1
1960 433 1
1960 1907 1
1961 25 1
1961 448 1
1961 1315 1
1961 1851 1
1961 2083 1
1961 2208 1
1961 2956 1
1961 3830 1
1961 4270 1
1962 68 1
1962 911 1
1962 1315 1
1962 1482 1
1962 4834 1
1963 2 1
1963 1523 1
1963 1681 1
1963 1898 1
1963 3529 1
1963 4570 1
1964 40 1
1964 308 1
1964 1655 1
1964 1693 1
1964 2678 1
1964 3765 1
1965 58 1
1965 303 1
1965 850 1
1965 1545 1
1965 2964 1
1966 1 1
1966 42 1
1966 729 1
1966 1896 1
1966 2269 1
1966 2819 1
1966 3062 1
1966 3324 1
1966 3361 1
1966 4454 1
1967 3 1
1967 793 1
1967 901 1
1967 1350 1
1967 2300 1
1967 2700 1
1967 2814 1
1967 2874 1
1967 3785 1
1967 4299 1
1968 49 1
1968 447 1
1968 595 1
1968 945 1
1968 2331 1
1969 1 1
1969 45 1
1969 380 1
1969 894 1
1969 3199 1
1969 4440 1
1970 461 1
1970 670 1
1970 772 1
1970 1078 1
1970 4559 1
1971 506 1
1971 572 1
1971 722 1
1971 857 1
1971 1980 1
1971 2333 1
1971 2843 1
1971 3776 1
1971 3984 1
1971 4170 1
1972 247 1
1972 780 1
1972 854 1
1972 1332 1
1972 2029 1
1972 3185 1
1973 19 1
1973 260 1
1973 823 1
1973 1924 1
1974 3 1
1974 113 1
1974 523 1
1974 1170 1
1974 3346 1
1975 12 1
1975 60 1
1975 361 1
1975 774 1
1975 3369 1
1975 4662 1
1975 4828 1
1976 98 1
1976 265 1
1976 572 1
1976 1275 1
1976 2363 1
1976 3863 1
1976 4831 1
1977 377 1
1977 613 1
1977 723 1
1977 1659 1
1977 2774 1
1977 3618 1
1977 4254 1
1977 4375 1
1977 4621 1
1978 154 1
1978 193 1
1978 807 1
1978 808 1
1978 3246 1
1979 3 1
1979 193 1
1979 611 1
1979 1852 1
1979 4250 1
1979 4372 1
1980 857 1
1980 1426 1
1980 1521 1
1980 1971 1
1980 3397 1
1980 3802 1
1980 4934 1
1981 100 1
1981 202 1
1981 1059 1
1981 1246 1
1981 2083 1
1981 2473 1
1981 3873 1
1981 4538 1
1981 4835 1
1982 49 1
1982 132 1
1982 487 1
1982 646 1
1982 3570 1
1982 4246 1
1983 126 1
1983 496 1
1983 1155 1
1983 1419 1
1983 2063 1
1984 13 1
1984 17 1
1984 595 1
1984 1409 1
1984 2155 1
1985 92 1
1985 938 1
1985 990 1
1985 1078 1
1985 2169 1
1985 2193 1
1985 3466 1
1985 4213 1
1986 52 1
1986 147 1
1986 188 1
1986 859 1
1986 2305 1
1986 2861 1
1986 3994 1
1986 4109 1
1986 4241 1
1987 9 1
1987 58 1
1987 985 1
1987 1949 1
1987 2760 1
1987 3909 1
1987 4041 1
1988 5 1
1988 50 1
1988 1874 1
1988 1940 1
1988 2894 1
1988 3887 1
1989 3 1
1989 9 1
1989 149 1
1989 1843 1
1989 2096 1
1989 4441 1
1990 10 1
1990 11 1
1990 164 1
1990 1002 1
1990 2529 1
1990 2718 1
1990 3085 1
1990 3137 1
1990 4159 1
1990 4698 1
1990 4838 1
1991 29 1
1991 925 1
1991 1286 1
1991 1796 1
1991 2207 1
1991 2858 1
1991 3421 1
1991 4368 1
1992 386 1
1992 451 1
1992 1882 1
1992 1929 1
1992 2262 1
1992 2601 1
1992 3086 1
1992 3908 1
1993 139 1
1993 566 1
1993 776 1
1993 831 1
1993 1994 1
1993 2580 1
1993 3276 1
1993 3624 1
1993 3888 1
1994 267 1
1994 808 1
1994 1350 1
1994 1993 1
1994 3888 1
1994 4747 1
1995 308 1
1995 1356 1
1995 1435 1
1995 1610 1
1995 2125 1
1995 2247 1
1995 2860 1
1995 3205 1
1995 4074 1
1995 4492 1
1996 5 1
1996 175 1
1996 1471 1
1996 1893 1
1996 4591 1
1997 2 1
1997 109 1
1997 781 1
1997 1065 1
1997 2064 1
1997 2831 1
1997 2981 1
1997 3553 1
1997 5000 1
1998 117 1
1998 378 1
1998 644 1
1998 956 1
1998 2098 1
1998 4862 1
1999 332 1
1999 671 1
1999 780 1
1999 1669 1
2000 19 1
2000 29 1
2000 188 1
2000 710 1
2001 58 1
2001 101 1
2001 441 1
2001 675 1
2001 4584 1
2002 105 1
2002 106 1
2002 602 1
2002 694 1
2002 2537 1
2002 3145 1
2002 3199 1
2002 3714 1
2002 3973 1
2002 4202 1
2003 123 1
2003 503 1
2003 814 1
2003 1611 1
2003 2327 1
2003 2737 1
2003 3363 1
2003 3530 1
2003 3832 1
2003 4609 1
2004 378 1
2004 901 1
2004 1230 1
2004 1272 1
2004 3225 1
2005 3 1
2005 146 1
2005 1281 1
2005 1378 1
2005 2012 1
2005 2166 1
2005 2791 1
2005 3772 1
2005 3835 1
2006 184 1
2006 264 1
2006 781 1
2006 1355 1
2006 2246 1
2007 3 1
2007 41 1
2007 403 1
2007 1330 1
2007 2656 1
2007 4538 1
2008 29 1
2008 474 1
2008 863 1
2008 1696 1
2008 3847 1
2008 4335 1
2008 4429 1
2009 11 1
2009 1685 1
2009 1850 1
2009 1954 1
2009 2267 1
2009 2656 1
2009 2743 1
2009 2892 1
2009 4710 1
2010 81 1
2010 201 1
2010 1234 1
2010 1721 1
2010 2214 1
2010 2688 1
2010 2724 1
2010 3389 1
2010 3895 1
2010 4319 1
2011 3 1
2011 11 1
2011 194 1
2011 612 1
2011 2176 1
2011 2970 1
2011 3568 1
2012 3 1
2012 1281 1
2012 1411 1
2012 2005 1
2012 2287 1
2012 2363 1
2012 3035 1
2012 3064 1
2012 4103 1
2013 52 1
2013 88 1
2013 1406 1
2013 1807 1
2013 3088 1
2013 3217 1
2013 3596 1
2013 4959 1
2014 32 1
2014 60 1
2014 170 1
2014 313 1
2014 4541 1
2014 4779 1
2015 51 1
2015 387 1
2015 525 1
2015 1828 1
2015 3514 1
2015 4173 1
2016 1 1
2016 410 1
2016 986 1
2016 1674 1
2016 2753 1
2016 3636 1
2016 4522 1
2017 168 1
2017 341 1
2017 531 1
2017 755 1
2017 2204 1
2017 2879 1
2017 3368 1
2017 4348 1
2018 102 1
2018 412 1
2018 444 1
2018 1627 1
2018 2063 1
2018 2474 1
2018 3781 1
2018 4108 1
2018 4278 1
2018 4291 1
2019 89 1
2019 237 1
2019 299 1
2019 1210 1
2019 3579 1
2019 4074 1
2020 353 1
2020 644 1
2020 956 1
2020 1534 1
2020 2972 1
2020 4043 1
2021 773 1
2021 874 1
2021 1355 1
2021 1467 1
2021 2089 1
2021 2099 1
2021 3123 1
2021 4819 1
2022 12 1
2022 115 1
2022 683 1
2022 1194 1
2022 2807 1
2022 2868 1
2022 2880 1
2022 4605 1
2023 49 1
2023 126 1
2023 892 1
2023 1209 1
2023 4342 1
2024 33 1
2024 52 1
2024 99 1
2024 245 1
2024 2469 1
2024 2625 1
2024 3710 1
2025 3 1
2025 250 1
2025 284 1
2025 378 1
2025 2282 1
2025 2484 1
2025 3263 1
2025 4777 1
2025 4781 1
2026 12 1
2026 824 1
2026 874 1
2026 1225 1
2026 2474 1
2026 2511 1
2026 2704 1
2026 2937 1
2026 3123 1
2026 3325 1
2026 3627 1
2026 3654 1
2026 3936 1
2026 4002 1
2026 4129 1
2026 4198 1
2026 4392 1
2027 71 1
2027 86 1
2027 242 1
2027 681 1
2027 2131 1
2027 3793 1
2027 4154 1
2027 4329 1
2028 3 1
2028 43 1
2028 421 1
2028 1461 1
2028 2478 1
2028 2620 1
2028 2888 1
2029 10 1
2029 1075 1
2029 1465 1
2029 1972 1
2029 2223 1
2030 8 1
2030 884 1
2030 1802 1
2030 1859 1
2030 2328 1
2030 3557 1
2031 211 1
2031 354 1
2031 1125 1
2031 1222 1
2031 2426 1
2031 3734 1
2032 14 1
2032 233 1
2032 300 1
2032 506 1
2033 11 1
2033 78 1
2033 1306 1
2033 1896 1
2033 3095 1
2033 3595 1
2033 4231 1
2033 4769 1
2034 701 1
2034 935 1
2034 971 1
2034 1529 1
2034 2749 1
2034 3583 1
2035 25 1
2035 42 1
2035 448 1
2035 1412 1
2036 4 1
2036 12 1
2036 1495 1
2036 1538 1
2036 3922 1
2036 4803 1
2037 5 1
2037 137 1
2037 177 1
2037 1642 1
2037 2341 1
2037 2872 1
2037 3494 1
2038 1 1
2038 13 1
2038 177 1
2038 1282 1
2038 2599 1
2038 4341 1
2039 434 1
2039 592 1
2039 628 1
2039 1086 1
2039 3030 1
2039 3355 1
2040 6 1
2040 36 1
2040 462 1
2040 544 1
2040 2186 1
2040 3781 1
2041 58 1
2041 588 1
2041 1150 1
2041 1443 1
2041 4161 1
2042 51 1
2042 158 1
2042 906 1
2042 1433 1
2042 2907 1
2042 2974 1
2042 3297 1
2042 3913 1
2042 4502 1
2042 4762 1
2043 10 1
2043 309 1
2043 442 1
2043 1002 1
2044 18 1
2044 341 1
2044 387 1
2044 1659 1
2044 4035 1
2045 349 1
2045 406 1
2045 633 1
2045 1892 1
2045 2776 1
2045 2953 1
2045 3905 1
2045 3923 1
2045 4658 1
2045 4663 1
2046 2 1
2046 3 1
2046 474 1
2046 1832 1
2046 2118 1
2047 3 1
2047 628 1
2047 690 1
2047 1637 1
2047 2823 1
2047 4927 1
2048 79 1
2048 769 1
2048 1058 1
2048 1484 1
2048 3249 1
2049 2 1
2049 50 1
2049 374 1
2049 675 1
2050 84 1
2050 814 1
2050 1165 1
2050 1503 1
2050 2848 1
2050 2866 1
2050 2916 1
2050 4817 1
2051 49 1
2051 71 1
2051 84 1
2051 132 1
2051 2603 1
2051 3101 1
2051 3718 1
2051 4762 1
2052 170 1
2052 393 1
2052 957 1
2052 1107 1
2052 3094 1
2052 4132 1
2052 4464 1
2053 29 1
2053 177 1
2053 419 1
2053 785 1
2053 2497 1
2053 2631 1
2053 3122 1
2053 3209 1
2053 3329 1
2053 3620 1
2054 317 1
2054 378 1
2054 887 1
2054 1331 1
2054 2141 1
2054 2396 1
2055 92 1
2055 121 1
2055 413 1
2055 1761 1
2056 36 1
2056 325 1
2056 582 1
2056 788 1
2056 2106 1
2057 26 1
2057 227 1
2057 364 1
2057 1267 1
2057 2912 1
2057 3674 1
2057 3698 1
2058 9 1
2058 19 1
2058 227 1
2058 1173 1
2058 2689 1
2059 108 1
2059 154 1
2059 161 1
2059 1562 1
2059 2249 1
2059 3303 1
2059 3699 1
2059 3741 1
2059 4124 1
2060 13 1
2060 14 1
2060 158 1
2060 475 1
2060 3077 1
2061 124 1
2061 202 1
2061 852 1
2061 934 1
2061 3878 1
2062 1 1
2062 765 1
2062 1100 1
2062 1577 1
2062 2143 1
2062 2271 1
2062 3179 1
2062 3427 1
2063 446 1
2063 1915 1
2063 1983 1
2063 2018 1
2063 3772 1
2064 293 1
2064 1276 1
2064 1883 1
2064 1997 1
2065 1 1
2065 316 1
2065 773 1
2065 804 1
2066 3 1
2066 219 1
2066 283 1
2066 875 1
2066 3313 1
2066 4275 1
2067 19 1
2067 34 1
2067 674 1
2067 1477 1
2068 97 1
2068 209 1
2068 466 1
2068 954 1
2068 3292 1
2068 3932 1
2068 4056 1
2068 4573 1
2069 1 1
2069 3 1
2069 10 1
2069 213 1
2069 2091 1
2070 42 1
2070 212 1
2070 588 1
2070 664 1
2070 2185 1
2070 2931 1
2070 3878 1
2071 117 1
2071 325 1
2071 410 1
2071 1467 1
2072 58 1
2072 179 1
2072 486 1
2072 1057 1
2072 2231 1
2072 4363 1
2073 2 1
2073 290 1
2073 601 1
2073 786 1
2073 2440 1
2073 3256 1
2073 3451 1
2073 4196 1
2074 11 1
2074 49 1
2074 209 1
2074 1877 1
2075 274 1
2075 567 1
2075 1015 1
2075 1737 1
2075 2607 1
2075 4232 1
2076 25 1
2076 73 1
2076 735 1
2076 1497 1
2076 2284 1
2076 3682 1
2077 2 1
2077 82 1
2077 655 1
2077 1945 1
2077 4730 1
2078 177 1
2078 242 1
2078 839 1
2078 1523 1
2078 3646 1
2078 3762 1
2079 3 1
2079 714 1
2079 1018 1
2079 1863 1
2079 3329 1
2079 4053 1
2080 188 1
2080 566 1
2080 1114 1
2080 1442 1
2080 4532 1
2080 4973 1
2081 277 1
2081 342 1
2081 491 1
2081 521 1
2081 2263 1
2081 3026 1
2081 3201 1
2081 4337 1
2082 5 1
2082 137 1
2082 602 1
2082 1529 1
2083 1246 1
2083 1914 1
2083 1961 1
2083 1981 1
2083 4270 1
2083 4869 1
2084 17 1
2084 155 1
2084 482 1
2084 1161 1
2084 2147 1
2084 2222 1
2084 2723 1
2084 3663 1
2084 4438 1
2085 5 1
2085 49 1
2085 429 1
2085 1767 1
2085 2331 1
2085 2467 1
2085 2788 1
2086 20 1
2086 82 1
2086 363 1
2086 1271 1
2086 4088 1
2087 11 1
2087 39 1
2087 41 1
2087 1728 1
2088 109 1
2088 264 1
2088 863 1
2088 1537 1
2088 3784 1
2089 774 1
2089 1863 1
2089 1937 1
2089 2021 1
2089 2307 1
2089 3351 1
2090 18 1
2090 21 1
2090 296 1
2090 680 1
2091 1 1
2091 52 1
2091 1180 1
2091 2069 1
2091 2349 1
2091 2838 1
2091 4181 1
2092 388 1
2092 940 1
2092 1075 1
2092 1108 1
2093 83 1
2093 242 1
2093 546 1
2093 1015 1
2093 3014 1
2094 106 1
2094 366 1
2094 1322 1
2094 1741 1
2094 2147 1
2095 100 1
2095 146 1
2095 189 1
2095 409 1
2095 2643 1
2096 119 1
2096 417 1
2096 1340 1
2096 1989 1
2096 3896 1
2097 10 1
2097 66 1
2097 371 1
2097 817 1
2097 3340 1
2097 3675 1
2097 3680 1
2097 3723 1
2097 4505 1
2098 644 1
2098 836 1
2098 1113 1
2098 1998 1
2098 2771 1
2098 2824 1
2098 3483 1
2098 3623 1
2099 385 1
2099 1649 1
2099 1695 1
2099 2021 1
2099 2187 1
2099 3270 1
2099 4841 1
2099 4961 1
2100 50 1
2100 108 1
2100 154 1
2100 1879 1
2101 17 1
2101 30 1
2101 252 1
2101 1426 1
2101 3479 1
2101 3748 1
2101 3854 1
2101 3892 1
2102 12 1
2102 770 1
2102 787 1
2102 1276 1
2102 4913 1
2103 298 1
2103 700 1
2103 817 1
2103 1273 1
2103 2139 1
2103 2614 1
2103 3579 1
2104 25 1
2104 634 1
2104 887 1
2104 907 1
2104 2107 1
2104 3187 1
2105 1 1
2105 7 1
2105 636 1
2105 1282 1
2106 251 1
2106 582 1
2106 697 1
2106 2056 1
2106 4046 1
2107 907 1
2107 1188 1
2107 1713 1
2107 2104 1
2107 4697 1
2108 11 1
2108 59 1
2108 62 1
2108 945 1
2108 3058 1
2108 3644 1
2108 4343 1
2108 4759 1
2108 4780 1
2109 380 1
2109 1467 1
2109 1479 1
2109 1713 1
2109 3459 1
2109 4897 1
2110 178 1
2110 352 1
2110 892 1
2110 1257 1
2111 357 1
2111 435 1
2111 531 1
2111 777 1
2112 129 1
2112 921 1
2112 954 1
2112 1654 1
2112 4907 1
2113 3 1
2113 1106 1
2113 1407 1
2113 1588 1
2113 2630 1
2113 3304 1
2114 21 1
2114 745 1
2114 858 1
2114 869 1
2114 2716 1
2114 3004 1
2114 3300 1
2114 4000 1
2115 431 1
2115 689 1
2115 920 1
2115 1849 1
2116 27 1
2116 181 1
2116 789 1
2116 1016 1
2116 2951 1
2116 4402 1
2117 73 1
2117 89 1
2117 646 1
2117 1866 1
2118 2 1
2118 35 1
2118 263 1
2118 2046 1
2118 4037 1
2119 466 1
2119 771 1
2119 1249 1
2119 1584 1
2119 3580 1
2119 4268 1
2119 4515 1
2120 89 1
2120 426 1
2120 1115 1
2120 1292 1
2121 307 1
2121 1134 1
2121 1321 1
2121 1700 1
2121 3142 1
2122 266 1
2122 296 1
2122 412 1
2122 715 1
2122 3152 1
2122 3920 1
2123 407 1
2123 765 1
2123 866 1
2123 889 1
2123 3713 1
2123 3836 1
2124 77 1
2124 300 1
2124 415 1
2124 1045 1
2124 2958 1
2124 4104 1
2124 4448 1
2124 4501 1
2125 30 1
2125 63 1
2125 308 1
2125 1995 1
2125 2230 1
2125 2658 1
2125 3462 1
2126 153 1
2126 653 1
2126 810 1
2126 1901 1
2126 3667 1
2126 4482 1
2127 345 1
2127 856 1
2127 1393 1
2127 1789 1
2127 2545 1
2127 3294 1
2127 4750 1
2128 226 1
2128 385 1
2128 553 1
2128 1175 1
2128 2451 1
2128 4801 1
2129 17 1
2129 216 1
2129 974 1
2129 1038 1
2129 2410 1
2129 2794 1
2129 3934 1
2129 4135 1
2129 4258 1
2130 106 1
2130 295 1
2130 336 1
2130 1716 1
2130 2365 1
2130 2739 1
2130 3679 1
2130 4024 1
2130 4850 1
2130 4947 1
2131 242 1
2131 290 1
2131 1402 1
2131 2027 1
2131 2216 1
2132 3 1
2132 12 1
2132 372 1
2132 1357 1
2133 17 1
2133 28 1
2133 171 1
2133 361 1
2133 4530 1
2134 36 1
2134 105 1
2134 315 1
2134 658 1
2135 20 1
2135 434 1
2135 984 1
2135 1859 1
2136 42 1
2136 613 1
2136 842 1
2136 1354 1
2137 6 1
2137 47 1
2137 1514 1
2137 1805 1
2137 2393 1
2137 3491 1
2137 3595 1
2137 3629 1
2138 132 1
2138 140 1
2138 267 1
2138 828 1
2139 1553 1
2139 1630 1
2139 1819 1
2139 2103 1
2139 3701 1
2140 234 1
2140 737 1
2140 882 1
2140 1661 1
2140 2390 1
2140 2574 1
2140 3590 1
2140 3999 1
2140 4301 1
2140 4549 1
2141 85 1
2141 172 1
2141 1925 1
2141 2054 1
2141 2878 1
2141 3220 1
2141 3731 1
2141 4591 1
2142 24 1
2142 563 1
2142 1035 1
2142 1881 1
2142 2270 1
2142 4906 1
2143 73 1
2143 830 1
2143 1691 1
2143 2062 1
2143 2301 1
2143 4373 1
2144 43 1
2144 529 1
2144 582 1
2144 1035 1
2145 18 1
2145 131 1
2145 926 1
2145 1801 1
2145 4710 1
2145 4795 1
2146 49 1
2146 817 1
2146 841 1
2146 1402 1
2146 2331 1
2146 4468 1
2147 425 1
2147 825 1
2147 2084 1
2147 2094 1
2147 2742 1
2147 3037 1
2147 3424 1
2147 3998 1
2147 4233 1
2147 4381 1
2148 25 1
2148 91 1
2148 577 1
2148 1827 1
2148 3112 1
2148 3545 1
2148 4020 1
2148 4083 1
2148 4367 1
2149 86 1
2149 130 1
2149 353 1
2149 1308 1
2149 3151 1
2149 3233 1
2149 4467 1
2150 25 1
2150 70 1
2150 1493 1
2150 1622 1
2150 2468 1
2150 2733 1
2150 2930 1
2150 3778 1
2150 4437 1
2151 1 1
2151 3 1
2151 554 1
2151 1448 1
2151 2534 1
2152 16 1
2152 118 1
2152 653 1
2152 953 1
2153 73 1
2153 400 1
2153 1103 1
2153 1412 1
2153 2882 1
2154 4 1
2154 204 1
2154 674 1
2154 1083 1
2154 3927 1
2155 595 1
2155 1180 1
2155 1229 1
2155 1984 1
2156 17 1
2156 84 1
2156 305 1
2156 971 1
2156 2928 1
2156 4200 1
2156 4823 1
2157 225 1
2157 274 1
2157 287 1
2157 1644 1
2157 2535 1
2157 4600 1
2158 642 1
2158 1426 1
2158 1462 1
2158 1490 1
2158 2617 1
2158 2803 1
2158 3594 1
2159 5 1
2159 30 1
2159 40 1
2159 1351 1
2160 177 1
2160 286 1
2160 850 1
2160 1211 1
2160 3295 1
2161 291 1
2161 644 1
2161 684 1
2161 1216 1
2161 2756 1
2161 3500 1
2162 10 1
2162 475 1
2162 609 1
2162 810 1
2162 2515 1
2162 2573 1
2162 3454 1
2163 2 1
2163 52 1
2163 89 1
2163 611 1
2163 3281 1
2163 3545 1
2163 4332 1
2164 274 1
2164 1071 1
2164 1374 1
2164 1470 1
2164 2943 1
2164 3112 1
2164 3956 1
2165 29 1
2165 408 1
2165 715 1
2165 801 1
2165 2970 1
2165 3201 1
2165 4205 1
2165 4271 1
2166 3 1
2166 522 1
2166 682 1
2166 2005 1
2167 6 1
2167 51 1
2167 917 1
2167 1567 1
2167 3951 1
2168 6 1
2168 537 1
2168 1275 1
2168 1777 1
2169 196 1
2169 484 1
2169 938 1
2169 1985 1
2169 3637 1
2169 4624 1
2170 274 1
2170 441 1
2170 874 1
2170 1187 1
2170 3043 1
2171 33 1
2171 102 1
2171 700 1
2171 1746 1
2171 2786 1
2171 2794 1
2171 3432 1
2171 4251 1
2172 39 1
2172 47 1
2172 292 1
2172 1349 1
2172 2443 1
2172 2627 1
2172 2818 1
2172 3419 1
2172 4356 1
2172 4511 1
2172 4717 1
2172 4940 1
2173 52 1
2173 339 1
2173 1366 1
2173 1663 1
2173 2654 1
2173 3052 1
2173 4259 1
2173 4627 1
2174 250 1
2174 662 1
2174 773 1
2174 812 1
2174 2417 1
2174 2986 1
2174 3971 1
2174 4143 1
2175 66 1
2175 85 1
2175 562 1
2175 1547 1
2176 3 1
2176 16 1
2176 752 1
2176 2011 1
2177 77 1
2177 515 1
2177 636 1
2177 1659 1
2177 2374 1
2177 2871 1
2177 2909 1
2177 3272 1
2177 3436 1
2177 4016 1
2178 141 1
2178 481 1
2178 1159 1
2178 1250 1
2179 66 1
2179 168 1
2179 186 1
2179 1347 1
2179 2253 1
2180 5 1
2180 107 1
2180 296 1
2180 1625 1
2181 3 1
2181 109 1
2181 281 1
2181 1272 1
2182 231 1
2182 465 1
2182 752 1
2182 954 1
2183 293 1
2183 305 1
2183 1137 1
2183 1729 1
2183 2919 1
2184 17 1
2184 1052 1
2184 1448 1
2184 1528 1
2184 2737 1
2184 3530 1
2185 42 1
2185 205 1
2185 382 1
2185 2070 1
2185 2883 1
2185 3152 1
2185 3431 1
2185 3600 1
2185 3865 1
2185 4887 1
2185 4930 1
2186 2 1
2186 25 1
2186 1090 1
2186 2040 1
2186 3272 1
2187 202 1
2187 1049 1
2187 1649 1
2187 2099 1
2187 3731 1
2187 4454 1
2188 102 1
2188 153 1
2188 388 1
2188 603 1
2188 4081 1
2189 618 1
2189 793 1
2189 1273 1
2189 1777 1
2189 2814 1
2189 3097 1
2189 4773 1
2190 18 1
2190 171 1
2190 612 1
2190 1681 1
2190 3998 1
2191 177 1
2191 534 1
2191 700 1
2191 836 1
2192 44 1
2192 290 1
2192 561 1
2192 925 1
2192 4384 1
2193 4 1
2193 347 1
2193 412 1
2193 1985 1
2194 318 1
2194 823 1
2194 1534 1
2194 1678 1
2194 2547 1
2195 455 1
2195 753 1
2195 882 1
2195 1515 1
2195 2616 1
2196 97 1
2196 227 1
2196 704 1
2196 850 1
2197 332 1
2197 641 1
2197 1316 1
2197 1701 1
2197 2721 1
2197 3091 1
2197 3919 1
2197 4116 1
2197 4785 1
2198 305 1
2198 471 1
2198 1453 1
2198 1951 1
2198 2326 1
2198 3996 1
2199 28 1
2199 90 1
2199 307 1
2199 717 1
2199 3477 1
2199 4167 1
2199 4379 1
2199 4716 1
2200 337 1
2200 898 1
2200 1140 1
2200 1266 1
2200 3849 1
2200 4558 1
2201 201 1
2201 242 1
2201 881 1
2201 1667 1
2201 3176 1
2201 3282 1
2201 3660 1
2201 4694 1
2202 295 1
2202 296 1
2202 339 1
2202 1723 1
2202 3219 1
2202 3493 1
2203 169 1
2203 221 1
2203 724 1
2203 1653 1
2203 3023 1
2204 332 1
2204 1022 1
2204 1088 1
2204 2017 1
2204 3165 1
2205 3 1
2205 1020 1
2205 1191 1
2205 1869 1
2206 41 1
2206 371 1
2206 580 1
2206 1435 1
2206 2561 1
2206 2694 1
2206 3400 1
2206 3823 1
2206 4178 1
2207 55 1
2207 1099 1
2207 1591 1
2207 1991 1
2207 2944 1
2208 887 1
2208 1008 1
2208 1300 1
2208 1961 1
2208 2295 1
2209 275 1
2209 954 1
2209 1068 1
2209 1377 1
2209 4344 1
2210 197 1
2210 614 1
2210 740 1
2210 1225 1
2210 2704 1
2211 100 1
2211 270 1
2211 472 1
2211 895 1
2211 3717 1
2212 17 1
2212 690 1
2212 796 1
2212 1621 1
2212 3032 1
2212 3300 1
2212 3842 1
2212 4225 1
2213 3 1
2213 28 1
2213 102 1
2213 1000 1
2213 2670 1
2213 3642 1
2214 899 1
2214 999 1
2214 1794 1
2214 2010 1
2214 3895 1
2215 11 1
2215 66 1
2215 665 1
2215 1842 1
2216 242 1
2216 634 1
2216 710 1
2216 2131 1
2216 2543 1
2217 322 1
2217 463 1
2217 985 1
2217 1044 1
2217 2398 1
2217 2668 1
2217 2719 1
2217 3136 1
2217 3909 1
2217 4297 1
2217 4304 1
2217 4626 1
2218 66 1
2218 71 1
2218 669 1
2218 1854 1
2218 2238 1
2218 2938 1
2218 3789 1
2218 3862 1
2219 18 1
2219 28 1
2219 287 1
2219 1313 1
2219 3997 1
2219 4008 1
2219 4990 1
2220 226 1
2220 418 1
2220 841 1
2220 1890 1
2220 2538 1
2220 2627 1
2220 3366 1
2220 3739 1
2220 3862 1
2220 4171 1
2220 4790 1
2221 115 1
2221 164 1
2221 197 1
2221 1635 1
2221 3828 1
2222 100 1
2222 284 1
2222 472 1
2222 2084 1
2223 2 1
2223 1075 1
2223 1550 1
2223 2029 1
2223 3447 1
2224 3 1
2224 122 1
2224 385 1
2224 685 1
2224 2765 1
2225 113 1
2225 221 1
2225 737 1
2225 1110 1
2225 2415 1
2225 3231 1
2225 3797 1
2225 4092 1
2225 4152 1
2225 4187 1
2226 9 1
2226 234 1
2226 236 1
2226 1268 1
2226 2472 1
2226 2513 1
2226 2926 1
2226 3759 1
2227 74 1
2227 357 1
2227 529 1
2227 603 1
2227 3571 1
2227 3905 1
2228 45 1
2228 93 1
2228 169 1
2228 430 1
2228 4431 1
2229 563 1
2229 651 1
2229 801 1
2229 1152 1
2229 3678 1
2230 63 1
2230 309 1
2230 412 1
2230 2125 1
2231 58 1
2231 172 1
2231 1444 1
2231 2072 1
2232 89 1
2232 305 1
2232 661 1
2232 1755 1
2233 2 1
2233 3 1
2233 49 1
2233 964 1
2233 3992 1
2234 51 1
2234 82 1
2234 641 1
2234 1224 1
2234 3414 1
2235 10 1
2235 25 1
2235 248 1
2235 1297 1
2235 4354 1
2236 19 1
2236 66 1
2236 545 1
2236 1133 1
2237 6 1
2237 172 1
2237 323 1
2237 540 1
2237 3133 1
2237 3254 1
2237 3496 1
2237 4005 1
2237 4920 1
2238 42 1
2238 185 1
2238 1262 1
2238 2218 1
2238 2445 1
2238 2884 1
2238 4282 1
2239 177 1
2239 372 1
2239 724 1
2239 1854 1
2239 3632 1
2240 17 1
2240 19 1
2240 433 1
2240 452 1
2240 4372 1
2241 130 1
2241 194 1
2241 1217 1
2241 1543 1
2242 457 1
2242 658 1
2242 834 1
2242 1739 1
2242 2919 1
2242 2969 1
2242 2973 1
2242 3760 1
2242 3959 1
2242 4792 1
2242 4938 1
2243 20 1
2243 57 1
2243 130 1
2243 1036 1
2243 2597 1
2243 3264 1
2244 62 1
2244 959 1
2244 1291 1
2244 1821 1
2245 497 1
2245 980 1
2245 1601 1
2245 1822 1
2245 3268 1
2245 4429 1
2246 246 1
2246 1638 1
2246 1773 1
2246 2006 1
2247 55 1
2247 85 1
2247 356 1
2247 1995 1
2247 4139 1
2248 2 1
2248 62 1
2248 101 1
2248 396 1
2248 4539 1
2249 57 1
2249 130 1
2249 182 1
2249 2059 1
2249 3524 1
2250 122 1
2250 487 1
2250 1221 1
2250 1462 1
2250 2741 1
2250 3836 1
2250 4333 1
2251 2 1
2251 153 1
2251 414 1
2251 1658 1
2251 2966 1
2251 4865 1
2252 289 1
2252 298 1
2252 1008 1
2252 1202 1
2253 168 1
2253 1085 1
2253 1790 1
2253 2179 1
2254 3 1
2254 114 1
2254 667 1
2254 1138 1
2254 3307 1
2255 110 1
2255 459 1
2255 1513 1
2255 1711 1
2255 3703 1
2256 116 1
2256 322 1
2256 1199 1
2256 1514 1
2257 75 1
2257 721 1
2257 881 1
2257 911 1
2257 4281 1
2258 266 1
2258 377 1
2258 613 1
2258 1849 1
2258 2712 1
2259 188 1
2259 484 1
2259 1049 1
2259 1882 1
2259 3526 1
2259 4226 1
2260 721 1
2260 1126 1
2260 1429 1
2260 1941 1
2261 67 1
2261 309 1
2261 475 1
2261 1809 1
2262 42 1
2262 601 1
2262 1929 1
2262 1992 1
2263 61 1
2263 177 1
2263 491 1
2263 2081 1
2264 25 1
2264 588 1
2264 624 1
2264 1420 1
2264 3485 1
2265 142 1
2265 350 1
2265 1114 1
2265 1347 1
2265 2525 1
2265 3672 1
2265 4631 1
2266 84 1
2266 964 1
2266 1419 1
2266 1608 1
2266 2556 1
2267 2 1
2267 71 1
2267 848 1
2267 2009 1
2267 3541 1
2267 4710 1
2268 3 1
2268 152 1
2268 214 1
2268 821 1
2268 2464 1
2269 138 1
2269 867 1
2269 1794 1
2269 1966 1
2269 2424 1
2270 385 1
2270 1267 1
2270 1479 1
2270 2142 1
2271 131 1
2271 731 1
2271 975 1
2271 2062 1
2271 2783 1
2272 205 1
2272 535 1
2272 666 1
2272 911 1
2273 18 1
2273 129 1
2273 287 1
2273 667 1
2273 2381 1
2273 2414 1
2273 2503 1
2273 2587 1
2273 4834 1
2274 17 1
2274 208 1
2274 598 1
2274 1177 1
2275 1 1
2275 33 1
2275 259 1
2275 627 1
2275 3634 1
2275 3725 1
2276 33 1
2276 43 1
2276 141 1
2276 275 1
2276 3216 1
2277 9 1
2277 106 1
2277 110 1
2277 153 1
2277 2336 1
2277 3005 1
2277 3613 1
2277 4286 1
2278 113 1
2278 898 1
2278 1266 1
2278 1457 1
2278 2531 1
2278 2605 1
2278 2932 1
2279 347 1
2279 353 1
2279 515 1
2279 544 1
2280 37 1
2280 56 1
2280 1485 1
2280 1675 1
2280 2683 1
2280 2726 1
2281 160 1
2281 836 1
2281 893 1
2281 1916 1
2281 2487 1
2281 2517 1
2281 2845 1
2281 2851 1
2281 3476 1
2281 4110 1
2282 125 1
2282 332 1
2282 928 1
2282 2025 1
2282 2484 1
2282 2504 1
2282 4093 1
2282 4199 1
2283 2 1
2283 18 1
2283 38 1
2283 130 1
2283 3446 1
2283 4696 1
2283 4907 1
2284 9 1
2284 163 1
2284 530 1
2284 2076 1
2284 2351 1
2285 679 1
2285 705 1
2285 921 1
2285 1722 1
2286 162 1
2286 169 1
2286 361 1
2286 1321 1
2286 3204 1
2286 3220 1
2286 4121 1
2286 4404 1
2286 4648 1
2287 3 1
2287 1272 1
2287 1613 1
2287 2012 1
2287 3925 1
2288 90 1
2288 168 1
2288 1609 1
2288 1766 1
2289 13 1
2289 117 1
2289 210 1
2289 470 1
2289 3239 1
2289 3391 1
2289 4143 1
2290 194 1
2290 395 1
2290 1227 1
2290 1337 1
2290 2795 1
2290 3952 1
2290 4014 1
2291 18 1
2291 577 1
2291 895 1
2291 1054 1
2291 4561 1
2292 92 1
2292 645 1
2292 990 1
2292 1803 1
2292 3521 1
2292 3796 1
2292 4142 1
2292 4504 1
2293 17 1
2293 25 1
2293 154 1
2293 1004 1
2293 3614 1
2294 6 1
2294 14 1
2294 329 1
2294 1148 1
2294 4466 1
2294 4491 1
2295 67 1
2295 581 1
2295 914 1
2295 2208 1
2296 129 1
2296 749 1
2296 790 1
2296 817 1
2297 3 1
2297 290 1
2297 1446 1
2297 1897 1
2297 2562 1
2297 3275 1
2297 3567 1
2297 4203 1
2298 25 1
2298 131 1
2298 220 1
2298 1586 1
2298 2496 1
2299 52 1
2299 155 1
2299 977 1
2299 1010 1
2299 2415 1
2299 2451 1
2299 2496 1
2299 2852 1
2299 2968 1
2299 3143 1
2299 3453 1
2299 4745 1
2300 44 1
2300 1302 1
2300 1350 1
2300 1967 1
2301 73 1
2301 178 1
2301 586 1
2301 2143 1
2302 11 1
2302 706 1
2302 1628 1
2302 1859 1
2302 4301 1
2302 4346 1
2302 4513 1
2303 5 1
2303 73 1
2303 446 1
2303 1532 1
2303 2944 1
2303 4402 1
2304 2 1
2304 3 1
2304 297 1
2304 1475 1
2304 3089 1
2304 4925 1
2305 12 1
2305 179 1
2305 188 1
2305 1986 1
2305 2779 1
2305 2861 1
2305 3174 1
2306 365 1
2306 434 1
2306 676 1
2306 1060 1
2307 530 1
2307 774 1
2307 1863 1
2307 2089 1
2308 12 1
2308 17 1
2308 100 1
2308 664 1
2308 3214 1
2308 3564 1
2308 3600 1
2308 4146 1
2308 4776 1
2309 125 1
2309 426 1
2309 972 1
2309 1771 1
2309 2662 1
2309 3588 1
2310 533 1
2310 645 1
2310 1487 1
2310 1746 1
2311 325 1
2311 470 1
2311 650 1
2311 1472 1
2311 4071 1
2312 77 1
2312 1137 1
2312 1450 1
2312 1569 1
2312 2992 1
2313 19 1
2313 65 1
2313 399 1
2313 793 1
2313 3503 1
2314 201 1
2314 220 1
2314 585 1
2314 1234 1
2314 2820 1
2314 2844 1
2315 263 1
2315 296 1
2315 1545 1
2315 1795 1
2315 2359 1
2315 2427 1
2315 4044 1
2315 4245 1
2315 4964 1
2316 27 1
2316 90 1
2316 151 1
2316 856 1
2316 2953 1
2316 2971 1
2316 3200 1
2317 371 1
2317 405 1
2317 779 1
2317 1169 1
2317 2425 1
2317 2788 1
2318 150 1
2318 388 1
2318 673 1
2318 1644 1
2318 4237 1
2318 4610 1
2318 4670 1
2319 1 1
2319 35 1
2319 475 1
2319 1793 1
2319 2839 1
2319 2941 1
2319 2954 1
2319 3893 1
2319 3981 1
2320 58 1
2320 176 1
2320 261 1
2320 451 1
2321 3 1
2321 13 1
2321 680 1
2321 862 1
2322 3 1
2322 613 1
2322 626 1
2322 1715 1
2322 3277 1
2322 3707 1
2322 4384 1
2322 4797 1
2322 4863 1
2323 34 1
2323 111 1
2323 473 1
2323 1866 1
2323 2707 1
2324 1233 1
2324 1592 1
2324 1795 1
2324 1881 1
2324 3269 1
2324 3782 1
2324 4583 1
2325 19 1
2325 176 1
2325 251 1
2325 1957 1
2325 4363 1
2326 40 1
2326 66 1
2326 72 1
2326 2198 1
2326 2517 1
2326 3069 1
2327 243 1
2327 347 1
2327 1343 1
2327 2003 1
2328 357 1
2328 737 1
2328 884 1
2328 2030 1
2329 4 1
2329 389 1
2329 1081 1
2329 1227 1
2329 2352 1
2329 2550 1
2329 2801 1
2329 3084 1
2329 3565 1
2329 3890 1
2329 4972 1
2330 132 1
2330 830 1
2330 950 1
2330 1954 1
2331 49 1
2331 1968 1
2331 2085 1
2331 2146 1
2331 3877 1
2331 4468 1
2332 157 1
2332 875 1
2332 926 1
2332 1491 1
2332 3296 1
2332 3569 1
2332 4919 1
2333 2 1
2333 722 1
2333 1958 1
2333 1971 1
2333 3211 1
2333 4851 1
2334 321 1
2334 460 1
2334 685 1
2334 1470 1
2334 4519 1
2335 1 1
2335 19 1
2335 367 1
2335 1354 1
2335 4673 1
2336 85 1
2336 106 1
2336 281 1
2336 2277 1
2337 585 1
2337 690 1
2337 786 1
2337 1089 1
2338 113 1
2338 186 1
2338 474 1
2338 779 1
2338 2547 1
2338 4152 1
2338 4577 1
2339 9 1
2339 308 1
2339 416 1
2339 1162 1
2340 316 1
2340 571 1
2340 961 1
2340 1212 1
2340 2681 1
2340 2842 1
2340 3556 1
2340 4553 1
2341 12 1
2341 142 1
2341 1642 1
2341 2037 1
2342 194 1
2342 209 1
2342 357 1
2342 1582 1
2343 89 1
2343 305 1
2343 1283 1
2343 1378 1
2343 3263 1
2343 3359 1
2344 25 1
2344 425 1
2344 811 1
2344 1851 1
2345 745 1
2345 1302 1
2345 1463 1
2345 1483 1
2345 2350 1
2345 2402 1
2345 2642 1
2345 2819 1
2345 2893 1
2345 2947 1
2345 3028 1
2345 3988 1
2345 4290 1
2346 41 1
2346 684 1
2346 834 1
2346 1721 1
2346 3737 1
2346 4051 1
2347 2 1
2347 19 1
2347 861 1
2347 1683 1
2347 2471 1
2347 3919 1
2347 4673 1
2348 26 1
2348 220 1
2348 966 1
2348 1329 1
2348 2635 1
2348 2952 1
2348 3197 1
2349 100 1
2349 1303 1
2349 1522 1
2349 2091 1
2349 4181 1
2349 4701 1
2349 4943 1
2350 321 1
2350 1470 1
2350 1737 1
2350 2345 1
2350 2893 1
2351 203 1
2351 530 1
2351 1706 1
2351 2284 1
2351 2725 1
2352 4 1
2352 177 1
2352 1538 1
2352 2329 1
2352 3069 1
2353 10 1
2353 17 1
2353 530 1
2353 578 1
2353 3213 1
2353 4048 1
2354 294 1
2354 306 1
2354 330 1
2354 1123 1
2354 3195 1
2354 4389 1
2354 4889 1
2354 4959 1
2354 4984 1
2355 157 1
2355 681 1
2355 800 1
2355 1874 1
2355 3030 1
2355 3240 1
2355 3456 1
2355 3879 1
2355 4032 1
2355 4145 1
2355 4867 1
2356 124 1
2356 333 1
2356 1676 1
2356 1924 1
2356 4209 1
2356 4216 1
2356 4836 1
2357 19 1
2357 51 1
2357 148 1
2357 669 1
2357 2672 1
2357 2906 1
2357 3768 1
2357 4535 1
2358 13 1
2358 260 1
2358 402 1
2358 617 1
2358 2432 1
2358 2477 1
2358 4656 1
2359 738 1
2359 787 1
2359 1026 1
2359 2315 1
2359 2817 1
2359 3450 1
2359 3593 1
2359 3779 1
2359 4592 1
2360 154 1
2360 324 1
2360 492 1
2360 654 1
2361 28 1
2361 405 1
2361 829 1
2361 1051 1
2361 4167 1
2362 90 1
2362 162 1
2362 201 1
2362 502 1
2363 718 1
2363 1831 1
2363 1976 1
2363 2012 1
2363 3064 1
2363 3374 1
2363 3402 1
2363 4081 1
2363 4125 1
2364 35 1
2364 433 1
2364 921 1
2364 1482 1
2364 2881 1
2364 3083 1
2364 3388 1
2364 3893 1
2364 3914 1
2364 4643 1
2365 307 1
2365 430 1
2365 534 1
2365 2130 1
2365 2739 1
2365 4549 1
2366 455 1
2366 655 1
2366 811 1
2366 1838 1
2366 3329 1
2366 4625 1
2367 357 1
2367 388 1
2367 1459 1
2367 1555 1
2367 4210 1
2368 17 1
2368 41 1
2368 57 1
2368 259 1
2368 2449 1
2368 4134 1
2369 43 1
2369 908 1
2369 1329 1
2369 1413 1
2369 2717 1
2369 2847 1
2369 3519 1
2370 13 1
2370 354 1
2370 673 1
2370 1773 1
2370 2879 1
2370 3122 1
2370 4339 1
2370 4578 1
2371 178 1
2371 798 1
2371 963 1
2371 1158 1
2371 4495 1
2372 1 1
2372 629 1
2372 737 1
2372 974 1
2373 27 1
2373 66 1
2373 1276 1
2373 1367 1
2373 3380 1
2374 10 1
2374 291 1
2374 1002 1
2374 2177 1
2374 3409 1
2374 3436 1
2374 3780 1
2374 4137 1
2375 37 1
2375 74 1
2375 118 1
2375 199 1
2376 419 1
2376 1371 1
2376 1625 1
2376 1634 1
2376 2495 1
2376 3015 1
2377 430 1
2377 767 1
2377 801 1
2377 1114 1
2377 3305 1
2377 4165 1
2377 4934 1
2378 82 1
2378 864 1
2378 1045 1
2378 1753 1
2378 2545 1
2378 2684 1
2378 3141 1
2378 3294 1
2378 3395 1
2378 4181 1
2378 4500 1
2379 22 1
2379 44 1
2379 131 1
2379 245 1
2379 3859 1
2380 361 1
2380 765 1
2380 889 1
2380 1701 1
2380 3015 1
2380 3018 1
2380 3512 1
2380 4714 1
2381 25 1
2381 72 1
2381 357 1
2381 2273 1
2382 3 1
2382 191 1
2382 628 1
2382 1229 1
2382 2663 1
2383 42 1
2383 57 1
2383 812 1
2383 1849 1
2383 3142 1
2384 387 1
2384 438 1
2384 1669 1
2384 1803 1
2385 57 1
2385 251 1
2385 482 1
2385 924 1
2385 2444 1
2385 4063 1
2386 29 1
2386 37 1
2386 890 1
2386 1668 1
2387 11 1
2387 59 1
2387 89 1
2387 1202 1
2387 3232 1
2387 3689 1
2387 4731 1
2387 4794 1
2388 195 1
2388 768 1
2388 774 1
2388 1871 1
2388 2528 1
2389 59 1
2389 475 1
2389 644 1
2389 1665 1
2390 204 1
2390 394 1
2390 1136 1
2390 2140 1
2391 10 1
2391 18 1
2391 356 1
2391 1091 1
2392 3 1
2392 141 1
2392 373 1
2392 1306 1
2393 463 1
2393 1502 1
2393 1805 1
2393 2137 1
2393 4510 1
2394 260 1
2394 566 1
2394 1185 1
2394 1341 1
2394 3681 1
2394 4664 1
2394 4806 1
2395 677 1
2395 889 1
2395 1025 1
2395 1121 1
2395 3132 1
2395 3164 1
2395 3378 1
2395 3442 1
2395 4941 1
2396 5 1
2396 20 1
2396 58 1
2396 2054 1
2396 3891 1
2397 332 1
2397 397 1
2397 577 1
2397 1778 1
2398 322 1
2398 603 1
2398 985 1
2398 2217 1
2398 2442 1
2399 3 1
2399 642 1
2399 863 1
2399 1689 1
2399 2972 1
2400 361 1
2400 578 1
2400 1507 1
2400 1844 1
2400 2479 1
2400 3967 1
2401 301 1
2401 780 1
2401 881 1
2401 1633 1
2401 4974 1
2402 16 1
2402 73 1
2402 483 1
2402 2345 1
2402 2435 1
2402 2642 1
2402 3322 1
2403 102 1
2403 510 1
2403 971 1
2403 1505 1
2404 17 1
2404 271 1
2404 395 1
2404 631 1
2405 177 1
2405 203 1
2405 524 1
2405 572 1
2405 2453 1
2406 57 1
2406 90 1
2406 875 1
2406 1668 1
2406 3663 1
2407 66 1
2407 431 1
2407 481 1
2407 562 1
2407 2744 1
2407 3040 1
2407 3800 1
2407 4378 1
2407 4617 1
2407 4917 1
2408 15 1
2408 17 1
2408 562 1
2408 1707 1
2408 4321 1
2409 229 1
2409 233 1
2409 386 1
2409 557 1
2409 2760 1
2409 3051 1
2409 3291 1
2409 3491 1
2409 4009 1
2410 373 1
2410 650 1
2410 1038 1
2410 2129 1
2410 2794 1
2410 3392 1
2410 4135 1
2410 4258 1
2410 4351 1
2411 21 1
2411 212 1
2411 265 1
2411 1484 1
2411 2745 1
2411 4092 1
2412 17 1
2412 27 1
2412 84 1
2412 1370 1
2412 2614 1
2412 3051 1
2412 3274 1
2412 3280 1
2412 3317 1
2412 4289 1
2413 195 1
2413 647 1
2413 788 1
2413 1340 1
2413 2899 1
2414 18 1
2414 53 1
2414 114 1
2414 2273 1
2415 90 1
2415 175 1
2415 2225 1
2415 2299 1
2415 4915 1
2416 26 1
2416 332 1
2416 603 1
2416 1017 1
2417 180 1
2417 350 1
2417 662 1
2417 2174 1
2417 3971 1
2417 4390 1
2418 227 1
2418 329 1
2418 425 1
2418 802 1
2418 3011 1
2418 3604 1
2418 4528 1
2419 353 1
2419 1113 1
2419 1254 1
2419 1765 1
2419 2438 1
2419 3956 1
2420 421 1
2420 1235 1
2420 1505 1
2420 1822 1
2421 42 1
2421 939 1
2421 1307 1
2421 1589 1
2421 3851 1
2421 4471 1
2421 4523 1
2422 10 1
2422 371 1
2422 977 1
2422 1595 1
2423 29 1
2423 50 1
2423 1051 1
2423 1521 1
2423 3323 1
2423 4800 1
2424 401 1
2424 729 1
2424 1066 1
2424 2269 1
2424 4751 1
2425 366 1
2425 540 1
2425 949 1
2425 2317 1
2425 2653 1
2425 3221 1
2425 3288 1
2425 3496 1
2426 1169 1
2426 1311 1
2426 1413 1
2426 2031 1
2426 2504 1
2426 3561 1
2426 3734 1
2427 597 1
2427 669 1
2427 1531 1
2427 2315 1
2427 2955 1
2427 3713 1
2428 131 1
2428 648 1
2428 734 1
2428 789 1
2429 13 1
2429 242 1
2429 763 1
2429 1516 1
2429 2669 1
2429 3014 1
2429 3997 1
2430 19 1
2430 385 1
2430 781 1
2430 1666 1
2430 4161 1
2431 108 1
2431 414 1
2431 884 1
2431 1903 1
2432 13 1
2432 139 1
2432 617 1
2432 2358 1
2432 2748 1
2432 3427 1
2432 4555 1
2433 340 1
2433 1075 1
2433 1259 1
2433 1452 1
2433 2998 1
2434 356 1
2434 609 1
2434 652 1
2434 673 1
2434 3655 1
2434 4743 1
2435 73 1
2435 79 1
2435 820 1
2435 2402 1
2436 267 1
2436 388 1
2436 1066 1
2436 1537 1
2436 2624 1
2436 4512 1
2437 23 1
2437 161 1
2437 1018 1
2437 1885 1
2437 2498 1
2437 3502 1
2438 325 1
2438 353 1
2438 830 1
2438 2419 1
2438 4144 1
2439 84 1
2439 732 1
2439 829 1
2439 1874 1
2439 3316 1
2439 3720 1
2439 3944 1
2440 2 1
2440 67 1
2440 601 1
2440 2073 1
2440 3196 1
2440 3256 1
2440 4561 1
2441 2 1
2441 161 1
2441 187 1
2441 1424 1
2441 3481 1
2441 3861 1
2441 4509 1
2441 4923 1
2442 19 1
2442 450 1
2442 1646 1
2442 2398 1
2442 3338 1
2442 3902 1
2443 292 1
2443 413 1
2443 710 1
2443 2172 1
2443 2627 1
2443 2949 1
2444 251 1
2444 874 1
2444 1575 1
2444 2385 1
2444 4063 1
2445 5 1
2445 432 1
2445 478 1
2445 2238 1
2445 2563 1
2445 3389 1
2446 36 1
2446 406 1
2446 1503 1
2446 1524 1
2446 4511 1
2447 98 1
2447 115 1
2447 197 1
2447 561 1
2447 3281 1
2447 3845 1
2448 244 1
2448 291 1
2448 877 1
2448 1907 1
2448 4457 1
2449 57 1
2449 191 1
2449 769 1
2449 2368 1
2449 4842 1
2450 306 1
2450 386 1
2450 1145 1
2450 1578 1
2450 3578 1
2450 3691 1
2451 226 1
2451 909 1
2451 2128 1
2451 2299 1
2451 2968 1
2451 4728 1
2451 4763 1
2452 14 1
2452 25 1
2452 154 1
2452 1060 1
2452 3223 1
2453 106 1
2453 203 1
2453 1910 1
2453 2405 1
2453 3357 1
2454 603 1
2454 655 1
2454 1225 1
2454 1320 1
2454 2507 1
2454 4559 1
2454 4570 1
2455 17 1
2455 640 1
2455 1206 1
2455 1585 1
2456 36 1
2456 242 1
2456 344 1
2456 404 1
2456 2894 1
2456 3337 1
2457 5 1
2457 17 1
2457 114 1
2457 192 1
2457 3364 1
2458 11 1
2458 149 1
2458 490 1
2458 512 1
2458 3065 1
2458 4192 1
2458 4525 1
2458 4798 1
2459 234 1
2459 308 1
2459 920 1
2459 1683 1
2459 4692 1
2460 284 1
2460 483 1
2460 979 1
2460 1317 1
2460 3060 1
2461 49 1
2461 548 1
2461 803 1
2461 1645 1
2462 20 1
2462 114 1
2462 202 1
2462 312 1
2463 2 1
2463 137 1
2463 175 1
2463 810 1
2463 3252 1
2464 214 1
2464 1101 1
2464 1918 1
2464 2268 1
2465 105 1
2465 146 1
2465 409 1
2465 1208 1
2466 193 1
2466 205 1
2466 263 1
2466 1689 1
2466 3001 1
2467 139 1
2467 429 1
2467 1613 1
2467 2085 1
2468 633 1
2468 667 1
2468 1493 1
2468 2150 1
2468 3081 1
2468 3914 1
2469 33 1
2469 84 1
2469 1218 1
2469 2024 1
2469 2625 1
2469 3167 1
2469 3875 1
2469 4435 1
2470 193 1
2470 307 1
2470 1122 1
2470 1359 1
2471 5 1
2471 15 1
2471 1413 1
2471 2347 1
2471 2839 1
2472 802 1
2472 1268 1
2472 1345 1
2472 2226 1
2472 4237 1
2473 25 1
2473 552 1
2473 1703 1
2473 1981 1
2473 2791 1
2473 3504 1
2473 4835 1
2474 12 1
2474 412 1
2474 2018 1
2474 2026 1
2475 28 1
2475 536 1
2475 674 1
2475 1267 1
2475 2983 1
2475 4789 1
2476 108 1
2476 690 1
2476 748 1
2476 1537 1
2476 2754 1
2476 4185 1
2477 20 1
2477 260 1
2477 434 1
2477 2358 1
2477 2518 1
2477 3410 1
2477 3601 1
2477 3681 1
2478 16 1
2478 25 1
2478 1333 1
2478 2028 1
2478 4373 1
2478 4974 1
2479 139 1
2479 193 1
2479 1844 1
2479 2400 1
2479 4556 1
2480 53 1
2480 1030 1
2480 1351 1
2480 1817 1
2480 4059 1
2481 35 1
2481 42 1
2481 923 1
2481 1870 1
2481 2572 1
2481 2999 1
2481 3524 1
2481 3673 1
2481 4157 1
2481 4713 1
2482 2 1
2482 168 1
2482 298 1
2482 1431 1
2483 75 1
2483 373 1
2483 497 1
2483 785 1
2484 125 1
2484 332 1
2484 2025 1
2484 2282 1
2484 2580 1
2484 3686 1
2484 4781 1
2485 219 1
2485 480 1
2485 690 1
2485 710 1
2485 3132 1
2485 4005 1
2485 4966 1
2486 10 1
2486 35 1
2486 1582 1
2486 1603 1
2486 2838 1
2487 501 1
2487 893 1
2487 1751 1
2487 2281 1
2487 2879 1
2487 3129 1
2487 3469 1
2488 85 1
2488 168 1
2488 410 1
2488 755 1
2489 91 1
2489 277 1
2489 521 1
2489 530 1
2489 2854 1
2489 3923 1
2489 4658 1
2490 5 1
2490 175 1
2490 531 1
2490 1411 1
2490 2540 1
2491 3 1
2491 378 1
2491 764 1
2491 1591 1
2492 54 1
2492 356 1
2492 1162 1
2492 1879 1
2492 3053 1
2492 3477 1
2492 3569 1
2492 4989 1
2493 73 1
2493 290 1
2493 830 1
2493 853 1
2494 105 1
2494 324 1
2494 471 1
2494 1299 1
2494 3182 1
2494 3305 1
2494 3708 1
2494 4223 1
2494 4896 1
2495 75 1
2495 177 1
2495 1634 1
2495 2376 1
2495 3536 1
2495 4957 1
2496 160 1
2496 977 1
2496 2298 1
2496 2299 1
2497 177 1
2497 453 1
2497 1211 1
2497 2053 1
2497 2588 1
2497 2631 1
2497 4025 1
2497 4265 1
2498 17 1
2498 23 1
2498 866 1
2498 2437 1
2498 2524 1
2498 2815 1
2499 19 1
2499 21 1
2499 1395 1
2499 1634 1
2499 2979 1
2500 49 1
2500 122 1
2500 409 1
2500 513 1
2500 2634 1
2500 2908 1
2500 3108 1
2501 51 1
2501 169 1
2501 190 1
2501 680 1
2502 121 1
2502 443 1
2502 450 1
2502 1680 1
2502 4419 1
2503 43 1
2503 50 1
2503 81 1
2503 2273 1
2504 89 1
2504 1117 1
2504 2282 1
2504 2426 1
2504 3967 1
2504 4941 1
2505 113 1
2505 440 1
2505 940 1
2505 946 1
2505 4180 1
2506 2 1
2506 305 1
2506 768 1
2506 933 1
2507 1225 1
2507 1326 1
2507 1379 1
2507 2454 1
2507 4095 1
2507 4589 1
2507 4931 1
2508 2 1
2508 460 1
2508 703 1
2508 927 1
2508 4319 1
2509 533 1
2509 553 1
2509 1170 1
2509 1487 1
2509 3736 1
2510 309 1
2510 394 1
2510 426 1
2510 743 1
2511 173 1
2511 1302 1
2511 1331 1
2511 2026 1
2511 3627 1
2511 3941 1
2512 1 1
2512 627 1
2512 1467 1
2512 1793 1
2513 9 1
2513 364 1
2513 426 1
2513 2226 1
2513 2727 1
2513 3759 1
2513 4679 1
2514 108 1
2514 221 1
2514 440 1
2514 1054 1
2514 2555 1
2515 14 1
2515 61 1
2515 388 1
2515 2162 1
2515 3221 1
2515 4310 1
2516 19 1
2516 130 1
2516 160 1
2516 1763 1
2517 531 1
2517 779 1
2517 2281 1
2517 2326 1
2517 2645 1
2517 2733 1
2518 260 1
2518 313 1
2518 793 1
2518 2477 1
2518 3726 1
2518 4731 1
2519 51 1
2519 641 1
2519 893 1
2519 906 1
2519 3202 1
2520 192 1
2520 385 1
2520 1125 1
2520 1527 1
2521 26 1
2521 898 1
2521 945 1
2521 1140 1
2521 4236 1
2522 54 1
2522 658 1
2522 833 1
2522 1610 1
2522 3848 1
2522 4726 1
2523 3 1
2523 43 1
2523 478 1
2523 926 1
2523 3229 1
2523 3884 1
2523 3991 1
2523 4963 1
2524 357 1
2524 662 1
2524 1583 1
2524 2498 1
2525 10 1
2525 835 1
2525 1889 1
2525 2265 1
2525 2924 1
2525 4654 1
2526 295 1
2526 1018 1
2526 1198 1
2526 1530 1
2526 3958 1
2527 222 1
2527 250 1
2527 403 1
2527 662 1
2528 14 1
2528 195 1
2528 322 1
2528 2388 1
2529 10 1
2529 1531 1
2529 1801 1
2529 1990 1
2529 3501 1
2530 66 1
2530 530 1
2530 1052 1
2530 1097 1
2531 20 1
2531 305 1
2531 1951 1
2531 2278 1
2531 2593 1
2531 3528 1
2531 3923 1
2531 4658 1
2532 17 1
2532 194 1
2532 1417 1
2532 1513 1
2532 2680 1
2532 3584 1
2532 4365 1
2532 4433 1
2532 4983 1
2533 329 1
2533 438 1
2533 472 1
2533 1319 1
2534 82 1
2534 1181 1
2534 1329 1
2534 2151 1
2534 4147 1
2534 4690 1
2535 210 1
2535 625 1
2535 1311 1
2535 2157 1
2535 3056 1
2535 3964 1
2535 4112 1
2535 4443 1
2536 385 1
2536 670 1
2536 994 1
2536 1049 1
2536 2673 1
2536 3871 1
2537 63 1
2537 478 1
2537 651 1
2537 2002 1
2537 3318 1
2537 4202 1
2538 33 1
2538 105 1
2538 418 1
2538 2220 1
2538 2867 1
2538 4148 1
2538 4171 1
2539 321 1
2539 1018 1
2539 1094 1
2539 1755 1
2540 5 1
2540 175 1
2540 1634 1
2540 2490 1
2540 4740 1
2541 22 1
2541 50 1
2541 169 1
2541 268 1
2541 2600 1
2541 2691 1
2541 2734 1
2541 3814 1
2542 19 1
2542 65 1
2542 298 1
2542 937 1
2542 3194 1
2543 25 1
2543 634 1
2543 1507 1
2543 2216 1
2543 4906 1
2544 5 1
2544 39 1
2544 80 1
2544 190 1
2545 283 1
2545 1308 1
2545 2127 1
2545 2378 1
2545 2684 1
2545 3294 1
2546 115 1
2546 1437 1
2546 1562 1
2546 1716 1
2547 474 1
2547 823 1
2547 2194 1
2547 2338 1
2547 2925 1
2548 61 1
2548 229 1
2548 378 1
2548 825 1
2548 2914 1
2548 3248 1
2548 3541 1
2548 4312 1
2549 200 1
2549 218 1
2549 561 1
2549 1549 1
2549 2914 1
2549 3142 1
2549 3227 1
2549 4215 1
2550 581 1
2550 1227 1
2550 1651 1
2550 2329 1
2550 4400 1
2550 4972 1
2551 3 1
2551 115 1
2551 883 1
2551 1408 1
2551 2604 1
2552 609 1
2552 673 1
2552 1067 1
2552 1135 1
2553 4 1
2553 38 1
2553 364 1
2553 1106 1
2553 2886 1
2553 3699 1
2553 4013 1
2553 4014 1
2554 13 1
2554 532 1
2554 873 1
2554 1263 1
2554 2830 1
2554 3009 1
2554 4349 1
2555 1301 1
2555 1837 1
2555 1839 1
2555 2514 1
2555 4212 1
2556 23 1
2556 198 1
2556 500 1
2556 2266 1
2556 3524 1
2556 4211 1
2557 118 1
2557 169 1
2557 738 1
2557 1110 1
2557 2768 1
2557 3532 1
2557 3721 1
2557 4671 1
2558 1 1
2558 42 1
2558 75 1
2558 1045 1
2559 21 1
2559 55 1
2559 563 1
2559 1727 1
2560 144 1
2560 563 1
2560 1049 1
2560 1610 1
2561 41 1
2561 797 1
2561 1130 1
2561 2206 1
2561 3400 1
2562 290 1
2562 1446 1
2562 1897 1
2562 2297 1
2562 3652 1
2563 228 1
2563 241 1
2563 477 1
2563 2445 1
2563 3169 1
2564 20 1
2564 37 1
2564 241 1
2564 358 1
2564 2574 1
2564 4503 1
2565 2 1
2565 417 1
2565 1044 1
2565 1436 1
2566 131 1
2566 254 1
2566 444 1
2566 614 1
2566 4315 1
2566 4957 1
2567 100 1
2567 137 1
2567 346 1
2567 510 1
2567 4176 1
2568 92 1
2568 386 1
2568 450 1
2568 1795 1
2568 3912 1
2568 4782 1
2568 4905 1
2569 35 1
2569 318 1
2569 1450 1
2569 1681 1
2570 71 1
2570 360 1
2570 401 1
2570 912 1
2570 2940 1
2570 3344 1
2570 4382 1
2571 13 1
2571 27 1
2571 652 1
2571 1444 1
2572 35 1
2572 52 1
2572 670 1
2572 2481 1
2572 4803 1
2573 10 1
2573 17 1
2573 810 1
2573 2162 1
2573 3331 1
2573 3868 1
2574 234 1
2574 583 1
2574 2140 1
2574 2564 1
2574 4206 1
2575 889 1
2575 1092 1
2575 1275 1
2575 1866 1
2576 1 1
2576 644 1
2576 1067 1
2576 1563 1
2577 481 1
2577 856 1
2577 1270 1
2577 1867 1
2578 66 1
2578 287 1
2578 467 1
2578 1215 1
2578 2991 1
2578 3800 1
2579 73 1
2579 372 1
2579 382 1
2579 723 1
2579 4355 1
2580 48 1
2580 1387 1
2580 1993 1
2580 2484 1
2580 4825 1
2581 129 1
2581 628 1
2581 1033 1
2581 1583 1
2581 4143 1
2582 305 1
2582 534 1
2582 1014 1
2582 1515 1
2582 3996 1
2583 18 1
2583 90 1
2583 156 1
2583 478 1
2584 169 1
2584 203 1
2584 632 1
2584 778 1
2584 2890 1
2585 11 1
2585 52 1
2585 57 1
2585 1200 1
2585 3908 1
2585 3991 1
2585 4197 1
2585 4921 1
2586 7 1
2586 193 1
2586 1723 1
2586 1873 1
2586 2728 1
2586 3590 1
2586 4199 1
2586 4449 1
2587 10 1
2587 169 1
2587 287 1
2587 2273 1
2587 3945 1
2588 11 1
2588 221 1
2588 1585 1
2588 2497 1
2588 3116 1
2588 3641 1
2588 4218 1
2588 4449 1
2589 18 1
2589 432 1
2589 472 1
2589 1852 1
2589 3206 1
2589 4557 1
2590 739 1
2590 958 1
2590 1239 1
2590 1794 1
2590 3746 1
2591 5 1
2591 75 1
2591 227 1
2591 1267 1
2591 4095 1
2592 2 1
2592 107 1
2592 301 1
2592 825 1
2593 269 1
2593 305 1
2593 899 1
2593 2531 1
2593 3923 1
2594 81 1
2594 645 1
2594 1018 1
2594 1946 1
2594 3249 1
2595 203 1
2595 365 1
2595 445 1
2595 610 1
2596 85 1
2596 410 1
2596 535 1
2596 1377 1
2596 3023 1
2596 3833 1
2597 20 1
2597 89 1
2597 100 1
2597 2243 1
2597 2706 1
2598 25 1
2598 51 1
2598 292 1
2598 1297 1
2598 4921 1
2599 5 1
2599 338 1
2599 597 1
2599 2038 1
2600 50 1
2600 139 1
2600 181 1
2600 2541 1
2600 2997 1
2600 3506 1
2601 812 1
2601 1173 1
2601 1186 1
2601 1992 1
2602 3 1
2602 16 1
2602 562 1
2602 1220 1
2602 3086 1
2602 3410 1
2602 4297 1
2603 49 1
2603 166 1
2603 405 1
2603 2051 1
2603 3415 1
2604 70 1
2604 653 1
2604 1030 1
2604 2551 1
2604 4634 1
2605 738 1
2605 1266 1
2605 1611 1
2605 2278 1
2606 14 1
2606 132 1
2606 154 1
2606 204 1
2606 4278 1
2607 17 1
2607 694 1
2607 1737 1
2607 2075 1
2607 3362 1
2608 2 1
2608 475 1
2608 1265 1
2608 1641 1
2608 3267 1
2608 3379 1
2608 3457 1
2609 108 1
2609 453 1
2609 727 1
2609 878 1
2610 233 1
2610 532 1
2610 1051 1
2610 1520 1
2610 2756 1
2611 37 1
2611 140 1
2611 969 1
2611 1033 1
2612 28 1
2612 261 1
2612 770 1
2612 1140 1
2612 3384 1
2613 19 1
2613 723 1
2613 1259 1
2613 1289 1
2613 4293 1
2614 10 1
2614 17 1
2614 2103 1
2614 2412 1
2614 3472 1
2614 3579 1
2615 11 1
2615 29 1
2615 423 1
2615 1108 1
2615 2972 1
2616 172 1
2616 361 1
2616 753 1
2616 2195 1
2616 3308 1
2616 3580 1
2616 4138 1
2617 691 1
2617 1244 1
2617 1584 1
2617 2158 1
2617 4435 1
2618 305 1
2618 322 1
2618 684 1
2618 1824 1
2618 2782 1
2619 3 1
2619 246 1
2619 378 1
2619 901 1
2619 4022 1
2619 4531 1
2619 4876 1
2620 387 1
2620 981 1
2620 1107 1
2620 2028 1
2621 90 1
2621 358 1
2621 391 1
2621 1120 1
2621 4034 1
2621 4761 1
2622 119 1
2622 172 1
2622 226 1
2622 692 1
2622 4996 1
2623 1 1
2623 33 1
2623 83 1
2623 1385 1
2623 2785 1
2623 4058 1
2624 388 1
2624 920 1
2624 1036 1
2624 2436 1
2624 2994 1
2625 134 1
2625 618 1
2625 2024 1
2625 2469 1
2625 2950 1
2625 3875 1
2626 218 1
2626 236 1
2626 761 1
2626 1425 1
2626 4202 1
2627 1415 1
2627 2172 1
2627 2220 1
2627 2443 1
2628 290 1
2628 339 1
2628 484 1
2628 1522 1
2628 3825 1
2628 4624 1
2628 4943 1
2629 3 1
2629 70 1
2629 685 1
2629 1425 1
2629 3149 1
2629 4140 1
2630 329 1
2630 1588 1
2630 1603 1
2630 2113 1
2631 785 1
2631 924 1
2631 2053 1
2631 2497 1
2631 3298 1
2631 3701 1
2631 4025 1
2632 109 1
2632 571 1
2632 588 1
2632 913 1
2632 4510 1
2633 3 1
2633 487 1
2633 1700 1
2633 1897 1
2633 3522 1
2633 3935 1
2634 42 1
2634 292 1
2634 835 1
2634 2500 1
2635 617 1
2635 801 1
2635 966 1
2635 2348 1
2635 2840 1
2636 11 1
2636 222 1
2636 251 1
2636 333 1
2637 11 1
2637 400 1
2637 613 1
2637 1550 1
2638 580 1
2638 674 1
2638 899 1
2638 999 1
2639 45 1
2639 79 1
2639 1142 1
2639 1743 1
2639 3245 1
2640 125 1
2640 413 1
2640 790 1
2640 1112 1
2640 3241 1
2641 82 1
2641 129 1
2641 1078 1
2641 1359 1
2642 41 1
2642 73 1
2642 2345 1
2642 2402 1
2642 3322 1
2642 3737 1
2642 4637 1
2643 215 1
2643 250 1
2643 1173 1
2643 2095 1
2643 2646 1
2644 589 1
2644 683 1
2644 852 1
2644 1399 1
2645 154 1
2645 779 1
2645 1019 1
2645 2517 1
2646 25 1
2646 1019 1
2646 1149 1
2646 2643 1
2646 3409 1
2646 3786 1
2647 13 1
2647 971 1
2647 1230 1
2647 1292 1
2647 3248 1
2648 60 1
2648 897 1
2648 1166 1
2648 1558 1
2648 3082 1
2648 4292 1
2649 19 1
2649 65 1
2649 874 1
2649 1623 1
2650 106 1
2650 298 1
2650 1047 1
2650 1517 1
2650 3865 1
2650 3957 1
2650 4225 1
2650 4798 1
2650 4830 1
2650 4975 1
2651 4 1
2651 19 1
2651 26 1
2651 589 1
2651 4577 1
2652 105 1
2652 132 1
2652 831 1
2652 1063 1
2653 155 1
2653 366 1
2653 578 1
2653 2425 1
2654 41 1
2654 58 1
2654 1663 1
2654 2173 1
2654 3052 1
2654 4532 1
2655 115 1
2655 417 1
2655 712 1
2655 1754 1
2655 2835 1
2655 4923 1
2656 41 1
2656 186 1
2656 2007 1
2656 2009 1
2656 2671 1
2657 9 1
2657 18 1
2657 137 1
2657 1304 1
2658 29 1
2658 63 1
2658 559 1
2658 2125 1
2659 2 1
2659 147 1
2659 233 1
2659 931 1
2659 2788 1
2660 60 1
2660 1049 1
2660 1627 1
2660 1797 1
2661 91 1
2661 144 1
2661 456 1
2661 1225 1
2662 42 1
2662 204 1
2662 426 1
2662 2309 1
2662 4631 1
2663 282 1
2663 628 1
2663 860 1
2663 2382 1
2664 102 1
2664 365 1
2664 444 1
2664 1180 1
2664 2774 1
2664 4596 1
2665 5 1
2665 16 1
2665 1494 1
2665 1595 1
2665 4091 1
2666 250 1
2666 1072 1
2666 1231 1
2666 1365 1
2666 3432 1
2666 4543 1
2667 1415 1
2667 1435 1
2667 1620 1
2667 1947 1
2667 4680 1
2668 137 1
2668 499 1
2668 1088 1
2668 2217 1
2668 3494 1
2668 4019 1
2668 4248 1
2669 258 1
2669 410 1
2669 487 1
2669 2429 1
2669 3242 1
2669 4313 1
2670 3 1
2670 82 1
2670 1059 1
2670 2213 1
2671 41 1
2671 122 1
2671 560 1
2671 2656 1
2671 3499 1
2671 3837 1
2671 4253 1
2672 19 1
2672 106 1
2672 1473 1
2672 2357 1
2673 345 1
2673 411 1
2673 994 1
2673 2536 1
2674 13 1
2674 403 1
2674 629 1
2674 821 1
2674 3338 1
2674 4027 1
2674 4528 1
2675 2 1
2675 55 1
2675 975 1
2675 1327 1
2675 3522 1
2675 4859 1
2675 4862 1
2676 26 1
2676 137 1
2676 210 1
2676 1449 1
2677 41 1
2677 163 1
2677 336 1
2677 364 1
2677 2678 1
2677 4827 1
2678 35 1
2678 40 1
2678 1964 1
2678 2677 1
2678 2713 1
2679 58 1
2679 116 1
2679 577 1
2679 966 1
2680 27 1
2680 91 1
2680 1417 1
2680 2532 1
2681 671 1
2681 1052 1
2681 1632 1
2681 2340 1
2681 3155 1
2682 19 1
2682 73 1
2682 770 1
2682 1715 1
2683 24 1
2683 119 1
2683 685 1
2683 2280 1
2684 179 1
2684 1308 1
2684 2378 1
2684 2545 1
2684 3294 1
2684 4500 1
2685 237 1
2685 385 1
2685 841 1
2686 11 1
2686 108 1
2686 805 1
2686 1490 1
2686 2906 1
2687 98 1
2687 596 1
2687 781 1
2687 1378 1
2687 3218 1
2687 4264 1
2687 4314 1
2688 81 1
2688 362 1
2688 1721 1
2688 2010 1
2689 19 1
2689 939 1
2689 1307 1
2689 2058 1
2689 3617 1
2690 218 1
2690 253 1
2690 769 1
2690 1345 1
2690 2691 1
2690 3098 1
2691 22 1
2691 537 1
2691 2541 1
2691 2690 1
2691 3814 1
2691 4242 1
2692 22 1
2692 125 1
2692 224 1
2692 333 1
2692 3849 1
2692 4245 1
2692 4998 1
2693 28 1
2693 227 1
2693 1093 1
2693 1693 1
2693 3002 1
2693 3163 1
2693 3628 1
2693 3749 1
2694 35 1
2694 732 1
2694 1435 1
2694 2206 1
2695 11 1
2695 482 1
2695 529 1
2695 703 1
2695 4018 1
2695 4422 1
2696 5 1
2696 331 1
2696 913 1
2696 1565 1
2697 188 1
2697 215 1
2697 379 1
2697 400 1
2697 4122 1
2697 4723 1
2698 60 1
2698 785 1
2698 1162 1
2698 1281 1
2698 3990 1
2699 210 1
2699 1212 1
2699 1595 1
2699 1862 1
2699 3578 1
2700 75 1
2700 1449 1
2700 1453 1
2700 1967 1
2700 4474 1
2700 4628 1
2701 21 1
2701 73 1
2701 167 1
2701 265 1
2701 3687 1
2701 4632 1
2702 20 1
2702 73 1
2702 593 1
2702 658 1
2702 3321 1
2702 3974 1
2703 337 1
2703 350 1
2703 455 1
2703 882 1
2704 874 1
2704 1225 1
2704 2026 1
2704 2210 1
2705 19 1
2705 475 1
2705 978 1
2705 1149 1
2706 3 1
2706 1254 1
2706 1572 1
2706 2597 1
2706 2796 1
2706 4088 1
2706 4153 1
2707 14 1
2707 133 1
2707 1717 1
2707 2323 1
2708 100 1
2708 251 1
2708 781 1
2708 1884 1
2708 2830 1
2708 4642 1
2709 2 1
2709 26 1
2709 35 1
2709 218 1
2709 3582 1
2709 4045 1
2709 4711 1
2710 26 1
2710 625 1
2710 1140 1
2710 1266 1
2710 3222 1
2710 3872 1
2710 4443 1
2711 247 1
2711 294 1
2711 321 1
2711 1780 1
2711 2858 1
2711 3673 1
2711 4436 1
2712 5 1
2712 287 1
2712 1766 1
2712 2258 1
2713 75 1
2713 437 1
2713 1049 1
2713 2678 1
2713 4709 1
2714 3 1
2714 23 1
2714 293 1
2714 453 1
2714 3586 1
2715 130 1
2715 791 1
2715 1016 1
2715 1658 1
2715 4817 1
2716 745 1
2716 999 1
2716 1193 1
2716 2114 1
2717 1050 1
2717 1329 1
2717 1797 1
2717 2369 1
2718 12 1
2718 1039 1
2718 1225 1
2718 1990 1
2718 3254 1
2718 3972 1
2718 4475 1
2718 4698 1
2719 11 1
2719 146 1
2719 900 1
2719 2217 1
2719 3266 1
2719 3438 1
2719 4788 1
2720 45 1
2720 238 1
2720 876 1
2720 1523 1
2720 3671 1
2720 3984 1
2721 11 1
2721 485 1
2721 1316 1
2721 2197 1
2722 172 1
2722 880 1
2722 987 1
2722 1195 1
2723 91 1
2723 124 1
2723 208 1
2723 2084 1
2723 4637 1
2724 426 1
2724 620 1
2724 819 1
2724 2010 1
2724 3017 1
2724 3020 1
2724 3572 1
2724 4072 1
2724 4589 1
2724 4765 1
2725 3 1
2725 169 1
2725 1706 1
2725 2351 1
2725 3162 1
2726 345 1
2726 602 1
2726 1675 1
2726 2280 1
2727 9 1
2727 308 1
2727 1883 1
2727 2513 1
2727 3768 1
2727 3962 1
2727 4447 1
2728 225 1
2728 906 1
2728 1723 1
2728 2586 1
2728 3059 1
2729 169 1
2729 174 1
2729 1210 1
2729 1348 1
2729 2876 1
2729 3262 1
2729 3855 1
2729 4768 1
2730 66 1
2730 73 1
2730 348 1
2730 873 1
2730 4548 1
2731 70 1
2731 597 1
2731 1531 1
2731 1930 1
2731 3155 1
2731 3364 1
2731 3602 1
2731 4791 1
2732 13 1
2732 81 1
2732 512 1
2732 660 1
2732 4325 1
2733 779 1
2733 1493 1
2733 2150 1
2733 2517 1
2734 2 1
2734 60 1
2734 984 1
2734 2541 1
2735 26 1
2735 137 1
2735 915 1
2735 1304 1
2736 3 1
2736 50 1
2736 218 1
2736 482 1
2736 3523 1
2736 3591 1
2737 194 1
2737 1802 1
2737 2003 1
2737 2184 1
2737 3530 1
2737 3971 1
2737 4428 1
2738 346 1
2738 1361 1
2738 1705 1
2738 1922 1
2738 3926 1
2739 452 1
2739 830 1
2739 2130 1
2739 2365 1
2739 3611 1
2739 4024 1
2739 4880 1
2739 4899 1
2739 4947 1
2739 4967 1
2740 9 1
2740 237 1
2740 602 1
2740 1451 1
2741 184 1
2741 274 1
2741 503 1
2741 2250 1
2741 3183 1
2741 4040 1
2742 92 1
2742 825 1
2742 972 1
2742 2147 1
2742 3414 1
2743 43 1
2743 378 1
2743 1954 1
2743 2009 1
2744 1 1
2744 27 1
2744 1863 1
2744 2407 1
2744 4001 1
2744 4484 1
2744 4608 1
2745 338 1
2745 406 1
2745 1435 1
2745 2411 1
2745 3551 1
2745 4569 1
2746 71 1
2746 108 1
2746 1029 1
2746 1402 1
2746 3493 1
2746 4087 1
2746 4869 1
2747 70 1
2747 784 1
2747 1693 1
2747 1809 1
2747 3110 1
2747 3206 1
2747 4970 1
2748 106 1
2748 425 1
2748 617 1
2748 2432 1
2748 2779 1
2748 4770 1
2748 4975 1
2749 91 1
2749 195 1
2749 257 1
2749 2034 1
2749 3179 1
2750 153 1
2750 306 1
2750 1309 1
2750 1651 1
2750 4416 1
2751 65 1
2751 118 1
2751 637 1
2751 702 1
2752 65 1
2752 245 1
2752 562 1
2752 1044 1
2752 3422 1
2752 4888 1
2753 439 1
2753 986 1
2753 1674 1
2753 2016 1
2753 4119 1
2754 298 1
2754 818 1
2754 1854 1
2754 2476 1
2754 4426 1
2755 100 1
2755 773 1
2755 1198 1
2755 1526 1
2755 2792 1
2755 3621 1
2755 3858 1
2755 4583 1
2755 4776 1
2756 1204 1
2756 1520 1
2756 2161 1
2756 2610 1
2756 3500 1
2757 147 1
2757 307 1
2757 499 1
2757 1837 1
2758 435 1
2758 1236 1
2758 1706 1
2758 1794 1
2758 4060 1
2758 4157 1
2759 18 1
2759 140 1
2759 491 1
2759 545 1
2759 4364 1
2759 4598 1
2759 4993 1
2760 1 1
2760 233 1
2760 1987 1
2760 2409 1
2760 3291 1
2760 3491 1
2761 33 1
2761 944 1
2761 974 1
2761 1106 1
2761 4219 1
2762 160 1
2762 221 1
2762 267 1
2762 368 1
2762 3889 1
2762 4434 1
2763 47 1
2763 109 1
2763 1119 1
2763 1339 1
2763 3756 1
2763 4526 1
2764 33 1
2764 906 1
2764 1483 1
2764 1867 1
2764 3805 1
2765 3 1
2765 685 1
2765 1945 1
2765 2224 1
2765 3484 1
2765 4339 1
2766 1297 1
2766 1645 1
2766 1736 1
2766 1737 1
2766 3700 1
2766 4391 1
2767 1 1
2767 365 1
2767 434 1
2767 984 1
2767 2863 1
2767 4855 1
2768 5 1
2768 91 1
2768 1590 1
2768 2557 1
2768 2904 1
2768 4183 1
2769 3 1
2769 405 1
2769 436 1
2769 1817 1
2769 2966 1
2769 4078 1
2770 132 1
2770 252 1
2770 430 1
2770 459 1
2770 3498 1
2770 3703 1
2771 387 1
2771 644 1
2771 1622 1
2771 2098 1
2771 4547 1
2772 67 1
2772 109 1
2772 563 1
2772 1490 1
2772 3094 1
2772 3509 1
2772 4459 1
2772 4927 1
2773 73 1
2773 1046 1
2773 1224 1
2773 1745 1
2773 3012 1
2774 377 1
2774 1462 1
2774 1977 1
2774 2664 1
2774 3618 1
2774 4442 1
2775 2 1
2775 241 1
2775 260 1
2775 823 1
2776 188 1
2776 406 1
2776 1882 1
2776 2045 1
2777 140 1
2777 154 1
2777 191 1
2777 1908 1
2777 2874 1
2778 366 1
2778 595 1
2778 1118 1
2778 1593 1
2778 3136 1
2778 3293 1
2778 3636 1
2778 4064 1
2779 102 1
2779 127 1
2779 2305 1
2779 2748 1
2779 4398 1
2779 4555 1
2779 4674 1
2779 4770 1
2780 1 1
2780 19 1
2780 22 1
2780 497 1
2780 3324 1
2780 3771 1
2780 4736 1
2781 51 1
2781 89 1
2781 119 1
2781 722 1
2782 305 1
2782 322 1
2782 834 1
2782 2618 1
2782 2886 1
2782 2973 1
2782 3598 1
2782 3775 1
2782 4260 1
2783 67 1
2783 126 1
2783 131 1
2783 2271 1
2783 3844 1
2784 129 1
2784 194 1
2784 798 1
2784 1733 1
2785 83 1
2785 703 1
2785 1666 1
2785 2623 1
2785 4708 1
2786 1114 1
2786 1298 1
2786 1746 1
2786 2171 1
2786 3497 1
2786 4232 1
2787 313 1
2787 836 1
2787 1113 1
2787 1690 1
2787 3161 1
2787 3873 1
2787 4135 1
2787 4706 1
2788 233 1
2788 2085 1
2788 2317 1
2788 2659 1
2788 3380 1
2789 25 1
2789 87 1
2789 332 1
2789 1348 1
2789 4262 1
2789 4595 1
2790 11 1
2790 65 1
2790 596 1
2790 676 1
2790 2921 1
2790 2950 1
2790 4095 1
2790 4515 1
2791 552 1
2791 1954 1
2791 2005 1
2791 2473 1
2792 22 1
2792 614 1
2792 1637 1
2792 2755 1
2792 3985 1
2792 4107 1
2793 20 1
2793 387 1
2793 1863 1
2793 1945 1
2793 2846 1
2793 4328 1
2793 4873 1
2793 4994 1
2794 974 1
2794 2129 1
2794 2171 1
2794 2410 1
2794 3392 1
2794 3538 1
2794 3934 1
2794 4106 1
2795 194 1
2795 1227 1
2795 1899 1
2795 2290 1
2795 2934 1
2795 3552 1
2796 3 1
2796 265 1
2796 729 1
2796 2706 1
2796 3062 1
2796 3754 1
2796 4088 1
2796 4218 1
2796 4344 1
2797 17 1
2797 130 1
2797 1202 1
2797 1519 1
2797 3028 1
2797 3122 1
2797 3147 1
2797 4021 1
2798 361 1
2798 764 1
2798 785 1
2798 1082 1
2798 3608 1
2799 11 1
2799 25 1
2799 676 1
2799 1033 1
2799 4054 1
2800 1 1
2800 18 1
2800 28 1
2800 1281 1
2800 4640 1
2800 4986 1
2801 4 1
2801 177 1
2801 803 1
2801 2329 1
2801 2806 1
2801 3816 1
2801 4082 1
2802 48 1
2802 100 1
2802 173 1
2802 1032 1
2802 3464 1
2803 209 1
2803 466 1
2803 1596 1
2803 2158 1
2803 2917 1
2803 3069 1
2804 76 1
2804 129 1
2804 921 1
2804 1066 1
2804 3692 1
2804 4578 1
2805 154 1
2805 345 1
2805 411 1
2805 801 1
2805 3947 1
2806 29 1
2806 212 1
2806 714 1
2806 2801 1
2806 3969 1
2807 26 1
2807 57 1
2807 115 1
2807 2022 1
2808 142 1
2808 1061 1
2808 1493 1
2808 1507 1
2809 73 1
2809 255 1
2809 486 1
2809 1908 1
2810 214 1
2810 223 1
2810 1613 1
2810 1723 1
2810 4155 1
2811 18 1
2811 180 1
2811 337 1
2811 1876 1
2811 3120 1
2811 3644 1
2812 3 1
2812 24 1
2812 594 1
2812 1703 1
2812 3070 1
2812 3500 1
2812 4642 1
2813 35 1
2813 707 1
2813 1526 1
2813 1532 1
2814 674 1
2814 793 1
2814 1967 1
2814 2189 1
2814 4894 1
2815 23 1
2815 247 1
2815 724 1
2815 2498 1
2816 484 1
2816 804 1
2816 841 1
2816 1570 1
2817 676 1
2817 738 1
2817 951 1
2817 2359 1
2817 3450 1
2817 3779 1
2817 4307 1
2818 24 1
2818 172 1
2818 292 1
2818 2172 1
2818 4061 1
2819 1571 1
2819 1741 1
2819 1966 1
2819 2345 1
2819 4310 1
2820 26 1
2820 887 1
2820 1362 1
2820 2314 1
2820 3116 1
2821 2 1
2821 13 1
2821 1164 1
2821 1249 1
2822 130 1
2822 429 1
2822 1241 1
2822 1469 1
2822 3238 1
2823 9 1
2823 826 1
2823 1822 1
2823 2047 1
2823 3896 1
2823 4927 1
2824 223 1
2824 1092 1
2824 1167 1
2824 2098 1
2825 91 1
2825 96 1
2825 234 1
2825 1150 1
2826 17 1
2826 79 1
2826 785 1
2826 1572 1
2827 172 1
2827 194 1
2827 609 1
2827 841 1
2827 3769 1
2828 117 1
2828 121 1
2828 486 1
2828 1689 1
2828 2915 1
2829 91 1
2829 219 1
2829 439 1
2829 775 1
2829 2869 1
2829 2982 1
2829 3607 1
2829 4280 1
2829 4510 1
2829 4869 1
2830 13 1
2830 251 1
2830 2554 1
2830 2708 1
2831 169 1
2831 1057 1
2831 1779 1
2831 1997 1
2832 81 1
2832 113 1
2832 1084 1
2832 1775 1
2832 3348 1
2833 131 1
2833 323 1
2833 1289 1
2833 1913 1
2833 3728 1
2834 203 1
2834 446 1
2834 569 1
2834 666 1
2834 4049 1
2835 9 1
2835 417 1
2835 712 1
2835 2655 1
2835 3364 1
2835 3901 1
2836 470 1
2836 1134 1
2836 1342 1
2836 1733 1
2837 10 1
2837 113 1
2837 637 1
2837 652 1
2837 3170 1
2837 4096 1
2838 75 1
2838 1410 1
2838 2091 1
2838 2486 1
2839 421 1
2839 1224 1
2839 2319 1
2839 2471 1
2839 2941 1
2839 3981 1
2840 52 1
2840 618 1
2840 801 1
2840 2635 1
2840 3025 1
2840 3360 1
2841 292 1
2841 308 1
2841 755 1
2841 933 1
2841 2946 1
2841 3159 1
2841 3816 1
2841 4382 1
2841 4410 1
2841 4480 1
2841 4886 1
2842 9 1
2842 1835 1
2842 1931 1
2842 2340 1
2842 3074 1
2843 73 1
2843 572 1
2843 1226 1
2843 1971 1
2843 2871 1
2843 3073 1
2844 201 1
2844 900 1
2844 1234 1
2844 2314 1
2844 3818 1
2844 3966 1
2844 4427 1
2844 4463 1
2844 4810 1
2844 4942 1
2845 3 1
2845 160 1
2845 1272 1
2845 2281 1
2846 449 1
2846 526 1
2846 836 1
2846 2793 1
2846 4239 1
2847 18 1
2847 19 1
2847 1661 1
2847 2369 1
2848 278 1
2848 457 1
2848 580 1
2848 2050 1
2849 5 1
2849 293 1
2849 1044 1
2849 1259 1
2849 2927 1
2850 89 1
2850 323 1
2850 358 1
2850 586 1
2850 4190 1
2851 46 1
2851 253 1
2851 1836 1
2851 2281 1
2852 41 1
2852 52 1
2852 1720 1
2852 2299 1
2852 4350 1
2853 1 1
2853 11 1
2853 194 1
2853 958 1
2853 3743 1
2853 4488 1
2854 19 1
2854 99 1
2854 1618 1
2854 2489 1
2855 81 1
2855 561 1
2855 1185 1
2855 1495 1
2856 58 1
2856 65 1
2856 268 1
2856 1098 1
2857 52 1
2857 253 1
2857 877 1
2857 1811 1
2857 3265 1
2857 3327 1
2857 4258 1
2857 4563 1
2858 106 1
2858 1056 1
2858 1991 1
2858 2711 1
2858 3310 1
2858 4197 1
2858 4846 1
2859 565 1
2859 701 1
2859 989 1
2859 1367 1
2860 360 1
2860 669 1
2860 1954 1
2860 1995 1
2861 17 1
2861 223 1
2861 1986 1
2861 2305 1
2861 2904 1
2861 3174 1
2861 3257 1
2861 3293 1
2861 4241 1
2862 52 1
2862 120 1
2862 167 1
2862 1431 1
2863 201 1
2863 365 1
2863 578 1
2863 2767 1
2863 4677 1
2864 607 1
2864 1020 1
2864 1093 1
2864 1828 1
2865 42 1
2865 363 1
2865 681 1
2865 758 1
2866 19 1
2866 84 1
2866 814 1
2866 2050 1
2866 4999 1
2867 435 1
2867 537 1
2867 1236 1
2867 2538 1
2868 673 1
2868 683 1
2868 1253 1
2868 2022 1
2868 3791 1
2868 4178 1
2869 71 1
2869 142 1
2869 633 1
2869 2829 1
2869 4869 1
2870 5 1
2870 295 1
2870 308 1
2870 1451 1
2871 671 1
2871 1226 1
2871 2177 1
2871 2843 1
2871 3099 1
2872 6 1
2872 70 1
2872 324 1
2872 2037 1
2872 3613 1
2873 245 1
2873 559 1
2873 597 1
2873 1586 1
2873 3156 1
2874 339 1
2874 688 1
2874 1967 1
2874 2777 1
2874 3114 1
2875 85 1
2875 106 1
2875 346 1
2875 496 1
2876 425 1
2876 1137 1
2876 1348 1
2876 2729 1
2876 4458 1
2877 5 1
2877 636 1
2877 1231 1
2877 1365 1
2878 99 1
2878 1753 1
2878 1925 1
2878 2141 1
2878 3731 1
2879 145 1
2879 2017 1
2879 2370 1
2879 2487 1
2880 45 1
2880 115 1
2880 169 1
2880 2022 1
2881 2 1
2881 433 1
2881 749 1
2881 2364 1
2881 3388 1
2881 4290 1
2881 4423 1
2882 943 1
2882 1210 1
2882 1412 1
2882 2153 1
2883 21 1
2883 36 1
2883 1705 1
2883 2185 1
2883 3865 1
2884 652 1
2884 1495 1
2884 1613 1
2884 2238 1
2884 3208 1
2884 3438 1
2884 4282 1
2885 342 1
2885 429 1
2885 1200 1
2885 1270 1
2886 214 1
2886 364 1
2886 2553 1
2886 2782 1
2887 17 1
2887 458 1
2887 1031 1
2887 1209 1
2887 4446 1
2888 35 1
2888 533 1
2888 1821 1
2888 2028 1
2889 405 1
2889 1106 1
2889 1228 1
2889 1769 1
2889 3354 1
2889 4019 1
2889 4440 1
2889 4731 1
2889 4732 1
2890 203 1
2890 1411 1
2890 1730 1
2890 2584 1
2891 11 1
2891 90 1
2891 935 1
2891 1454 1
2892 12 1
2892 91 1
2892 792 1
2892 2009 1
2892 4545 1
2892 4654 1
2893 57 1
2893 602 1
2893 2345 1
2893 2350 1
2894 242 1
2894 416 1
2894 1988 1
2894 2456 1
2894 3960 1
2895 11 1
2895 13 1
2895 635 1
2895 739 1
2895 3583 1
2895 3626 1
2895 3799 1
2895 4581 1
2896 18 1
2896 19 1
2896 550 1
2896 1293 1
2897 124 1
2897 220 1
2897 319 1
2897 1153 1
2897 3757 1
2897 3808 1
2897 3970 1
2897 4147 1
2898 58 1
2898 167 1
2898 852 1
2898 1358 1
2898 3039 1
2898 3543 1
2898 4552 1
2899 195 1
2899 437 1
2899 788 1
2899 2413 1
2899 3771 1
2900 2 1
2900 19 1
2900 722 1
2900 1275 1
2900 4168 1
2901 16 1
2901 102 1
2901 664 1
2901 1333 1
2901 3321 1
2901 4487 1
2902 72 1
2902 85 1
2902 207 1
2902 363 1
2903 4 1
2903 97 1
2903 290 1
2903 1444 1
2903 3473 1
2904 420 1
2904 1682 1
2904 2768 1
2904 2861 1
2904 3255 1
2905 20 1
2905 285 1
2905 900 1
2905 1275 1
2905 3719 1
2906 3 1
2906 126 1
2906 2357 1
2906 2686 1
2906 4877 1
2907 51 1
2907 211 1
2907 447 1
2907 2042 1
2907 4010 1
2907 4362 1
2907 4502 1
2908 49 1
2908 122 1
2908 1562 1
2908 2500 1
2908 3311 1
2908 3328 1
2908 3942 1
2909 515 1
2909 701 1
2909 1706 1
2909 2177 1
2909 3113 1
2909 3190 1
2910 1 1
2910 169 1
2910 758 1
2910 1475 1
2910 4851 1
2911 21 1
2911 65 1
2911 553 1
2911 1757 1
2911 3389 1
2912 26 1
2912 364 1
2912 1267 1
2912 2057 1
2912 3193 1
2912 4110 1
2913 33 1
2913 443 1
2913 913 1
2913 1692 1
2913 4146 1
2913 4470 1
2913 4675 1
2913 4776 1
2914 179 1
2914 485 1
2914 2548 1
2914 2549 1
2915 1108 1
2915 1305 1
2915 1603 1
2915 2828 1
2915 4958 1
2916 556 1
2916 568 1
2916 670 1
2916 2050 1
2916 3778 1
2917 176 1
2917 908 1
2917 1596 1
2917 2803 1
2917 4198 1
2917 4945 1
2918 3 1
2918 13 1
2918 707 1
2918 708 1
2918 3906 1
2918 4235 1
2918 4537 1
2919 972 1
2919 1140 1
2919 2183 1
2919 2242 1
2919 4334 1
2920 949 1
2920 1435 1
2920 1610 1
2920 1778 1
2921 479 1
2921 1240 1
2921 1574 1
2921 2790 1
2922 298 1
2922 570 1
2922 818 1
2922 1085 1
2922 3146 1
2922 3335 1
2922 3574 1
2922 3903 1
2922 3988 1
2922 4257 1
2923 2 1
2923 9 1
2923 454 1
2923 653 1
2923 4391 1
2923 4945 1
2924 5 1
2924 693 1
2924 1889 1
2924 2525 1
2924 2983 1
2924 3162 1
2924 3575 1
2924 3921 1
2924 4348 1
2925 2 1
2925 629 1
2925 1087 1
2925 2547 1
2926 234 1
2926 707 1
2926 941 1
2926 2226 1
2926 3527 1
2926 3933 1
2927 293 1
2927 747 1
2927 1044 1
2927 2849 1
2927 4657 1
2928 317 1
2928 887 1
2928 1061 1
2928 2156 1
2929 36 1
2929 904 1
2929 1228 1
2929 1630 1
2929 3434 1
2930 25 1
2930 684 1
2930 785 1
2930 2150 1
2930 2965 1
2931 439 1
2931 1284 1
2931 1618 1
2931 2070 1
2932 898 1
2932 1266 1
2932 1457 1
2932 2278 1
2932 4162 1
2933 75 1
2933 77 1
2933 195 1
2933 1446 1
2934 98 1
2934 194 1
2934 1899 1
2934 2795 1
2934 3312 1
2935 17 1
2935 188 1
2935 274 1
2935 1199 1
2936 52 1
2936 266 1
2936 813 1
2936 1401 1
2936 4004 1
2937 305 1
2937 356 1
2937 896 1
2937 2026 1
2937 3544 1
2937 3957 1
2937 4485 1
2938 259 1
2938 418 1
2938 1477 1
2938 2218 1
2938 3200 1
2938 4322 1
2939 49 1
2939 71 1
2939 1209 1
2939 1833 1
2939 3107 1
2940 1 1
2940 229 1
2940 912 1
2940 2570 1
2940 3344 1
2940 4036 1
2941 302 1
2941 323 1
2941 2319 1
2941 2839 1
2942 450 1
2942 508 1
2942 724 1
2942 923 1
2942 4075 1
2943 38 1
2943 1177 1
2943 1470 1
2943 2164 1
2943 3463 1
2943 3956 1
2943 4056 1
2944 1587 1
2944 1700 1
2944 2207 1
2944 2303 1
2944 3850 1
2945 221 1
2945 708 1
2945 778 1
2945 1013 1
2945 4455 1
2945 4789 1
2946 755 1
2946 1026 1
2946 1897 1
2946 2841 1
2946 3640 1
2947 5 1
2947 361 1
2947 1328 1
2947 2345 1
2947 3011 1
2948 92 1
2948 211 1
2948 738 1
2948 784 1
2949 292 1
2949 588 1
2949 946 1
2949 2443 1
2950 596 1
2950 811 1
2950 2625 1
2950 2790 1
2950 3875 1
2951 27 1
2951 1016 1
2951 1579 1
2951 2116 1
2952 26 1
2952 129 1
2952 839 1
2952 2348 1
2953 349 1
2953 475 1
2953 2045 1
2953 2316 1
2953 3796 1
2953 4663 1
2954 3 1
2954 17 1
2954 389 1
2954 2319 1
2954 3061 1
2954 3160 1
2954 3711 1
2954 4191 1
2954 4575 1
2955 441 1
2955 456 1
2955 1807 1
2955 2427 1
2955 3536 1
2956 25 1
2956 90 1
2956 1774 1
2956 1961 1
2957 6 1
2957 12 1
2957 831 1
2957 1258 1
2958 197 1
2958 1292 1
2958 1876 1
2958 2124 1
2959 73 1
2959 830 1
2959 853 1
2959 1586 1
2960 115 1
2960 181 1
2960 813 1
2960 1196 1
2960 3063 1
2960 3183 1
2961 52 1
2961 99 1
2961 419 1
2961 977 1
2961 3461 1
2962 947 1
2962 1389 1
2962 1422 1
2962 1543 1
2962 3660 1
2962 4309 1
2963 388 1
2963 546 1
2963 1034 1
2963 1105 1
2963 4829 1
2964 58 1
2964 433 1
2964 877 1
2964 1965 1
2964 4151 1
2965 235 1
2965 801 1
2965 1357 1
2965 2930 1
2966 124 1
2966 965 1
2966 2251 1
2966 2769 1
2966 4078 1
2966 4865 1
2967 19 1
2967 683 1
2967 1194 1
2967 1762 1
2968 84 1
2968 1733 1
2968 2299 1
2968 2451 1
2968 4728 1
2968 4763 1
2969 170 1
2969 287 1
2969 457 1
2969 2242 1
2969 3078 1
2969 3534 1
2969 3941 1
2969 3959 1
2970 1329 1
2970 1366 1
2970 2011 1
2970 2165 1
2970 3888 1
2971 42 1
2971 394 1
2971 1900 1
2971 2316 1
2971 3339 1
2971 4389 1
2972 1689 1
2972 2020 1
2972 2399 1
2972 2615 1
2973 834 1
2973 1739 1
2973 2242 1
2973 2782 1
2973 3775 1
2974 41 1
2974 197 1
2974 936 1
2974 2042 1
2975 25 1
2975 106 1
2975 332 1
2975 1090 1
2975 3114 1
2975 3921 1
2975 3990 1
2976 41 1
2976 236 1
2976 339 1
2976 1133 1
2976 3610 1
2977 84 1
2977 250 1
2977 732 1
2977 1329 1
2977 4284 1
2978 74 1
2978 105 1
2978 1316 1
2978 1442 1
2978 3216 1
2978 3340 1
2978 4451 1
2978 4703 1
2978 4753 1
2979 37 1
2979 620 1
2979 1437 1
2979 2499 1
2979 3227 1
2980 412 1
2980 505 1
2980 1316 1
2980 1874 1
2980 3316 1
2980 4075 1
2981 2 1
2981 40 1
2981 405 1
2981 1997 1
2982 74 1
2982 1017 1
2982 1044 1
2982 2829 1
2983 536 1
2983 1086 1
2983 2475 1
2983 2924 1
2984 17 1
2984 332 1
2984 684 1
2984 850 1
2984 3088 1
2985 628 1
2985 845 1
2985 1242 1
2985 1576 1
2986 443 1
2986 773 1
2986 1526 1
2986 2174 1
2986 3013 1
2986 3223 1
2986 3993 1
2986 4051 1
2987 1 1
2987 75 1
2987 1044 1
2987 1208 1
2988 90 1
2988 483 1
2988 979 1
2988 1736 1
2989 52 1
2989 335 1
2989 347 1
2989 1018 1
2989 3468 1
2989 4369 1
2990 517 1
2990 636 1
2990 898 1
2990 1811 1
2990 4012 1
2990 4266 1
2991 287 1
2991 771 1
2991 961 1
2991 2578 1
2991 3628 1
2991 4495 1
2992 77 1
2992 622 1
2992 1137 1
2992 2312 1
2992 3848 1
2992 4726 1
2993 50 1
2993 133 1
2993 1360 1
2993 1717 1
2993 4353 1
2994 153 1
2994 275 1
2994 1310 1
2994 2624 1
2994 3816 1
2994 3989 1
2994 4340 1
2995 1 1
2995 114 1
2995 570 1
2995 771 1
2995 3773 1
2996 89 1
2996 225 1
2996 402 1
2996 446 1
2996 4690 1
2997 50 1
2997 1215 1
2997 1938 1
2997 2600 1
2997 3304 1
2997 3937 1
2998 1075 1
2998 1259 1
2998 1452 1
2998 2433 1
2999 290 1
2999 669 1
2999 923 1
2999 2481 1
2999 3673 1
3000 314 1
3000 478 1
3000 601 1
3000 949 1
3000 3640 1
3000 4813 1
3001 129 1
3001 171 1
3001 217 1
3001 2466 1
3001 3297 1
3001 4564 1
3002 28 1
3002 171 1
3002 1193 1
3002 2693 1
3003 969 1
3003 1052 1
3003 1159 1
3003 1388 1
3003 3045 1
3004 1717 1
3004 1844 1
3004 1922 1
3004 2114 1
3004 3744 1
3005 100 1
3005 106 1
3005 283 1
3005 2277 1
3005 3373 1
3006 1 1
3006 9 1
3006 105 1
3006 1786 1
3006 3765 1
3007 5 1
3007 185 1
3007 474 1
3007 1361 1
3008 102 1
3008 261 1
3008 693 1
3008 1327 1
3008 3187 1
3009 13 1
3009 532 1
3009 1263 1
3009 2554 1
3009 4349 1
3010 899 1
3010 1275 1
3010 1529 1
3010 1656 1
3010 3458 1
3010 3648 1
3010 4336 1
3010 4489 1
3010 4727 1
3011 190 1
3011 361 1
3011 2418 1
3011 2947 1
3012 363 1
3012 1046 1
3012 1121 1
3012 2773 1
3013 2 1
3013 129 1
3013 721 1
3013 2986 1
3013 3993 1
3013 4059 1
3014 59 1
3014 242 1
3014 2093 1
3014 2429 1
3014 4103 1
3014 4864 1
3015 818 1
3015 1012 1
3015 2376 1
3015 2380 1
3015 4511 1
3016 37 1
3016 76 1
3016 237 1
3016 1879 1
3017 25 1
3017 426 1
3017 1621 1
3017 2724 1
3017 3190 1
3017 3625 1
3017 4866 1
3018 399 1
3018 898 1
3018 1026 1
3018 2380 1
3019 543 1
3019 572 1
3019 1180 1
3019 1395 1
3020 100 1
3020 426 1
3020 1884 1
3020 2724 1
3020 4072 1
3021 2 1
3021 1078 1
3021 1475 1
3021 1661 1
3021 3030 1
3021 3399 1
3021 4799 1
3022 25 1
3022 1090 1
3022 1251 1
3022 1730 1
3022 4073 1
3023 169 1
3023 403 1
3023 2203 1
3023 2596 1
3023 4345 1
3024 5 1
3024 943 1
3024 1000 1
3024 1876 1
3025 13 1
3025 801 1
3025 1562 1
3025 2840 1
3026 116 1
3026 277 1
3026 521 1
3026 2081 1
3026 3201 1
3027 19 1
3027 164 1
3027 359 1
3027 559 1
3027 3203 1
3028 1404 1
3028 1519 1
3028 2345 1
3028 2797 1
3029 265 1
3029 270 1
3029 474 1
3029 1567 1
3029 3543 1
3029 4358 1
3030 346 1
3030 2039 1
3030 2355 1
3030 3021 1
3031 1 1
3031 447 1
3031 887 1
3031 970 1
3032 92 1
3032 205 1
3032 738 1
3032 2212 1
3032 4879 1
3033 177 1
3033 612 1
3033 800 1
3033 1603 1
3034 259 1
3034 581 1
3034 1153 1
3034 1845 1
3035 402 1
3035 483 1
3035 1050 1
3035 2012 1
3036 132 1
3036 306 1
3036 732 1
3036 1180 1
3036 4245 1
3037 17 1
3037 825 1
3037 933 1
3037 2147 1
3038 54 1
3038 244 1
3038 1374 1
3038 1889 1
3038 3739 1
3038 3945 1
3039 4 1
3039 826 1
3039 1938 1
3039 2898 1
3039 3297 1
3040 5 1
3040 1304 1
3040 1676 1
3040 2407 1
3041 89 1
3041 914 1
3041 1377 1
3041 1762 1
3041 4150 1
3041 4328 1
3042 158 1
3042 419 1
3042 925 1
3042 1213 1
3042 3289 1
3042 4109 1
3043 19 1
3043 874 1
3043 1867 1
3043 2170 1
3043 3804 1
3044 28 1
3044 343 1
3044 501 1
3044 1343 1
3045 17 1
3045 430 1
3045 1159 1
3045 3003 1
3046 92 1
3046 311 1
3046 373 1
3046 1077 1
3046 3329 1
3046 3596 1
3046 3659 1
3046 4038 1
3047 58 1
3047 141 1
3047 275 1
3047 515 1
3048 81 1
3048 561 1
3048 1185 1
3048 1511 1
3048 3376 1
3048 4229 1
3048 4905 1
3049 57 1
3049 531 1
3049 801 1
3049 1298 1
3050 13 1
3050 18 1
3050 354 1
3050 798 1
3050 3153 1
3050 3394 1
3050 4595 1
3051 6 1
3051 138 1
3051 2409 1
3051 2412 1
3051 3278 1
3051 3412 1
3051 3556 1
3052 57 1
3052 825 1
3052 2173 1
3052 2654 1
3052 3061 1
3052 3385 1
3052 4838 1
3053 83 1
3053 992 1
3053 1879 1
3053 2492 1
3053 3730 1
3053 4221 1
3054 11 1
3054 464 1
3054 1059 1
3054 1121 1
3055 1 1
3055 348 1
3055 590 1
3055 738 1
3056 105 1
3056 114 1
3056 625 1
3056 2535 1
3057 174 1
3057 209 1
3057 1323 1
3057 1537 1
3058 49 1
3058 898 1
3058 945 1
3058 2108 1
3059 889 1
3059 1092 1
3059 1723 1
3059 2728 1
3059 3139 1
3059 4775 1
3060 18 1
3060 58 1
3060 979 1
3060 2460 1
3061 2 1
3061 3 1
3061 2954 1
3061 3052 1
3061 3282 1
3061 4539 1
3061 4969 1
3062 655 1
3062 729 1
3062 1966 1
3062 2796 1
3062 4230 1
3063 197 1
3063 499 1
3063 846 1
3063 2960 1
3064 475 1
3064 1262 1
3064 2012 1
3064 2363 1
3064 4619 1
3065 11 1
3065 81 1
3065 512 1
3065 2458 1
3065 3338 1
3066 613 1
3066 1134 1
3066 1547 1
3066 1867 1
3067 283 1
3067 365 1
3067 853 1
3067 1128 1
3067 3333 1
3068 17 1
3068 52 1
3068 76 1
3068 1707 1
3068 3302 1
3069 73 1
3069 2326 1
3069 2352 1
3069 2803 1
3069 4046 1
3070 24 1
3070 121 1
3070 884 1
3070 2812 1
3070 4155 1
3070 4642 1
3071 122 1
3071 308 1
3071 763 1
3071 1019 1
3072 90 1
3072 459 1
3072 1459 1
3072 1621 1
3072 4355 1
3073 566 1
3073 1270 1
3073 1480 1
3073 2843 1
3074 81 1
3074 139 1
3074 310 1
3074 2842 1
3074 3995 1
3075 92 1
3075 683 1
3075 875 1
3075 1194 1
3075 3856 1
3076 10 1
3076 19 1
3076 254 1
3076 833 1
3077 475 1
3077 830 1
3077 1438 1
3077 2060 1
3078 17 1
3078 102 1
3078 457 1
3078 2969 1
3078 4179 1
3078 4575 1
3079 21 1
3079 530 1
3079 862 1
3079 977 1
3080 117 1
3080 931 1
3080 978 1
3080 1731 1
3081 5 1
3081 515 1
3081 567 1
3081 2468 1
3081 3885 1
3081 3914 1
3082 12 1
3082 60 1
3082 1617 1
3082 2648 1
3082 3108 1
3082 3165 1
3083 1044 1
3083 1180 1
3083 1540 1
3083 2364 1
3083 3893 1
3083 4643 1
3083 4918 1
3084 70 1
3084 130 1
3084 193 1
3084 2329 1
3084 3449 1
3084 4732 1
3085 10 1
3085 11 1
3085 757 1
3085 1990 1
3086 451 1
3086 1924 1
3086 1992 1
3086 2602 1
3086 4574 1
3087 105 1
3087 177 1
3087 431 1
3087 1745 1
3087 3797 1
3087 4484 1
3088 160 1
3088 850 1
3088 2013 1
3088 2984 1
3089 125 1
3089 270 1
3089 1475 1
3089 2304 1
3090 84 1
3090 259 1
3090 539 1
3090 979 1
3091 1 1
3091 299 1
3091 1627 1
3091 2197 1
3091 3658 1
3091 4023 1
3091 4417 1
3092 345 1
3092 452 1
3092 592 1
3092 1225 1
3093 1 1
3093 251 1
3093 314 1
3093 1462 1
3094 724 1
3094 1123 1
3094 2052 1
3094 2772 1
3094 4459 1
3095 11 1
3095 17 1
3095 78 1
3095 2033 1
3096 267 1
3096 446 1
3096 501 1
3096 1852 1
3097 988 1
3097 1273 1
3097 1644 1
3097 2189 1
3097 3120 1
3097 3296 1
3097 3612 1
3097 4772 1
3098 25 1
3098 185 1
3098 253 1
3098 2690 1
3098 3305 1
3098 3334 1
3098 4603 1
3099 261 1
3099 296 1
3099 335 1
3099 2871 1
3099 3505 1
3099 4685 1
3100 404 1
3100 586 1
3100 706 1
3100 1178 1
3101 3 1
3101 132 1
3101 1151 1
3101 2051 1
3101 3718 1
3101 4998 1
3102 59 1
3102 489 1
3102 611 1
3102 1001 1
3103 43 1
3103 275 1
3103 372 1
3103 738 1
3104 2 1
3104 154 1
3104 745 1
3104 1557 1
3105 20 1
3105 78 1
3105 523 1
3105 1729 1
3105 3420 1
3105 3683 1
3105 4405 1
3106 426 1
3106 442 1
3106 614 1
3106 1150 1
3106 3353 1
3106 3577 1
3106 4698 1
3107 475 1
3107 1635 1
3107 1833 1
3107 2939 1
3107 3537 1
3108 12 1
3108 664 1
3108 2500 1
3108 3082 1
3109 65 1
3109 596 1
3109 1240 1
3109 1683 1
3109 4264 1
3110 29 1
3110 347 1
3110 784 1
3110 2747 1
3110 4970 1
3111 77 1
3111 93 1
3111 1587 1
3111 1664 1
3111 4255 1
3112 506 1
3112 1071 1
3112 2148 1
3112 2164 1
3112 4170 1
3113 137 1
3113 515 1
3113 1174 1
3113 2909 1
3113 3190 1
3114 113 1
3114 296 1
3114 2874 1
3114 2975 1
3114 3990 1
3115 113 1
3115 1066 1
3115 1179 1
3115 1484 1
3115 3885 1
3116 35 1
3116 221 1
3116 2588 1
3116 2820 1
3116 3635 1
3116 3904 1
3117 1 1
3117 268 1
3117 321 1
3117 649 1
3117 4395 1
3118 760 1
3118 1523 1
3118 1627 1
3118 1833 1
3118 4317 1
3119 20 1
3119 459 1
3119 1019 1
3119 1663 1
3119 3951 1
3119 4719 1
3120 40 1
3120 1235 1
3120 2811 1
3120 3097 1
3120 3644 1
3121 289 1
3121 410 1
3121 529 1
3121 761 1
3121 3283 1
3121 3649 1
3121 4428 1
3121 4497 1
3122 95 1
3122 2053 1
3122 2370 1
3122 2797 1
3123 771 1
3123 874 1
3123 2021 1
3123 2026 1
3123 3325 1
3124 45 1
3124 49 1
3124 1425 1
3124 1548 1
3124 4976 1
3125 103 1
3125 1024 1
3125 1289 1
3125 1891 1
3126 347 1
3126 870 1
3126 880 1
3126 1292 1
3126 3962 1
3127 81 1
3127 525 1
3127 1269 1
3127 1602 1
3128 90 1
3128 260 1
3128 347 1
3128 1803 1
3129 772 1
3129 931 1
3129 1131 1
3129 2487 1
3129 4899 1
3130 129 1
3130 139 1
3130 1218 1
3130 1659 1
3130 4230 1
3131 62 1
3131 75 1
3131 91 1
3131 145 1
3131 3268 1
3131 3918 1
3132 889 1
3132 1505 1
3132 2395 1
3132 2485 1
3133 38 1
3133 147 1
3133 306 1
3133 2237 1
3133 3184 1
3134 5 1
3134 163 1
3134 626 1
3134 1399 1
3134 3300 1
3135 13 1
3135 218 1
3135 406 1
3135 447 1
3136 356 1
3136 366 1
3136 2217 1
3136 2778 1
3136 3695 1
3137 137 1
3137 198 1
3137 1016 1
3137 1990 1
3137 4159 1
3138 172 1
3138 411 1
3138 1178 1
3138 1593 1
3138 3174 1
3138 3381 1
3138 3819 1
3138 4974 1
3139 17 1
3139 269 1
3139 680 1
3139 3059 1
3139 3980 1
3139 4217 1
3139 4484 1
3140 49 1
3140 71 1
3140 907 1
3140 1770 1
3140 3404 1
3140 3690 1
3140 4146 1
3141 172 1
3141 637 1
3141 1045 1
3141 2378 1
3141 3714 1
3141 4500 1
3142 13 1
3142 2121 1
3142 2383 1
3142 2549 1
3142 4402 1
3142 4519 1
3143 76 1
3143 418 1
3143 1010 1
3143 2299 1
3144 14 1
3144 52 1
3144 419 1
3144 1543 1
3145 33 1
3145 259 1
3145 694 1
3145 2002 1
3145 3517 1
3146 48 1
3146 562 1
3146 1193 1
3146 2922 1
3146 4257 1
3147 36 1
3147 493 1
3147 1346 1
3147 2797 1
3148 698 1
3148 740 1
3148 1369 1
3148 1779 1
3148 4749 1
3149 311 1
3149 1425 1
3149 1874 1
3149 2629 1
3149 3721 1
3149 3955 1
3149 4342 1
3149 4571 1
3150 17 1
3150 25 1
3150 275 1
3150 1007 1
3151 499 1
3151 571 1
3151 1302 1
3151 2149 1
3151 3546 1
3151 3724 1
3152 323 1
3152 715 1
3152 2122 1
3152 2185 1
3152 3827 1
3152 3865 1
3152 4930 1
3153 354 1
3153 789 1
3153 794 1
3153 3050 1
3153 3163 1
3153 4595 1
3154 49 1
3154 61 1
3154 1457 1
3154 1566 1
3154 3597 1
3154 3657 1
3155 227 1
3155 391 1
3155 2681 1
3155 2731 1
3156 198 1
3156 245 1
3156 1770 1
3156 2873 1
3157 12 1
3157 314 1
3157 372 1
3157 651 1
3157 3901 1
3157 4340 1
3158 35 1
3158 238 1
3158 437 1
3158 1827 1
3159 17 1
3159 161 1
3159 229 1
3159 2841 1
3160 126 1
3160 389 1
3160 1028 1
3160 2954 1
3161 392 1
3161 836 1
3161 1330 1
3161 2787 1
3161 4706 1
3161 4968 1
3162 1 1
3162 264 1
3162 2725 1
3162 2924 1
3162 4411 1
3162 4718 1
3163 1465 1
3163 1693 1
3163 2693 1
3163 3153 1
3163 3167 1
3164 746 1
3164 889 1
3164 1134 1
3164 2395 1
3164 3176 1
3164 4931 1
3165 549 1
3165 1676 1
3165 2204 1
3165 3082 1
3165 4098 1
3165 4230 1
3165 4669 1
3166 2 1
3166 7 1
3166 44 1
3166 706 1
3166 3736 1
3167 19 1
3167 29 1
3167 2469 1
3167 3163 1
3168 33 1
3168 41 1
3168 148 1
3168 260 1
3169 19 1
3169 1000 1
3169 1340 1
3169 2563 1
3169 3275 1
3170 184 1
3170 533 1
3170 765 1
3170 2837 1
3171 106 1
3171 318 1
3171 771 1
3171 1281 1
3171 3929 1
3172 27 1
3172 322 1
3172 386 1
3172 1428 1
3172 3178 1
3172 3642 1
3172 3645 1
3172 4163 1
3172 4768 1
3173 46 1
3173 125 1
3173 370 1
3173 634 1
3173 4572 1
3174 1739 1
3174 2305 1
3174 2861 1
3174 3138 1
3175 10 1
3175 13 1
3175 44 1
3175 1874 1
3175 4417 1
3175 4722 1
3176 1667 1
3176 1852 1
3176 2201 1
3176 3164 1
3176 3603 1
3177 22 1
3177 290 1
3177 881 1
3177 964 1
3177 4574 1
3178 322 1
3178 1043 1
3178 1221 1
3178 3172 1
3178 3645 1
3178 4256 1
3179 257 1
3179 501 1
3179 2062 1
3179 2749 1
3179 4192 1
3180 18 1
3180 25 1
3180 1421 1
3180 1821 1
3180 3647 1
3181 2 1
3181 874 1
3181 1284 1
3181 1813 1
3181 3625 1
3182 105 1
3182 1446 1
3182 1529 1
3182 2494 1
3182 3305 1
3182 3708 1
3182 3740 1
3182 4223 1
3183 755 1
3183 1196 1
3183 2741 1
3183 2960 1
3183 4040 1
3183 4108 1
3184 18 1
3184 147 1
3184 173 1
3184 3133 1
3184 3440 1
3185 357 1
3185 788 1
3185 854 1
3185 1972 1
3186 17 1
3186 431 1
3186 979 1
3186 1614 1
3186 3433 1
3186 3733 1
3186 3954 1
3186 4949 1
3187 151 1
3187 693 1
3187 2104 1
3187 3008 1
3187 3972 1
3188 427 1
3188 847 1
3188 1049 1
3188 1088 1
3188 3378 1
3188 4227 1
3188 4629 1
3189 19 1
3189 610 1
3189 1058 1
3189 1422 1
3189 4707 1
3190 515 1
3190 2909 1
3190 3017 1
3190 3113 1
3190 4495 1
3190 4866 1
3191 466 1
3191 841 1
3191 1100 1
3191 1880 1
3191 4058 1
3191 4265 1
3192 75 1
3192 686 1
3192 1083 1
3192 1682 1
3193 26 1
3193 1232 1
3193 1302 1
3193 2912 1
3193 4524 1
3193 4809 1
3194 19 1
3194 937 1
3194 973 1
3194 2542 1
3195 43 1
3195 330 1
3195 922 1
3195 2354 1
3195 4389 1
3196 332 1
3196 347 1
3196 601 1
3196 2440 1
3196 3791 1
3196 4196 1
3196 4561 1
3197 186 1
3197 220 1
3197 1049 1
3197 2348 1
3197 3230 1
3198 24 1
3198 562 1
3198 563 1
3198 1881 1
3199 361 1
3199 410 1
3199 1969 1
3199 2002 1
3199 3369 1
3200 336 1
3200 671 1
3200 2316 1
3200 2938 1
3200 4394 1
3201 342 1
3201 2081 1
3201 2165 1
3201 3026 1
3201 4015 1
3201 4205 1
3201 4395 1
3201 4418 1
3201 4787 1
3202 466 1
3202 893 1
3202 1179 1
3202 2519 1
3202 4782 1
3202 4951 1
3203 29 1
3203 588 1
3203 603 1
3203 3027 1
3204 3 1
3204 17 1
3204 479 1
3204 2286 1
3204 3920 1
3205 275 1
3205 1068 1
3205 1377 1
3205 1995 1
3206 29 1
3206 1413 1
3206 2589 1
3206 2747 1
3207 25 1
3207 90 1
3207 491 1
3207 529 1
3208 135 1
3208 1632 1
3208 1695 1
3208 2884 1
3209 42 1
3209 641 1
3209 1655 1
3209 2053 1
3209 3620 1
3210 353 1
3210 1310 1
3210 1419 1
3210 1586 1
3210 4294 1
3210 4977 1
3211 114 1
3211 722 1
3211 1822 1
3211 2333 1
3211 3306 1
3212 345 1
3212 404 1
3212 763 1
3212 1593 1
3213 406 1
3213 530 1
3213 1307 1
3213 2353 1
3213 3593 1
3213 4468 1
3214 17 1
3214 100 1
3214 1036 1
3214 2308 1
3214 3564 1
3214 3606 1
3215 542 1
3215 940 1
3215 943 1
3215 1338 1
3215 3583 1
3216 74 1
3216 1380 1
3216 2276 1
3216 2978 1
3216 4451 1
3217 52 1
3217 137 1
3217 314 1
3217 2013 1
3217 3230 1
3217 3766 1
3218 602 1
3218 751 1
3218 1407 1
3218 2687 1
3218 4314 1
3219 220 1
3219 248 1
3219 1232 1
3219 2202 1
3219 4497 1
3220 169 1
3220 756 1
3220 2141 1
3220 2286 1
3221 14 1
3221 61 1
3221 2425 1
3221 2515 1
3222 967 1
3222 1053 1
3222 1954 1
3222 2710 1
3223 3 1
3223 25 1
3223 2452 1
3223 2986 1
3223 4510 1
3224 170 1
3224 428 1
3224 1011 1
3224 1771 1
3225 841 1
3225 1883 1
3225 1884 1
3225 2004 1
3225 3630 1
3226 226 1
3226 472 1
3226 1001 1
3226 1857 1
3227 603 1
3227 1437 1
3227 2549 1
3227 2979 1
3227 3989 1
3228 177 1
3228 194 1
3228 612 1
3228 1211 1
3228 3632 1
3228 3654 1
3228 3787 1
3228 4156 1
3229 533 1
3229 889 1
3229 1881 1
3229 2523 1
3230 52 1
3230 347 1
3230 3197 1
3230 3217 1
3230 3766 1
3230 3846 1
3231 4 1
3231 372 1
3231 1110 1
3231 2225 1
3232 176 1
3232 1363 1
3232 1714 1
3232 2387 1
3232 3927 1
3233 451 1
3233 485 1
3233 1887 1
3233 2149 1
3234 59 1
3234 687 1
3234 737 1
3234 757 1
3234 3529 1
3234 3709 1
3235 3 1
3235 26 1
3235 194 1
3235 1002 1
3235 3906 1
3236 9 1
3236 17 1
3236 1179 1
3236 1484 1
3237 81 1
3237 146 1
3237 189 1
3237 1314 1
3238 17 1
3238 130 1
3238 203 1
3238 2822 1
3238 3899 1
3239 71 1
3239 242 1
3239 345 1
3239 2289 1
3240 25 1
3240 1123 1
3240 1518 1
3240 2355 1
3241 11 1
3241 1596 1
3241 1717 1
3241 2640 1
3242 319 1
3242 418 1
3242 1298 1
3242 2669 1
3242 3763 1
3242 4459 1
3242 4860 1
3243 386 1
3243 469 1
3243 1022 1
3243 1501 1
3244 259 1
3244 677 1
3244 1025 1
3244 1898 1
3245 724 1
3245 1027 1
3245 1813 1
3245 2639 1
3246 33 1
3246 457 1
3246 1739 1
3246 1978 1
3247 122 1
3247 126 1
3247 332 1
3247 338 1
3248 259 1
3248 971 1
3248 2548 1
3248 2647 1
3249 769 1
3249 1946 1
3249 2048 1
3249 2594 1
3249 3322 1
3250 318 1
3250 339 1
3250 929 1
3250 1065 1
3250 4370 1
3250 4453 1
3250 4818 1
3250 4853 1
3251 50 1
3251 59 1
3251 426 1
3251 732 1
3251 3304 1
3251 3323 1
3251 3905 1
3251 4198 1
3251 4760 1
3251 4928 1
3252 9 1
3252 137 1
3252 1304 1
3252 2463 1
3253 5 1
3253 310 1
3253 437 1
3253 1491 1
3253 4246 1
3254 164 1
3254 226 1
3254 2237 1
3254 2718 1
3254 4698 1
3255 42 1
3255 139 1
3255 205 1
3255 2904 1
3256 91 1
3256 601 1
3256 2073 1
3256 2440 1
3256 3352 1
3256 3528 1
3257 2 1
3257 17 1
3257 1869 1
3257 2861 1
3257 3353 1
3257 3525 1
3257 4805 1
3258 25 1
3258 1183 1
3258 1249 1
3258 1281 1
3259 2 1
3259 1353 1
3259 1500 1
3259 1770 1
3260 8 1
3260 38 1
3260 188 1
3260 1418 1
3261 12 1
3261 106 1
3261 681 1
3261 1427 1
3261 4655 1
3262 169 1
3262 382 1
3262 1611 1
3262 2729 1
3263 89 1
3263 1234 1
3263 2025 1
3263 2343 1
3264 323 1
3264 1329 1
3264 1820 1
3264 2243 1
3265 1177 1
3265 1708 1
3265 1879 1
3265 2857 1
3265 3327 1
3265 4383 1
3265 4607 1
3266 101 1
3266 486 1
3266 1622 1
3266 2719 1
3266 3410 1
3266 3551 1
3266 3912 1
3267 322 1
3267 1265 1
3267 1641 1
3267 2608 1
3268 75 1
3268 259 1
3268 2245 1
3268 3131 1
3268 4886 1
3269 1389 1
3269 1881 1
3269 1921 1
3269 2324 1
3269 4507 1
3270 2 1
3270 33 1
3270 514 1
3270 2099 1
3270 3406 1
3271 33 1
3271 298 1
3271 346 1
3271 426 1
3272 866 1
3272 1838 1
3272 2177 1
3272 2186 1
3273 25 1
3273 68 1
3273 448 1
3273 839 1
3274 17 1
3274 639 1
3274 1199 1
3274 2412 1
3275 1163 1
3275 1838 1
3275 2297 1
3275 3169 1
3275 3779 1
3276 139 1
3276 250 1
3276 1365 1
3276 1993 1
3276 3679 1
3276 4622 1
3277 3 1
3277 684 1
3277 1595 1
3277 2322 1
3277 4674 1
3278 6 1
3278 455 1
3278 1248 1
3278 3051 1
3278 3744 1
3278 4049 1
3279 169 1
3279 406 1
3279 524 1
3279 1826 1
3279 4094 1
3280 17 1
3280 223 1
3280 555 1
3280 2412 1
3281 115 1
3281 156 1
3281 2163 1
3281 2447 1
3281 4578 1
3282 50 1
3282 1667 1
3282 2201 1
3282 3061 1
3282 3441 1
3282 3856 1
3282 4694 1
3282 4733 1
3282 4954 1
3283 3 1
3283 107 1
3283 761 1
3283 3121 1
3284 100 1
3284 400 1
3284 1230 1
3284 1543 1
3285 42 1
3285 73 1
3285 94 1
3285 939 1
3285 4207 1
3286 9 1
3286 17 1
3286 91 1
3286 780 1
3286 3614 1
3287 120 1
3287 608 1
3287 749 1
3287 874 1
3288 10 1
3288 169 1
3288 540 1
3288 2425 1
3289 419 1
3289 681 1
3289 971 1
3289 3042 1
3289 3524 1
3289 4201 1
3289 4392 1
3290 42 1
3290 185 1
3290 645 1
3290 728 1
3291 1 1
3291 233 1
3291 2409 1
3291 2760 1
3292 209 1
3292 345 1
3292 1381 1
3292 2068 1
3292 3882 1
3292 4263 1
3293 122 1
3293 1118 1
3293 2778 1
3293 2861 1
3293 4953 1
3294 2127 1
3294 2378 1
3294 2545 1
3294 2684 1
3295 58 1
3295 177 1
3295 1211 1
3295 2160 1
3295 4436 1
3296 19 1
3296 681 1
3296 2332 1
3296 3097 1
3296 4772 1
3297 1580 1
3297 2042 1
3297 3001 1
3297 3039 1
3297 4502 1
3298 130 1
3298 365 1
3298 924 1
3298 2631 1
3299 1 1
3299 146 1
3299 1177 1
3299 1378 1
3299 3461 1
3299 4069 1
3300 1521 1
3300 2114 1
3300 2212 1
3300 3134 1
3301 169 1
3301 287 1
3301 741 1
3301 1391 1
3301 3460 1
3302 690 1
3302 1073 1
3302 1874 1
3302 3068 1
3303 1329 1
3303 1562 1
3303 1707 1
3303 2059 1
3303 3699 1
3303 4634 1
3304 50 1
3304 2113 1
3304 2997 1
3304 3251 1
3305 2377 1
3305 2494 1
3305 3098 1
3305 3182 1
3305 3334 1
3306 12 1
3306 144 1
3306 202 1
3306 3211 1
3306 4079 1
3306 4313 1
3307 2 1
3307 98 1
3307 884 1
3307 2254 1
3307 3966 1
3308 1266 1
3308 1338 1
3308 1569 1
3308 2616 1
3308 3630 1
3309 27 1
3309 510 1
3309 1603 1
3309 1743 1
3310 152 1
3310 912 1
3310 1039 1
3310 2858 1
3310 4032 1
3310 4861 1
3311 5 1
3311 203 1
3311 212 1
3311 2908 1
3311 4331 1
3312 306 1
3312 321 1
3312 1351 1
3312 2934 1
3312 3946 1
3313 105 1
3313 875 1
3313 998 1
3313 2066 1
3314 11 1
3314 18 1
3314 156 1
3314 450 1
3314 4010 1
3315 150 1
3315 374 1
3315 459 1
3315 1820 1
3316 305 1
3316 1874 1
3316 2439 1
3316 2980 1
3316 3426 1
3317 349 1
3317 505 1
3317 556 1
3317 2412 1
3317 3805 1
3317 4289 1
3318 214 1
3318 457 1
3318 1228 1
3318 2537 1
3319 486 1
3319 625 1
3319 1010 1
3319 1108 1
3320 924 1
3320 925 1
3320 988 1
3320 1894 1
3320 4390 1
3320 4608 1
3321 41 1
3321 122 1
3321 2702 1
3321 2901 1
3321 4106 1
3322 1828 1
3322 2402 1
3322 2642 1
3322 3249 1
3322 3677 1
3323 3 1
3323 50 1
3323 2423 1
3323 3251 1
3324 1 1
3324 35 1
3324 1966 1
3324 2780 1
3325 52 1
3325 58 1
3325 2026 1
3325 3123 1
3325 4752 1
3326 26 1
3326 957 1
3326 1277 1
3326 1892 1
3326 4926 1
3327 51 1
3327 1708 1
3327 2857 1
3327 3265 1
3328 122 1
3328 745 1
3328 1221 1
3328 2908 1
3328 3478 1
3328 3942 1
3329 2053 1
3329 2079 1
3329 2366 1
3329 3046 1
3329 4625 1
3330 37 1
3330 90 1
3330 817 1
3330 1252 1
3331 206 1
3331 671 1
3331 843 1
3331 2573 1
3332 122 1
3332 853 1
3332 1029 1
3332 1443 1
3333 43 1
3333 283 1
3333 1054 1
3333 3067 1
3334 185 1
3334 1676 1
3334 3098 1
3334 3305 1
3335 19 1
3335 507 1
3335 725 1
3335 2922 1
3336 3 1
3336 199 1
3336 555 1
3336 711 1
3336 3915 1
3337 36 1
3337 245 1
3337 1375 1
3337 2456 1
3337 4126 1
3338 629 1
3338 2442 1
3338 2674 1
3338 3065 1
3339 25 1
3339 394 1
3339 1497 1
3339 2971 1
3339 3815 1
3340 12 1
3340 105 1
3340 2097 1
3340 2978 1
3340 3675 1
3340 4793 1
3341 8 1
3341 196 1
3341 275 1
3341 597 1
3342 18 1
3342 122 1
3342 807 1
3342 1055 1
3342 3585 1
3342 3676 1
3342 4132 1
3343 2 1
3343 28 1
3343 50 1
3343 1001 1
3344 9 1
3344 900 1
3344 2570 1
3344 2940 1
3345 297 1
3345 415 1
3345 950 1
3345 1248 1
3345 4912 1
3346 186 1
3346 342 1
3346 1170 1
3346 1974 1
3347 224 1
3347 228 1
3347 250 1
3347 563 1
3347 3424 1
3348 2 1
3348 113 1
3348 1457 1
3348 2832 1
3349 36 1
3349 1258 1
3349 1308 1
3349 1469 1
3349 3750 1
3350 3 1
3350 29 1
3350 554 1
3350 1521 1
3351 707 1
3351 1420 1
3351 1937 1
3351 2089 1
3352 347 1
3352 360 1
3352 1267 1
3352 3256 1
3353 17 1
3353 727 1
3353 3106 1
3353 3257 1
3353 3606 1
3354 81 1
3354 113 1
3354 405 1
3354 2889 1
3354 3587 1
3354 4249 1
3354 4814 1
3355 265 1
3355 434 1
3355 847 1
3355 2039 1
3355 4725 1
3356 141 1
3356 803 1
3356 986 1
3356 1091 1
3356 3669 1
3356 4217 1
3357 73 1
3357 203 1
3357 1606 1
3357 2453 1
3358 1 1
3358 5 1
3358 66 1
3358 1596 1
3359 143 1
3359 305 1
3359 489 1
3359 2343 1
3360 19 1
3360 56 1
3360 1802 1
3360 2840 1
3361 483 1
3361 729 1
3361 1532 1
3361 1966 1
3361 4177 1
3362 4 1
3362 75 1
3362 670 1
3362 2607 1
3362 4359 1
3363 594 1
3363 1285 1
3363 1743 1
3363 2003 1
3364 1930 1
3364 2457 1
3364 2731 1
3364 2835 1
3365 451 1
3365 1321 1
3365 1389 1
3365 1874 1
3366 252 1
3366 418 1
3366 787 1
3366 2220 1
3366 4592 1
3367 11 1
3367 14 1
3367 211 1
3367 221 1
3367 3579 1
3368 116 1
3368 1230 1
3368 1231 1
3368 2017 1
3369 361 1
3369 1138 1
3369 1975 1
3369 3199 1
3370 76 1
3370 281 1
3370 1341 1
3370 1841 1
3370 3760 1
3370 3896 1
3370 4326 1
3371 25 1
3371 249 1
3371 410 1
3371 1701 1
3371 4724 1
3372 129 1
3372 228 1
3372 233 1
3372 636 1
3372 4800 1
3373 11 1
3373 106 1
3373 676 1
3373 3005 1
3374 1 1
3374 75 1
3374 1493 1
3374 2363 1
3374 4021 1
3375 2 1
3375 57 1
3375 297 1
3375 1385 1
3376 28 1
3376 48 1
3376 75 1
3376 3048 1
3377 11 1
3377 45 1
3377 1036 1
3377 1255 1
3377 4531 1
3378 5 1
3378 1178 1
3378 2395 1
3378 3188 1
3378 4204 1
3379 81 1
3379 193 1
3379 582 1
3379 2608 1
3380 9 1
3380 1367 1
3380 2373 1
3380 2788 1
3381 437 1
3381 642 1
3381 1178 1
3381 3138 1
3381 3903 1
3381 4031 1
3381 4272 1
3382 69 1
3382 135 1
3382 449 1
3382 1548 1
3382 3383 1
3382 4323 1
3383 11 1
3383 19 1
3383 47 1
3383 3382 1
3384 9 1
3384 66 1
3384 1301 1
3384 2612 1
3384 3740 1
3384 3851 1
3385 57 1
3385 970 1
3385 1290 1
3385 3052 1
3385 3966 1
3385 4204 1
3386 940 1
3386 1108 1
3386 1226 1
3386 1620 1
3386 3615 1
3386 3651 1
3387 3 1
3387 27 1
3387 71 1
3387 1001 1
3387 3484 1
3388 2 1
3388 99 1
3388 2364 1
3388 2881 1
3389 1195 1
3389 2010 1
3389 2445 1
3389 2911 1
3389 4493 1
3389 4554 1
3390 290 1
3390 564 1
3390 1449 1
3390 1875 1
3391 117 1
3391 198 1
3391 1939 1
3391 2289 1
3392 705 1
3392 1340 1
3392 2410 1
3392 2794 1
3392 4106 1
3393 1 1
3393 10 1
3393 332 1
3393 1241 1
3393 4277 1
3393 4407 1
3394 24 1
3394 213 1
3394 798 1
3394 3050 1
3395 1681 1
3395 1753 1
3395 1898 1
3395 2378 1
3395 4121 1
3395 4404 1
3395 4795 1
3396 114 1
3396 396 1
3396 1009 1
3396 1076 1
3396 3911 1
3396 4878 1
3397 18 1
3397 658 1
3397 833 1
3397 1980 1
3397 4934 1
3398 27 1
3398 827 1
3398 1009 1
3398 1325 1
3399 892 1
3399 1267 1
3399 1475 1
3399 3021 1
3399 3881 1
3400 25 1
3400 491 1
3400 2206 1
3400 2561 1
3400 4073 1
3400 4506 1
3401 177 1
3401 370 1
3401 1851 1
3401 1897 1
3401 4173 1
3401 4747 1
3402 5 1
3402 34 1
3402 179 1
3402 2363 1
3403 477 1
3403 521 1
3403 836 1
3403 1006 1
3403 3594 1
3403 4034 1
3403 4761 1
3404 1 1
3404 28 1
3404 361 1
3404 3140 1
3405 13 1
3405 14 1
3405 742 1
3405 841 1
3406 66 1
3406 201 1
3406 1234 1
3406 3270 1
3407 19 1
3407 559 1
3407 674 1
3407 1556 1
3407 4327 1
3408 898 1
3408 1049 1
3408 1195 1
3408 1857 1
3409 154 1
3409 1587 1
3409 2374 1
3409 2646 1
3409 3450 1
3409 3861 1
3410 1220 1
3410 2477 1
3410 2602 1
3410 3266 1
3410 3551 1
3411 13 1
3411 169 1
3411 778 1
3411 1562 1
3411 3933 1
3412 138 1
3412 250 1
3412 710 1
3412 3051 1
3413 74 1
3413 193 1
3413 600 1
3413 989 1
3414 125 1
3414 972 1
3414 2234 1
3414 2742 1
3414 3588 1
3414 4221 1
3414 4285 1
3415 173 1
3415 562 1
3415 1881 1
3415 2603 1
3416 881 1
3416 1068 1
3416 1377 1
3416 1722 1
3417 474 1
3417 475 1
3417 613 1
3417 925 1
3417 4303 1
3417 4593 1
3418 60 1
3418 161 1
3418 332 1
3418 569 1
3418 3474 1
3418 4009 1
3418 4866 1
3419 34 1
3419 292 1
3419 1349 1
3419 2172 1
3420 20 1
3420 523 1
3420 1729 1
3420 3105 1
3421 834 1
3421 925 1
3421 1162 1
3421 1991 1
3422 210 1
3422 245 1
3422 1555 1
3422 2752 1
3422 4888 1
3423 2 1
3423 532 1
3423 923 1
3423 1168 1
3423 4974 1
3424 250 1
3424 347 1
3424 2147 1
3424 3347 1
3424 4647 1
3425 91 1
3425 102 1
3425 925 1
3425 1219 1
3426 154 1
3426 782 1
3426 1695 1
3426 3316 1
3426 3480 1
3427 139 1
3427 1717 1
3427 2062 1
3427 2432 1
3427 3721 1
3428 5 1
3428 170 1
3428 727 1
3428 1894 1
3429 362 1
3429 614 1
3429 1285 1
3429 1410 1
3430 113 1
3430 454 1
3430 674 1
3430 1479 1
3430 4905 1
3431 140 1
3431 205 1
3431 283 1
3431 2185 1
3431 3910 1
3431 4887 1
3432 250 1
3432 1170 1
3432 2171 1
3432 2666 1
3433 225 1
3433 870 1
3433 879 1
3433 3186 1
3433 3449 1
3433 3733 1
3433 4047 1
3433 4944 1
3434 4 1
3434 1108 1
3434 1928 1
3434 2929 1
3434 4117 1
3435 106 1
3435 577 1
3435 689 1
3435 914 1
3435 4423 1
3435 4733 1
3436 13 1
3436 115 1
3436 2177 1
3436 2374 1
3436 4137 1
3436 4898 1
3437 4 1
3437 81 1
3437 476 1
3437 925 1
3438 499 1
3438 1446 1
3438 2719 1
3438 2884 1
3439 18 1
3439 97 1
3439 249 1
3439 899 1
3439 3460 1
3439 3467 1
3439 3706 1
3440 147 1
3440 444 1
3440 1826 1
3440 3184 1
3441 214 1
3441 628 1
3441 1662 1
3441 3282 1
3441 4720 1
3442 5 1
3442 747 1
3442 1753 1
3442 2395 1
3442 3480 1
3443 288 1
3443 329 1
3443 770 1
3443 1843 1
3444 33 1
3444 238 1
3444 299 1
3444 314 1
3445 227 1
3445 497 1
3445 871 1
3445 1356 1
3445 4194 1
3446 284 1
3446 648 1
3446 874 1
3446 2283 1
3447 242 1
3447 868 1
3447 1075 1
3447 2223 1
3447 3783 1
3448 242 1
3448 900 1
3448 1370 1
3448 1385 1
3448 4315 1
3449 92 1
3449 879 1
3449 3084 1
3449 3433 1
3450 154 1
3450 2359 1
3450 2817 1
3450 3409 1
3450 3779 1
3450 3861 1
3450 4307 1
3451 593 1
3451 1031 1
3451 1853 1
3451 2073 1
3452 12 1
3452 186 1
3452 204 1
3452 1074 1
3452 4827 1
3453 10 1
3453 52 1
3453 1773 1
3453 2299 1
3453 3637 1
3453 4625 1
3454 576 1
3454 609 1
3454 842 1
3454 2162 1
3454 4756 1
3455 10 1
3455 129 1
3455 833 1
3455 1061 1
3455 3591 1
3456 140 1
3456 690 1
3456 1666 1
3456 2355 1
3457 105 1
3457 449 1
3457 1820 1
3457 2608 1
3458 411 1
3458 1670 1
3458 1689 1
3458 3010 1
3458 3566 1
3459 44 1
3459 1467 1
3459 1793 1
3459 2109 1
3460 23 1
3460 317 1
3460 3301 1
3460 3439 1
3460 3615 1
3461 2 1
3461 481 1
3461 2961 1
3461 3299 1
3462 270 1
3462 353 1
3462 1893 1
3462 2125 1
3463 787 1
3463 991 1
3463 1538 1
3463 2943 1
3463 3998 1
3463 4592 1
3464 253 1
3464 381 1
3464 1017 1
3464 2802 1
3464 4935 1
3465 170 1
3465 308 1
3465 763 1
3465 1360 1
3466 59 1
3466 1042 1
3466 1936 1
3466 1985 1
3466 4213 1
3467 14 1
3467 580 1
3467 899 1
3467 3439 1
3468 2 1
3468 52 1
3468 90 1
3468 2989 1
3468 3888 1
3469 717 1
3469 1069 1
3469 1627 1
3469 2487 1
3469 3558 1
3469 3567 1
3470 43 1
3470 105 1
3470 684 1
3470 1467 1
3471 11 1
3471 333 1
3471 1028 1
3471 1645 1
3472 10 1
3472 306 1
3472 1137 1
3472 2614 1
3473 3 1
3473 53 1
3473 716 1
3473 2903 1
3473 4303 1
3473 4553 1
3473 4873 1
3474 11 1
3474 283 1
3474 706 1
3474 3418 1
3474 3847 1
3474 4678 1
3475 28 1
3475 177 1
3475 1593 1
3475 1649 1
3476 75 1
3476 348 1
3476 1742 1
3476 2281 1
3476 3556 1
3477 101 1
3477 1879 1
3477 2199 1
3477 2492 1
3477 3537 1
3477 4379 1
3478 10 1
3478 75 1
3478 481 1
3478 3328 1
3478 3835 1
3479 499 1
3479 1317 1
3479 1726 1
3479 2101 1
3479 3486 1
3480 139 1
3480 443 1
3480 3426 1
3480 3442 1
3480 4644 1
3481 1 1
3481 298 1
3481 317 1
3481 2441 1
3481 3534 1
3482 100 1
3482 569 1
3482 719 1
3482 786 1
3483 25 1
3483 92 1
3483 125 1
3483 2098 1
3483 4222 1
3484 3 1
3484 922 1
3484 2765 1
3484 3387 1
3485 19 1
3485 1556 1
3485 1897 1
3485 2264 1
3486 53 1
3486 499 1
3486 687 1
3486 3479 1
3487 33 1
3487 605 1
3487 969 1
3487 1359 1
3488 2 1
3488 154 1
3488 355 1
3488 1617 1
3489 17 1
3489 19 1
3489 1280 1
3489 1752 1
3489 3748 1
3489 3854 1
3490 9 1
3490 131 1
3490 998 1
3490 1372 1
3490 3881 1
3491 1107 1
3491 2137 1
3491 2409 1
3491 2760 1
3492 45 1
3492 52 1
3492 1233 1
3492 1397 1
3492 4513 1
3493 55 1
3493 155 1
3493 2202 1
3493 2746 1
3494 137 1
3494 859 1
3494 2037 1
3494 2668 1
3495 1 1
3495 122 1
3495 169 1
3495 954 1
3496 99 1
3496 540 1
3496 2237 1
3496 2425 1
3496 4920 1
3497 1360 1
3497 1407 1
3497 1919 1
3497 2786 1
3498 83 1
3498 1083 1
3498 1694 1
3498 2770 1
3498 3867 1
3499 41 1
3499 771 1
3499 1699 1
3499 2671 1
3500 359 1
3500 2161 1
3500 2756 1
3500 2812 1
3501 95 1
3501 1071 1
3501 1902 1
3501 2529 1
3502 51 1
3502 1018 1
3502 1198 1
3502 2437 1
3502 4522 1
3503 1107 1
3503 1294 1
3503 1810 1
3503 2313 1
3504 872 1
3504 1223 1
3504 1384 1
3504 2473 1
3505 25 1
3505 331 1
3505 1622 1
3505 3099 1
3505 4685 1
3506 47 1
3506 545 1
3506 1557 1
3506 2600 1
3506 3798 1
3506 3892 1
3506 3918 1
3506 4680 1
3506 4993 1
3507 11 1
3507 49 1
3507 308 1
3507 429 1
3507 4043 1
3507 4819 1
3508 5 1
3508 875 1
3508 985 1
3508 1491 1
3508 3762 1
3508 4272 1
3509 21 1
3509 129 1
3509 199 1
3509 2772 1
3510 97 1
3510 934 1
3510 1035 1
3510 1609 1
3511 56 1
3511 139 1
3511 330 1
3511 1085 1
3512 379 1
3512 600 1
3512 1395 1
3512 2380 1
3513 3 1
3513 194 1
3513 795 1
3513 1089 1
3513 4712 1
3514 122 1
3514 308 1
3514 673 1
3514 2015 1
3514 4666 1
3515 18 1
3515 451 1
3515 913 1
3515 1874 1
3515 4749 1
3516 305 1
3516 499 1
3516 1081 1
3516 1227 1
3517 54 1
3517 521 1
3517 694 1
3517 3145 1
3517 3581 1
3518 10 1
3518 467 1
3518 542 1
3518 1657 1
3519 43 1
3519 1242 1
3519 1413 1
3519 2369 1
3520 157 1
3520 209 1
3520 1676 1
3520 1684 1
3520 3701 1
3520 4464 1
3521 773 1
3521 786 1
3521 1335 1
3521 2292 1
3521 3855 1
3522 2 1
3522 963 1
3522 2633 1
3522 2675 1
3522 4061 1
3522 4134 1
3523 155 1
3523 482 1
3523 697 1
3523 2736 1
3524 2249 1
3524 2481 1
3524 2556 1
3524 3289 1
3524 4211 1
3525 17 1
3525 28 1
3525 970 1
3525 3257 1
3525 4396 1
3526 49 1
3526 319 1
3526 1340 1
3526 2259 1
3526 3822 1
3526 4008 1
3527 9 1
3527 141 1
3527 707 1
3527 2926 1
3527 4120 1
3528 346 1
3528 601 1
3528 2531 1
3528 3256 1
3528 4196 1
3529 59 1
3529 1001 1
3529 1963 1
3529 3234 1
3529 3665 1
3530 194 1
3530 2003 1
3530 2184 1
3530 2737 1
3530 3954 1
3530 4428 1
3530 4503 1
3531 421 1
3531 831 1
3531 1424 1
3531 1859 1
3532 5 1
3532 178 1
3532 275 1
3532 2557 1
3532 3553 1
3532 4322 1
3533 52 1
3533 746 1
3533 768 1
3533 1602 1
3534 298 1
3534 572 1
3534 2969 1
3534 3481 1
3535 36 1
3535 526 1
3535 927 1
3535 1375 1
3536 319 1
3536 1833 1
3536 2495 1
3536 2955 1
3537 4 1
3537 475 1
3537 3107 1
3537 3477 1
3538 403 1
3538 1104 1
3538 1592 1
3538 2794 1
3539 2 1
3539 12 1
3539 255 1
3539 748 1
3539 3984 1
3540 1 1
3540 818 1
3540 931 1
3540 1899 1
3541 142 1
3541 1799 1
3541 2267 1
3541 2548 1
3541 4291 1
3542 51 1
3542 635 1
3542 1297 1
3542 1589 1
3542 3963 1
3542 4173 1
3543 30 1
3543 230 1
3543 2898 1
3543 3029 1
3544 64 1
3544 139 1
3544 1640 1
3544 2937 1
3545 2 1
3545 25 1
3545 2148 1
3545 2163 1
3545 4083 1
3546 347 1
3546 1623 1
3546 1856 1
3546 3151 1
3547 79 1
3547 359 1
3547 1405 1
3547 1616 1
3548 36 1
3548 483 1
3548 501 1
3548 811 1
3548 3790 1
3549 10 1
3549 209 1
3549 1233 1
3549 1795 1
3549 4254 1
3549 4910 1
3550 81 1
3550 850 1
3550 1347 1
3550 1418 1
3551 1435 1
3551 2745 1
3551 3266 1
3551 3410 1
3552 483 1
3552 979 1
3552 1227 1
3552 2795 1
3553 178 1
3553 277 1
3553 1997 1
3553 3532 1
3553 3567 1
3553 4430 1
3554 164 1
3554 586 1
3554 1226 1
3554 1612 1
3554 4766 1
3554 4969 1
3555 17 1
3555 27 1
3555 38 1
3555 161 1
3555 3814 1
3556 138 1
3556 2340 1
3556 3051 1
3556 3476 1
3557 1319 1
3557 1763 1
3557 1938 1
3557 2030 1
3558 1069 1
3558 1147 1
3558 1751 1
3558 3469 1
3559 242 1
3559 321 1
3559 981 1
3559 1094 1
3559 4987 1
3560 13 1
3560 83 1
3560 95 1
3560 1314 1
3560 4633 1
3561 779 1
3561 1092 1
3561 1169 1
3561 2426 1
3562 11 1
3562 532 1
3562 885 1
3562 1315 1
3563 11 1
3563 57 1
3563 130 1
3563 1896 1
3563 4100 1
3564 245 1
3564 619 1
3564 2308 1
3564 3214 1
3564 4332 1
3565 49 1
3565 190 1
3565 258 1
3565 2329 1
3566 13 1
3566 108 1
3566 250 1
3566 3458 1
3566 3611 1
3567 1451 1
3567 2297 1
3567 3469 1
3567 3553 1
3567 3833 1
3568 298 1
3568 580 1
3568 1070 1
3568 2011 1
3568 3777 1
3569 1799 1
3569 1879 1
3569 2332 1
3569 2492 1
3570 968 1
3570 978 1
3570 1048 1
3570 1982 1
3570 4432 1
3571 212 1
3571 357 1
3571 714 1
3571 2227 1
3571 4162 1
3572 19 1
3572 978 1
3572 1192 1
3572 2724 1
3573 2 1
3573 138 1
3573 161 1
3573 1025 1
3573 3656 1
3573 3743 1
3574 298 1
3574 779 1
3574 1427 1
3574 2922 1
3575 51 1
3575 293 1
3575 1635 1
3575 2924 1
3576 35 1
3576 399 1
3576 466 1
3576 900 1
3577 482 1
3577 1366 1
3577 1431 1
3577 3106 1
3578 386 1
3578 790 1
3578 2450 1
3578 2699 1
3579 2019 1
3579 2103 1
3579 2614 1
3579 3367 1
3579 3631 1
3580 172 1
3580 1249 1
3580 2119 1
3580 2616 1
3581 52 1
3581 97 1
3581 109 1
3581 3517 1
3582 26 1
3582 1609 1
3582 1751 1
3582 2709 1
3582 3933 1
3582 4764 1
3583 635 1
3583 2034 1
3583 2895 1
3583 3215 1
3583 3626 1
3583 4186 1
3583 4635 1
3584 105 1
3584 194 1
3584 1402 1
3584 2532 1
3584 4712 1
3585 354 1
3585 399 1
3585 1861 1
3585 3342 1
3586 3 1
3586 691 1
3586 921 1
3586 2714 1
3587 242 1
3587 405 1
3587 1888 1
3587 3354 1
3587 4773 1
3588 92 1
3588 125 1
3588 2309 1
3588 3414 1
3588 4220 1
3589 652 1
3589 751 1
3589 985 1
3589 1363 1
3589 3927 1
3589 4788 1
3590 10 1
3590 24 1
3590 2140 1
3590 2586 1
3590 3810 1
3590 4233 1
3590 4995 1
3591 3 1
3591 1061 1
3591 2736 1
3591 3455 1
3592 475 1
3592 1291 1
3592 1350 1
3592 1458 1
3592 4624 1
3593 11 1
3593 15 1
3593 2359 1
3593 3213 1
3594 19 1
3594 1426 1
3594 2158 1
3594 3403 1
3594 4231 1
3594 4770 1
3595 4 1
3595 1083 1
3595 2033 1
3595 2137 1
3596 8 1
3596 481 1
3596 2013 1
3596 3046 1
3596 3628 1
3596 4224 1
3596 4337 1
3597 574 1
3597 805 1
3597 1566 1
3597 3154 1
3598 322 1
3598 1043 1
3598 1286 1
3598 2782 1
3598 4260 1
3598 4587 1
3599 25 1
3599 242 1
3599 929 1
3599 1875 1
3600 382 1
3600 1539 1
3600 2185 1
3600 2308 1
3601 5 1
3601 260 1
3601 823 1
3601 2477 1
3602 60 1
3602 1306 1
3602 1531 1
3602 2731 1
3602 4791 1
3603 210 1
3603 1371 1
3603 1852 1
3603 3176 1
3603 3840 1
3603 4835 1
3604 329 1
3604 356 1
3604 1495 1
3604 2418 1
3604 3948 1
3605 45 1
3605 277 1
3605 886 1
3605 1239 1
3606 17 1
3606 558 1
3606 3214 1
3606 3353 1
3606 4080 1
3607 193 1
3607 769 1
3607 1929 1
3607 2829 1
3608 66 1
3608 373 1
3608 1082 1
3608 2798 1
3609 2 1
3609 483 1
3609 650 1
3609 979 1
3610 157 1
3610 455 1
3610 908 1
3610 2976 1
3611 25 1
3611 1842 1
3611 2739 1
3611 3566 1
3612 257 1
3612 470 1
3612 1472 1
3612 3097 1
3613 787 1
3613 1556 1
3613 2277 1
3613 2872 1
3614 17 1
3614 1814 1
3614 2293 1
3614 3286 1
3615 1155 1
3615 1226 1
3615 3386 1
3615 3460 1
3615 3651 1
3616 10 1
3616 22 1
3616 817 1
3616 833 1
3617 522 1
3617 812 1
3617 939 1
3617 2689 1
3617 3910 1
3618 97 1
3618 1659 1
3618 1977 1
3618 2774 1
3618 3712 1
3619 25 1
3619 60 1
3619 153 1
3619 785 1
3620 42 1
3620 641 1
3620 2053 1
3620 3209 1
3621 2 1
3621 25 1
3621 142 1
3621 2755 1
3622 586 1
3622 678 1
3622 1020 1
3622 1503 1
3622 4562 1
3623 41 1
3623 1113 1
3623 1513 1
3623 2098 1
3623 4465 1
3624 41 1
3624 566 1
3624 776 1
3624 1993 1
3624 4366 1
3625 141 1
3625 1284 1
3625 3017 1
3625 3181 1
3626 771 1
3626 1225 1
3626 2895 1
3626 3583 1
3627 1192 1
3627 1385 1
3627 2026 1
3627 2511 1
3628 771 1
3628 2693 1
3628 2991 1
3628 3596 1
3628 3749 1
3628 4940 1
3629 14 1
3629 237 1
3629 242 1
3629 2137 1
3630 84 1
3630 1338 1
3630 3225 1
3630 3308 1
3630 4252 1
3631 132 1
3631 708 1
3631 1700 1
3631 3579 1
3632 177 1
3632 1649 1
3632 2239 1
3632 3228 1
3633 355 1
3633 932 1
3633 1337 1
3633 1604 1
3633 3798 1
3633 3907 1
3633 4430 1
3633 4529 1
3633 4573 1
3633 4729 1
3633 4973 1
3634 3 1
3634 259 1
3634 798 1
3634 2275 1
3635 35 1
3635 48 1
3635 100 1
3635 3116 1
3636 457 1
3636 986 1
3636 2016 1
3636 2778 1
3637 460 1
3637 893 1
3637 2169 1
3637 3453 1
3638 21 1
3638 136 1
3638 405 1
3638 1686 1
3639 57 1
3639 721 1
3639 1126 1
3639 1364 1
3639 4878 1
3640 478 1
3640 1897 1
3640 2946 1
3640 3000 1
3641 1009 1
3641 1039 1
3641 1052 1
3641 2588 1
3641 4218 1
3642 1053 1
3642 1431 1
3642 2213 1
3642 3172 1
3642 4163 1
3642 4195 1
3642 4597 1
3643 122 1
3643 688 1
3643 879 1
3643 945 1
3644 61 1
3644 2108 1
3644 2811 1
3644 3120 1
3644 3729 1
3644 4414 1
3644 4616 1
3645 149 1
3645 1141 1
3645 3172 1
3645 3178 1
3645 4163 1
3645 4262 1
3646 37 1
3646 636 1
3646 869 1
3646 2078 1
3647 132 1
3647 210 1
3647 1537 1
3647 3180 1
3647 3784 1
3647 4008 1
3647 4512 1
3648 75 1
3648 799 1
3648 1359 1
3648 3010 1
3649 529 1
3649 833 1
3649 1356 1
3649 3121 1
3650 146 1
3650 467 1
3650 971 1
3650 1657 1
3651 1162 1
3651 1923 1
3651 3386 1
3651 3615 1
3652 286 1
3652 399 1
3652 1036 1
3652 2562 1
3652 3713 1
3653 26 1
3653 579 1
3653 685 1
3653 1140 1
3653 3689 1
3653 3703 1
3653 3739 1
3654 499 1
3654 1081 1
3654 2026 1
3654 3228 1
3654 4002 1
3655 89 1
3655 500 1
3655 1028 1
3655 2434 1
3655 4743 1
3656 742 1
3656 1025 1
3656 1418 1
3656 3573 1
3657 6 1
3657 19 1
3657 382 1
3657 3154 1
3658 141 1
3658 689 1
3658 1080 1
3658 3091 1
3658 4120 1
3658 4462 1
3659 9 1
3659 618 1
3659 1766 1
3659 3046 1
3660 1389 1
3660 1422 1
3660 2201 1
3660 2962 1
3660 4309 1
3661 147 1
3661 202 1
3661 1646 1
3661 1671 1
3661 4048 1
3661 4183 1
3661 4580 1
3661 4982 1
3662 9 1
3662 31 1
3662 571 1
3662 796 1
3663 61 1
3663 1031 1
3663 2084 1
3663 2406 1
3663 4961 1
3664 322 1
3664 542 1
3664 732 1
3664 1852 1
3664 3720 1
3665 59 1
3665 894 1
3665 3529 1
3665 3874 1
3665 4103 1
3666 122 1
3666 165 1
3666 771 1
3666 1457 1
3667 622 1
3667 660 1
3667 810 1
3667 2126 1
3668 154 1
3668 221 1
3668 331 1
3668 1879 1
3669 11 1
3669 141 1
3669 457 1
3669 3356 1
3670 187 1
3670 380 1
3670 1421 1
3670 1933 1
3670 3930 1
3671 371 1
3671 1039 1
3671 1221 1
3671 2720 1
3672 25 1
3672 597 1
3672 1114 1
3672 2265 1
3673 4 1
3673 2481 1
3673 2711 1
3673 2999 1
3674 2 1
3674 227 1
3674 1267 1
3674 2057 1
3674 4898 1
3675 66 1
3675 371 1
3675 2097 1
3675 3340 1
3676 115 1
3676 122 1
3676 562 1
3676 3342 1
3677 857 1
3677 969 1
3677 1828 1
3677 3322 1
3678 103 1
3678 651 1
3678 901 1
3678 2229 1
3679 126 1
3679 1716 1
3679 2130 1
3679 3276 1
3679 4101 1
3680 5 1
3680 10 1
3680 1027 1
3680 2097 1
3680 4505 1
3681 260 1
3681 1795 1
3681 2394 1
3681 2477 1
3681 4664 1
3681 4736 1
3682 91 1
3682 1029 1
3682 1766 1
3682 2076 1
3683 132 1
3683 1474 1
3683 1514 1
3683 3105 1
3683 3751 1
3684 123 1
3684 426 1
3684 852 1
3684 1409 1
3684 4505 1
3685 10 1
3685 540 1
3685 888 1
3685 1151 1
3686 58 1
3686 303 1
3686 869 1
3686 2484 1
3687 73 1
3687 90 1
3687 1683 1
3687 2701 1
3688 2 1
3688 85 1
3688 116 1
3688 339 1
3689 11 1
3689 685 1
3689 2387 1
3689 3653 1
3690 142 1
3690 1613 1
3690 1770 1
3690 3140 1
3691 3 1
3691 419 1
3691 1190 1
3691 2450 1
3691 4825 1
3692 90 1
3692 307 1
3692 1189 1
3692 2804 1
3692 3979 1
3692 4247 1
3693 74 1
3693 101 1
3693 627 1
3693 1385 1
3693 4006 1
3693 4483 1
3694 366 1
3694 615 1
3694 1106 1
3694 1874 1
3695 35 1
3695 313 1
3695 1356 1
3695 3136 1
3696 50 1
3696 246 1
3696 1117 1
3696 1638 1
3696 3889 1
3696 4022 1
3696 4439 1
3697 553 1
3697 701 1
3697 1627 1
3697 1706 1
3698 324 1
3698 348 1
3698 459 1
3698 2057 1
3698 4028 1
3698 4208 1
3699 364 1
3699 2059 1
3699 2553 1
3699 3303 1
3699 4124 1
3700 55 1
3700 1736 1
3700 1759 1
3700 2766 1
3701 899 1
3701 2139 1
3701 2631 1
3701 3520 1
3701 3938 1
3702 2 1
3702 115 1
3702 1226 1
3702 1754 1
3703 459 1
3703 2255 1
3703 2770 1
3703 3653 1
3704 84 1
3704 229 1
3704 916 1
3704 1820 1
3704 4484 1
3705 42 1
3705 132 1
3705 202 1
3705 780 1
3706 18 1
3706 924 1
3706 985 1
3706 3439 1
3707 3 1
3707 613 1
3707 626 1
3707 2322 1
3707 4384 1
3707 4797 1
3707 4870 1
3708 2 1
3708 655 1
3708 2494 1
3708 3182 1
3708 3763 1
3708 4223 1
3708 4848 1
3709 687 1
3709 802 1
3709 1180 1
3709 3234 1
3710 33 1
3710 267 1
3710 828 1
3710 2024 1
3710 4077 1
3710 4184 1
3710 4219 1
3710 4590 1
3711 17 1
3711 19 1
3711 32 1
3711 2954 1
3711 4843 1
3712 18 1
3712 26 1
3712 105 1
3712 3618 1
3712 3973 1
3712 4615 1
3713 406 1
3713 2123 1
3713 2427 1
3713 3652 1
3713 3836 1
3714 37 1
3714 850 1
3714 2002 1
3714 3141 1
3715 11 1
3715 332 1
3715 740 1
3715 1003 1
3715 4151 1
3715 4839 1
3716 3 1
3716 262 1
3716 402 1
3716 1636 1
3717 100 1
3717 346 1
3717 706 1
3717 2211 1
3718 450 1
3718 612 1
3718 2051 1
3718 3101 1
3718 4419 1
3719 831 1
3719 1300 1
3719 1429 1
3719 2905 1
3720 732 1
3720 1282 1
3720 2439 1
3720 3664 1
3720 3944 1
3721 17 1
3721 2557 1
3721 3149 1
3721 3427 1
3721 4651 1
3722 277 1
3722 889 1
3722 1037 1
3722 1146 1
3723 9 1
3723 254 1
3723 1940 1
3723 2097 1
3724 12 1
3724 308 1
3724 1475 1
3724 3151 1
3725 36 1
3725 275 1
3725 1709 1
3725 2275 1
3725 4227 1
3726 2 1
3726 3 1
3726 184 1
3726 2518 1
3727 70 1
3727 319 1
3727 986 1
3727 1429 1
3728 131 1
3728 1289 1
3728 1851 1
3728 2833 1
3729 61 1
3729 1269 1
3729 1332 1
3729 3644 1
3730 1 1
3730 2 1
3730 90 1
3730 3053 1
3730 4247 1
3731 202 1
3731 2141 1
3731 2187 1
3731 2878 1
3731 4454 1
3732 36 1
3732 40 1
3732 120 1
3732 401 1
3732 4238 1
3733 225 1
3733 879 1
3733 3186 1
3733 3433 1
3734 1222 1
3734 1599 1
3734 2031 1
3734 2426 1
3734 4820 1
3735 156 1
3735 1169 1
3735 1362 1
3735 1619 1
3736 2 1
3736 461 1
3736 2509 1
3736 3166 1
3737 41 1
3737 363 1
3737 2346 1
3737 2642 1
3737 3837 1
3737 4051 1
3738 131 1
3738 292 1
3738 379 1
3738 1516 1
3739 1374 1
3739 2220 1
3739 3038 1
3739 3653 1
3739 3945 1
3740 1301 1
3740 1529 1
3740 3182 1
3740 3384 1
3741 3 1
3741 646 1
3741 1002 1
3741 2059 1
3742 27 1
3742 443 1
3742 1401 1
3742 1692 1
3743 2 1
3743 194 1
3743 2853 1
3743 3573 1
3744 5 1
3744 1922 1
3744 3004 1
3744 3278 1
3744 4250 1
3745 97 1
3745 214 1
3745 1464 1
3745 1741 1
3746 739 1
3746 1489 1
3746 1540 1
3746 2590 1
3747 14 1
3747 954 1
3747 956 1
3747 1597 1
3747 3999 1
3747 4090 1
3747 4504 1
3748 17 1
3748 1444 1
3748 2101 1
3748 3489 1
3748 3854 1
3748 3868 1
3749 186 1
3749 197 1
3749 2693 1
3749 3628 1
3749 3953 1
3749 4739 1
3750 28 1
3750 44 1
3750 160 1
3750 3349 1
3751 132 1
3751 756 1
3751 1474 1
3751 3683 1
3752 132 1
3752 260 1
3752 913 1
3752 1209 1
3752 4785 1
3753 13 1
3753 48 1
3753 939 1
3753 1632 1
3753 4957 1
3754 21 1
3754 475 1
3754 1669 1
3754 2796 1
3755 78 1
3755 139 1
3755 321 1
3755 393 1
3755 4611 1
3756 17 1
3756 251 1
3756 610 1
3756 2763 1
3757 3 1
3757 249 1
3757 1153 1
3757 2897 1
3757 3808 1
3757 4215 1
3757 4597 1
3758 44 1
3758 300 1
3758 607 1
3758 940 1
3759 92 1
3759 193 1
3759 2226 1
3759 2513 1
3760 19 1
3760 76 1
3760 2242 1
3760 3370 1
3761 58 1
3761 64 1
3761 575 1
3761 762 1
3762 177 1
3762 1075 1
3762 2078 1
3762 3508 1
3763 253 1
3763 1835 1
3763 3242 1
3763 3708 1
3763 4266 1
3764 4 1
3764 209 1
3764 492 1
3764 589 1
3765 268 1
3765 1642 1
3765 1964 1
3765 3006 1
3765 4379 1
3766 314 1
3766 315 1
3766 3217 1
3766 3230 1
3766 3846 1
3767 339 1
3767 388 1
3767 397 1
3767 1073 1
3767 4610 1
3768 542 1
3768 1883 1
3768 2357 1
3768 2727 1
3769 5 1
3769 599 1
3769 1934 1
3769 2827 1
3769 4901 1
3770 2 1
3770 283 1
3770 398 1
3770 631 1
3770 3858 1
3771 19 1
3771 437 1
3771 2780 1
3771 2899 1
3771 4291 1
3771 4736 1
3772 446 1
3772 552 1
3772 2005 1
3772 2063 1
3773 43 1
3773 47 1
3773 1521 1
3773 2995 1
3773 3802 1
3774 44 1
3774 63 1
3774 1522 1
3774 1833 1
3774 4069 1
3774 4911 1
3775 114 1
3775 834 1
3775 2782 1
3775 2973 1
3775 4260 1
3776 52 1
3776 155 1
3776 476 1
3776 1971 1
3777 93 1
3777 580 1
3777 916 1
3777 3568 1
3777 4226 1
3777 4924 1
3778 25 1
3778 556 1
3778 2150 1
3778 2916 1
3778 4437 1
3779 2359 1
3779 2817 1
3779 3275 1
3779 3450 1
3779 4896 1
3780 291 1
3780 348 1
3780 1216 1
3780 2374 1
3780 4044 1
3781 10 1
3781 732 1
3781 2018 1
3781 2040 1
3782 81 1
3782 426 1
3782 1592 1
3782 2324 1
3782 3940 1
3782 4496 1
3782 4583 1
3783 1025 1
3783 1075 1
3783 1121 1
3783 3447 1
3784 514 1
3784 1537 1
3784 2088 1
3784 3647 1
3785 5 1
3785 250 1
3785 275 1
3785 1967 1
3786 25 1
3786 33 1
3786 1502 1
3786 2646 1
3786 4695 1
3787 362 1
3787 548 1
3787 1211 1
3787 3228 1
3787 4156 1
3787 4322 1
3788 606 1
3788 1108 1
3788 1145 1
3788 1154 1
3788 4599 1
3789 20 1
3789 69 1
3789 604 1
3789 2218 1
3790 483 1
3790 899 1
3790 1736 1
3790 3548 1
3791 683 1
3791 1119 1
3791 2868 1
3791 3196 1
3792 80 1
3792 179 1
3792 194 1
3792 633 1
3793 53 1
3793 220 1
3793 1209 1
3793 2027 1
3794 25 1
3794 233 1
3794 386 1
3794 1132 1
3795 19 1
3795 81 1
3795 770 1
3795 872 1
3795 3965 1
3796 962 1
3796 1803 1
3796 2292 1
3796 2953 1
3796 4663 1
3796 4822 1
3797 431 1
3797 462 1
3797 2225 1
3797 3087 1
3798 355 1
3798 1337 1
3798 3506 1
3798 3633 1
3799 27 1
3799 357 1
3799 739 1
3799 2895 1
3800 66 1
3800 866 1
3800 2407 1
3800 2578 1
3801 30 1
3801 42 1
3801 309 1
3801 1340 1
3801 4166 1
3801 4186 1
3802 172 1
3802 1521 1
3802 1980 1
3802 3773 1
3803 211 1
3803 253 1
3803 784 1
3803 1692 1
3803 4475 1
3803 4563 1
3804 19 1
3804 743 1
3804 1724 1
3804 3043 1
3805 198 1
3805 906 1
3805 2764 1
3805 3317 1
3806 5 1
3806 269 1
3806 341 1
3806 1624 1
3807 9 1
3807 170 1
3807 272 1
3807 1068 1
3808 47 1
3808 109 1
3808 2897 1
3808 3757 1
3809 19 1
3809 98 1
3809 177 1
3809 847 1
3810 19 1
3810 121 1
3810 335 1
3810 3590 1
3811 90 1
3811 211 1
3811 817 1
3811 1625 1
3812 62 1
3812 274 1
3812 1625 1
3812 1919 1
3812 4283 1
3813 16 1
3813 198 1
3813 366 1
3813 1070 1
3814 537 1
3814 2541 1
3814 2691 1
3814 3555 1
3815 9 1
3815 991 1
3815 1484 1
3815 3339 1
3816 180 1
3816 2801 1
3816 2841 1
3816 2994 1
3816 4172 1
3816 4410 1
3817 44 1
3817 353 1
3817 1419 1
3817 1630 1
3817 4703 1
3818 201 1
3818 596 1
3818 919 1
3818 2844 1
3818 4463 1
3818 4847 1
3819 3 1
3819 1524 1
3819 1746 1
3819 3138 1
3820 301 1
3820 388 1
3820 405 1
3820 1204 1
3821 49 1
3821 596 1
3821 734 1
3821 1825 1
3821 4921 1
3822 18 1
3822 73 1
3822 588 1
3822 3526 1
3823 5 1
3823 371 1
3823 1637 1
3823 2206 1
3824 156 1
3824 436 1
3824 592 1
3824 857 1
3825 9 1
3825 366 1
3825 1619 1
3825 2628 1
3825 4688 1
3826 19 1
3826 481 1
3826 866 1
3826 1484 1
3827 646 1
3827 738 1
3827 1664 1
3827 3152 1
3828 464 1
3828 1229 1
3828 1438 1
3828 2221 1
3829 289 1
3829 804 1
3829 1181 1
3829 1912 1
3830 58 1
3830 542 1
3830 1284 1
3830 1961 1
3831 1 1
3831 1359 1
3831 1754 1
3831 1927 1
3832 5 1
3832 132 1
3832 509 1
3832 2003 1
3833 1078 1
3833 1451 1
3833 2596 1
3833 3567 1
3833 3947 1
3834 3 1
3834 1043 1
3834 1512 1
3834 1684 1
3834 4877 1
3835 146 1
3835 481 1
3835 2005 1
3835 3478 1
3835 4015 1
3835 4757 1
3836 406 1
3836 2123 1
3836 2250 1
3836 3713 1
3836 4333 1
3837 37 1
3837 41 1
3837 2671 1
3837 3737 1
3838 250 1
3838 342 1
3838 475 1
3838 1715 1
3839 103 1
3839 107 1
3839 380 1
3839 1605 1
3840 146 1
3840 1381 1
3840 1805 1
3840 3603 1
3841 5 1
3841 245 1
3841 1026 1
3841 1219 1
3842 399 1
3842 582 1
3842 1472 1
3842 2212 1
3842 4160 1
3843 2 1
3843 18 1
3843 21 1
3843 867 1
3844 457 1
3844 1045 1
3844 1739 1
3844 2783 1
3845 478 1
3845 1599 1
3845 1739 1
3845 2447 1
3846 177 1
3846 1063 1
3846 3230 1
3846 3766 1
3846 4023 1
3847 229 1
3847 1232 1
3847 2008 1
3847 3474 1
3847 4678 1
3848 138 1
3848 1137 1
3848 2522 1
3848 2992 1
3848 4726 1
3849 106 1
3849 125 1
3849 2200 1
3849 2692 1
3850 321 1
3850 500 1
3850 969 1
3850 2944 1
3851 66 1
3851 69 1
3851 2421 1
3851 3384 1
3852 79 1
3852 342 1
3852 1188 1
3852 1527 1
3852 4189 1
3853 44 1
3853 275 1
3853 452 1
3853 1122 1
3854 1444 1
3854 2101 1
3854 3489 1
3854 3748 1
3855 35 1
3855 134 1
3855 2729 1
3855 3521 1
3856 683 1
3856 1449 1
3856 3075 1
3856 3282 1
3857 12 1
3857 99 1
3857 106 1
3857 754 1
3858 2 1
3858 1521 1
3858 2755 1
3858 3770 1
3859 18 1
3859 89 1
3859 238 1
3859 2379 1
3859 4647 1
3860 90 1
3860 195 1
3860 1469 1
3860 1497 1
3861 1749 1
3861 2441 1
3861 3409 1
3861 3450 1
3861 3993 1
3862 66 1
3862 669 1
3862 2218 1
3862 2220 1
3862 4164 1
3863 453 1
3863 1226 1
3863 1275 1
3863 1976 1
3864 13 1
3864 779 1
3864 801 1
3864 1746 1
3865 2185 1
3865 2650 1
3865 2883 1
3865 3152 1
3865 3957 1
3865 4798 1
3866 393 1
3866 396 1
3866 1563 1
3866 1942 1
3866 3887 1
3866 4143 1
3866 4858 1
3866 4945 1
3867 27 1
3867 121 1
3867 1798 1
3867 3498 1
3867 3883 1
3868 17 1
3868 361 1
3868 2573 1
3868 3748 1
3869 416 1
3869 1016 1
3869 1389 1
3869 1469 1
3870 26 1
3870 738 1
3870 806 1
3870 1457 1
3871 872 1
3871 1226 1
3871 1616 1
3871 2536 1
3872 289 1
3872 625 1
3872 720 1
3872 2710 1
3872 4903 1
3873 22 1
3873 154 1
3873 1981 1
3873 2787 1
3873 4394 1
3873 4411 1
3873 4738 1
3874 121 1
3874 1377 1
3874 1716 1
3874 3665 1
3874 4517 1
3875 3 1
3875 2469 1
3875 2625 1
3875 2950 1
3875 4598 1
3876 233 1
3876 811 1
3876 931 1
3876 1232 1
3877 201 1
3877 1387 1
3877 1544 1
3877 2331 1
3878 212 1
3878 1475 1
3878 2061 1
3878 2070 1
3878 4331 1
3879 13 1
3879 197 1
3879 886 1
3879 2355 1
3880 175 1
3880 572 1
3880 769 1
3880 1654 1
3881 1463 1
3881 1740 1
3881 3399 1
3881 3490 1
3881 4375 1
3882 476 1
3882 1362 1
3882 1381 1
3882 3292 1
3882 4783 1
3882 4971 1
3883 101 1
3883 1356 1
3883 1386 1
3883 3867 1
3884 23 1
3884 329 1
3884 1625 1
3884 2523 1
3884 4157 1
3884 4556 1
3884 4963 1
3885 113 1
3885 206 1
3885 3081 1
3885 3115 1
3886 137 1
3886 230 1
3886 628 1
3886 633 1
3886 4720 1
3887 396 1
3887 1052 1
3887 1988 1
3887 3866 1
3888 1993 1
3888 1994 1
3888 2970 1
3888 3468 1
3889 50 1
3889 1621 1
3889 2762 1
3889 3696 1
3890 55 1
3890 101 1
3890 596 1
3890 2329 1
3891 392 1
3891 836 1
3891 1708 1
3891 2396 1
3891 4083 1
3892 252 1
3892 650 1
3892 2101 1
3892 3506 1
3893 475 1
3893 2319 1
3893 2364 1
3893 3083 1
3894 138 1
3894 193 1
3894 763 1
3894 1844 1
3895 172 1
3895 330 1
3895 2010 1
3895 2214 1
3895 4889 1
3896 1340 1
3896 2096 1
3896 2823 1
3896 3370 1
3896 4615 1
3897 125 1
3897 224 1
3897 884 1
3897 1786 1
3897 4788 1
3898 198 1
3898 1523 1
3898 1547 1
3898 1740 1
3899 323 1
3899 1242 1
3899 1719 1
3899 3238 1
3899 4582 1
3900 475 1
3900 676 1
3900 1056 1
3900 1728 1
3901 656 1
3901 690 1
3901 2835 1
3901 3157 1
3901 4340 1
3902 342 1
3902 450 1
3902 761 1
3902 2442 1
3903 610 1
3903 1178 1
3903 2922 1
3903 3381 1
3904 130 1
3904 221 1
3904 893 1
3904 3116 1
3905 434 1
3905 2045 1
3905 2227 1
3905 3251 1
3906 3 1
3906 81 1
3906 2918 1
3906 3235 1
3907 141 1
3907 932 1
3907 1604 1
3907 3633 1
3907 4479 1
3907 4529 1
3907 4729 1
3907 4973 1
3908 331 1
3908 1882 1
3908 1992 1
3908 2585 1
3908 4193 1
3909 583 1
3909 985 1
3909 1987 1
3909 2217 1
3909 4621 1
3910 93 1
3910 417 1
3910 3431 1
3910 3617 1
3910 4343 1
3911 2 1
3911 20 1
3911 396 1
3911 3396 1
3912 1622 1
3912 1795 1
3912 2568 1
3912 3266 1
3913 906 1
3913 952 1
3913 1433 1
3913 2042 1
3914 644 1
3914 2364 1
3914 2468 1
3914 3081 1
3914 4234 1
3915 19 1
3915 824 1
3915 1002 1
3915 3336 1
3916 89 1
3916 336 1
3916 346 1
3916 1183 1
3917 11 1
3917 24 1
3917 229 1
3917 839 1
3918 91 1
3918 145 1
3918 3131 1
3918 3506 1
3918 4091 1
3919 1110 1
3919 1316 1
3919 2197 1
3919 2347 1
3920 372 1
3920 412 1
3920 2122 1
3920 3204 1
3921 106 1
3921 1090 1
3921 2924 1
3921 2975 1
3921 4734 1
3922 385 1
3922 667 1
3922 1495 1
3922 2036 1
3923 2045 1
3923 2489 1
3923 2531 1
3923 2593 1
3923 4658 1
3924 219 1
3924 406 1
3924 1737 1
3924 1941 1
3924 4434 1
3925 51 1
3925 73 1
3925 147 1
3925 2287 1
3925 4548 1
3926 812 1
3926 872 1
3926 1922 1
3926 2738 1
3927 1363 1
3927 2154 1
3927 3232 1
3927 3589 1
3928 113 1
3928 489 1
3928 1524 1
3928 1796 1
3929 467 1
3929 470 1
3929 953 1
3929 3171 1
3930 254 1
3930 380 1
3930 658 1
3930 3670 1
3931 25 1
3931 33 1
3931 298 1
3931 818 1
3932 84 1
3932 97 1
3932 305 1
3932 2068 1
3933 647 1
3933 2926 1
3933 3411 1
3933 3582 1
3934 987 1
3934 1289 1
3934 2129 1
3934 2794 1
3935 108 1
3935 148 1
3935 1099 1
3935 2633 1
3936 244 1
3936 373 1
3936 874 1
3936 2026 1
3937 152 1
3937 969 1
3937 1495 1
3937 2997 1
3938 13 1
3938 899 1
3938 1065 1
3938 3701 1
3939 283 1
3939 409 1
3939 917 1
3939 972 1
3939 4043 1
3939 4704 1
3940 894 1
3940 954 1
3940 1428 1
3940 3782 1
3941 173 1
3941 1140 1
3941 2511 1
3941 2969 1
3942 2 1
3942 1520 1
3942 2908 1
3942 3328 1
3942 4152 1
3943 52 1
3943 537 1
3943 863 1
3943 877 1
3944 275 1
3944 732 1
3944 2439 1
3944 3720 1
3945 173 1
3945 2587 1
3945 3038 1
3945 3739 1
3945 4422 1
3946 26 1
3946 278 1
3946 1074 1
3946 3312 1
3947 3 1
3947 1932 1
3947 2805 1
3947 3833 1
3948 459 1
3948 1495 1
3948 1650 1
3948 3604 1
3948 4419 1
3949 314 1
3949 1413 1
3949 1443 1
3949 1900 1
3949 4098 1
3950 316 1
3950 354 1
3950 524 1
3950 794 1
3950 4166 1
3951 20 1
3951 1453 1
3951 2167 1
3951 3119 1
3952 601 1
3952 1204 1
3952 1869 1
3952 2290 1
3953 106 1
3953 283 1
3953 1308 1
3953 3749 1
3954 194 1
3954 1614 1
3954 3186 1
3954 3530 1
3955 114 1
3955 115 1
3955 443 1
3955 3149 1
3955 4919 1
3956 2 1
3956 2164 1
3956 2419 1
3956 2943 1
3956 4848 1
3957 298 1
3957 2650 1
3957 2937 1
3957 3865 1
3957 4225 1
3957 4652 1
3958 30 1
3958 89 1
3958 186 1
3958 2526 1
3959 17 1
3959 476 1
3959 2242 1
3959 2969 1
3959 4056 1
3960 91 1
3960 785 1
3960 1187 1
3960 2894 1
3961 29 1
3961 55 1
3961 197 1
3961 260 1
3962 70 1
3962 1883 1
3962 2727 1
3962 3126 1
3963 1 1
3963 270 1
3963 1381 1
3963 3542 1
3964 466 1
3964 625 1
3964 1249 1
3964 2535 1
3965 770 1
3965 798 1
3965 1625 1
3965 3795 1
3966 1283 1
3966 2844 1
3966 3307 1
3966 3385 1
3966 4427 1
3967 578 1
3967 1767 1
3967 2400 1
3967 2504 1
3968 10 1
3968 215 1
3968 483 1
3968 703 1
3969 217 1
3969 370 1
3969 601 1
3969 2806 1
3969 3983 1
3969 4777 1
3969 4808 1
3970 109 1
3970 186 1
3970 1730 1
3970 2897 1
3970 4962 1
3971 209 1
3971 2174 1
3971 2417 1
3971 2737 1
3972 290 1
3972 1218 1
3972 2718 1
3972 3187 1
3973 75 1
3973 105 1
3973 2002 1
3973 3712 1
3974 20 1
3974 482 1
3974 571 1
3974 2702 1
3975 190 1
3975 468 1
3975 497 1
3975 660 1
3976 107 1
3976 1157 1
3976 1689 1
3976 1921 1
3977 2 1
3977 761 1
3977 1443 1
3977 1912 1
3977 4028 1
3978 100 1
3978 130 1
3978 530 1
3978 1500 1
3978 4092 1
3978 4266 1
3979 90 1
3979 494 1
3979 976 1
3979 3692 1
3979 4076 1
3980 361 1
3980 655 1
3980 660 1
3980 3139 1
3980 4217 1
3981 305 1
3981 1226 1
3981 2319 1
3981 2839 1
3981 4445 1
3982 11 1
3982 13 1
3982 18 1
3982 420 1
3982 4007 1
3983 126 1
3983 217 1
3983 1108 1
3983 3969 1
3984 2 1
3984 1971 1
3984 2720 1
3984 3539 1
3985 229 1
3985 1662 1
3985 1666 1
3985 2792 1
3985 4771 1
3986 57 1
3986 68 1
3986 586 1
3986 969 1
3987 5 1
3987 264 1
3987 958 1
3987 1289 1
3988 1 1
3988 293 1
3988 2345 1
3988 2922 1
3988 4036 1
3989 153 1
3989 1625 1
3989 2994 1
3989 3227 1
3990 785 1
3990 2698 1
3990 2975 1
3990 3114 1
3990 4629 1
3991 11 1
3991 1200 1
3991 2523 1
3991 2585 1
3992 2 1
3992 49 1
3992 563 1
3992 2233 1
3993 459 1
3993 2986 1
3993 3013 1
3993 3861 1
3993 4472 1
3994 2 1
3994 407 1
3994 1111 1
3994 1986 1
3995 58 1
3995 139 1
3995 966 1
3995 3074 1
3996 305 1
3996 1515 1
3996 2198 1
3996 2582 1
3996 4445 1
3996 4828 1
3997 1313 1
3997 1516 1
3997 2219 1
3997 2429 1
3998 787 1
3998 2147 1
3998 2190 1
3998 3463 1
3999 17 1
3999 954 1
3999 2140 1
3999 3747 1
4000 49 1
4000 745 1
4000 1836 1
4000 2114 1
4001 27 1
4001 36 1
4001 651 1
4001 2744 1
4002 1050 1
4002 1081 1
4002 2026 1
4002 3654 1
4003 18 1
4003 66 1
4003 211 1
4003 1467 1
4004 221 1
4004 780 1
4004 1039 1
4004 2936 1
4005 753 1
4005 1205 1
4005 2237 1
4005 2485 1
4005 4966 1
4006 2 1
4006 74 1
4006 262 1
4006 3693 1
4006 4161 1
4007 11 1
4007 62 1
4007 1619 1
4007 3982 1
4008 274 1
4008 2219 1
4008 3526 1
4008 3647 1
4009 233 1
4009 463 1
4009 2409 1
4009 3418 1
4009 4866 1
4010 941 1
4010 1366 1
4010 2907 1
4010 3314 1
4010 4362 1
4010 4999 1
4011 252 1
4011 501 1
4011 1002 1
4011 1435 1
4012 898 1
4012 947 1
4012 1506 1
4012 2990 1
4013 188 1
4013 365 1
4013 906 1
4013 2553 1
4013 4630 1
4014 38 1
4014 1337 1
4014 2290 1
4014 2553 1
4015 342 1
4015 687 1
4015 3201 1
4015 3835 1
4016 17 1
4016 49 1
4016 192 1
4016 2177 1
4017 45 1
4017 101 1
4017 1047 1
4017 1809 1
4017 4802 1
4018 288 1
4018 363 1
4018 394 1
4018 2695 1
4018 4422 1
4018 4536 1
4019 1 1
4019 1228 1
4019 2668 1
4019 2889 1
4020 184 1
4020 208 1
4020 1054 1
4020 2148 1
4021 35 1
4021 1519 1
4021 2797 1
4021 3374 1
4021 4310 1
4021 4756 1
4022 246 1
4022 1551 1
4022 2619 1
4022 3696 1
4022 4055 1
4022 4966 1
4023 537 1
4023 1627 1
4023 3091 1
4023 3846 1
4024 1328 1
4024 1766 1
4024 2130 1
4024 2739 1
4025 11 1
4025 107 1
4025 2497 1
4025 2631 1
4026 209 1
4026 222 1
4026 1492 1
4026 1794 1
4026 4352 1
4027 5 1
4027 403 1
4027 533 1
4027 2674 1
4028 922 1
4028 1256 1
4028 3698 1
4028 3977 1
4028 4041 1
4029 29 1
4029 362 1
4029 582 1
4029 1417 1
4030 43 1
4030 66 1
4030 949 1
4030 1300 1
4030 4933 1
4031 50 1
4031 1824 1
4031 1875 1
4031 3381 1
4032 19 1
4032 623 1
4032 2355 1
4032 3310 1
4033 57 1
4033 421 1
4033 905 1
4033 1797 1
4034 175 1
4034 386 1
4034 2621 1
4034 3403 1
4034 4761 1
4035 347 1
4035 387 1
4035 413 1
4035 2044 1
4036 67 1
4036 646 1
4036 2940 1
4036 3988 1
4037 370 1
4037 375 1
4037 609 1
4037 2118 1
4037 4062 1
4037 4956 1
4038 92 1
4038 1077 1
4038 1940 1
4038 3046 1
4039 482 1
4039 906 1
4039 985 1
4039 1270 1
4039 4079 1
4040 844 1
4040 1196 1
4040 2741 1
4040 3183 1
4041 1256 1
4041 1721 1
4041 1987 1
4041 4028 1
4041 4415 1
4042 380 1
4042 606 1
4042 1145 1
4042 1154 1
4043 211 1
4043 2020 1
4043 3507 1
4043 3939 1
4044 296 1
4044 805 1
4044 2315 1
4044 3780 1
4044 4895 1
4045 115 1
4045 218 1
4045 740 1
4045 2709 1
4045 4619 1
4046 73 1
4046 582 1
4046 2106 1
4046 3069 1
4046 4350 1
4046 4452 1
4046 4772 1
4047 21 1
4047 324 1
4047 1602 1
4047 3433 1
4048 202 1
4048 530 1
4048 2353 1
4048 3661 1
4049 453 1
4049 1419 1
4049 2834 1
4049 3278 1
4050 19 1
4050 1029 1
4050 1326 1
4050 1766 1
4051 463 1
4051 2346 1
4051 2986 1
4051 3737 1
4051 4877 1
4052 80 1
4052 554 1
4052 654 1
4052 746 1
4053 3 1
4053 641 1
4053 856 1
4053 2079 1
4054 811 1
4054 1488 1
4054 1498 1
4054 2799 1
4055 19 1
4055 500 1
4055 737 1
4055 4022 1
4056 1521 1
4056 2068 1
4056 2943 1
4056 3959 1
4057 5 1
4057 36 1
4057 90 1
4057 572 1
4057 4374 1
4058 1 1
4058 466 1
4058 2623 1
4058 3191 1
4059 672 1
4059 1755 1
4059 2480 1
4059 3013 1
4060 317 1
4060 759 1
4060 1706 1
4060 2758 1
4061 2 1
4061 696 1
4061 2818 1
4061 3522 1
4062 609 1
4062 797 1
4062 986 1
4062 4037 1
4062 4956 1
4063 1314 1
4063 1526 1
4063 2385 1
4063 2444 1
4064 1 1
4064 441 1
4064 797 1
4064 2778 1
4065 10 1
4065 380 1
4065 385 1
4065 1445 1
4065 4380 1
4066 265 1
4066 993 1
4066 1413 1
4066 1558 1
4067 463 1
4067 773 1
4067 906 1
4067 1526 1
4068 189 1
4068 1069 1
4068 1342 1
4068 1554 1
4069 239 1
4069 517 1
4069 3299 1
4069 3774 1
4070 19 1
4070 41 1
4070 164 1
4070 289 1
4070 4676 1
4071 169 1
4071 1227 1
4071 1273 1
4071 2311 1
4072 485 1
4072 1009 1
4072 2724 1
4072 3020 1
4072 4293 1
4072 4357 1
4072 4360 1
4072 4589 1
4073 25 1
4073 1310 1
4073 3022 1
4073 3400 1
4073 4117 1
4073 4903 1
4074 5 1
4074 1210 1
4074 1995 1
4074 2019 1
4075 105 1
4075 505 1
4075 2942 1
4075 2980 1
4076 139 1
4076 222 1
4076 617 1
4076 3979 1
4077 282 1
4077 609 1
4077 828 1
4077 3710 1
4078 405 1
4078 1817 1
4078 2769 1
4078 2966 1
4079 12 1
4079 1858 1
4079 3306 1
4079 4039 1
4080 17 1
4080 105 1
4080 425 1
4080 3606 1
4081 11 1
4081 102 1
4081 2188 1
4081 2363 1
4082 213 1
4082 422 1
4082 1809 1
4082 2801 1
4083 25 1
4083 2148 1
4083 3545 1
4083 3891 1
4083 4675 1
4084 53 1
4084 85 1
4084 174 1
4084 306 1
4085 50 1
4085 132 1
4085 206 1
4085 326 1
4086 817 1
4086 849 1
4086 989 1
4086 1172 1
4087 234 1
4087 506 1
4087 1853 1
4087 2746 1
4087 4871 1
4088 82 1
4088 2086 1
4088 2706 1
4088 2796 1
4089 35 1
4089 615 1
4089 1267 1
4089 1590 1
4090 129 1
4090 732 1
4090 1145 1
4090 3747 1
4091 83 1
4091 952 1
4091 2665 1
4091 3918 1
4091 4683 1
4092 21 1
4092 2225 1
4092 2411 1
4092 3978 1
4093 4 1
4093 23 1
4093 81 1
4093 2282 1
4094 25 1
4094 77 1
4094 1826 1
4094 3279 1
4094 4263 1
4095 596 1
4095 2507 1
4095 2591 1
4095 2790 1
4096 172 1
4096 637 1
4096 1706 1
4096 2837 1
4097 41 1
4097 222 1
4097 699 1
4097 788 1
4098 1413 1
4098 1900 1
4098 3165 1
4098 3949 1
4099 1 1
4099 21 1
4099 1073 1
4099 1936 1
4100 57 1
4100 361 1
4100 397 1
4100 3563 1
4101 6 1
4101 211 1
4101 1716 1
4101 3679 1
4102 11 1
4102 551 1
4102 666 1
4102 796 1
4103 1557 1
4103 2012 1
4103 3014 1
4103 3665 1
4103 4793 1
4104 399 1
4104 1045 1
4104 1733 1
4104 2124 1
4105 19 1
4105 75 1
4105 982 1
4105 1336 1
4106 122 1
4106 2794 1
4106 3321 1
4106 3392 1
4106 4752 1
4107 45 1
4107 348 1
4107 1014 1
4107 2792 1
4108 2 1
4108 49 1
4108 2018 1
4108 3183 1
4109 17 1
4109 925 1
4109 1986 1
4109 3042 1
4110 361 1
4110 1865 1
4110 2281 1
4110 2912 1
4110 4305 1
4111 52 1
4111 122 1
4111 182 1
4111 538 1
4112 90 1
4112 237 1
4112 625 1
4112 2535 1
4113 5 1
4113 316 1
4113 329 1
4113 668 1
4114 703 1
4114 1762 1
4114 1777 1
4114 1817 1
4114 4150 1
4114 4328 1
4115 62 1
4115 212 1
4115 482 1
4115 1617 1
4116 505 1
4116 574 1
4116 1316 1
4116 2197 1
4116 4162 1
4117 1109 1
4117 1489 1
4117 3434 1
4117 4073 1
4117 4527 1
4117 4824 1
4118 11 1
4118 13 1
4118 970 1
4118 1046 1
4118 4262 1
4118 4413 1
4119 13 1
4119 81 1
4119 1764 1
4119 2753 1
4120 141 1
4120 931 1
4120 3527 1
4120 3658 1
4120 4596 1
4121 743 1
4121 1724 1
4121 2286 1
4121 3395 1
4121 4404 1
4122 215 1
4122 379 1
4122 964 1
4122 2697 1
4122 4144 1
4123 582 1
4123 652 1
4123 886 1
4123 1050 1
4124 105 1
4124 154 1
4124 2059 1
4124 3699 1
4125 1628 1
4125 1831 1
4125 1874 1
4125 2363 1
4126 542 1
4126 648 1
4126 1375 1
4126 3337 1
4127 361 1
4127 634 1
4127 874 1
4127 1675 1
4127 4619 1
4128 25 1
4128 91 1
4128 262 1
4128 1315 1
4128 4165 1
4129 92 1
4129 1123 1
4129 1342 1
4129 2026 1
4130 147 1
4130 586 1
4130 590 1
4130 1157 1
4131 356 1
4131 731 1
4131 761 1
4131 1552 1
4132 412 1
4132 1107 1
4132 2052 1
4132 3342 1
4132 4406 1
4133 18 1
4133 218 1
4133 450 1
4133 1112 1
4134 57 1
4134 1246 1
4134 2368 1
4134 3522 1
4135 1690 1
4135 2129 1
4135 2410 1
4135 2787 1
4135 4351 1
4136 97 1
4136 214 1
4136 1178 1
4136 1637 1
4137 35 1
4137 49 1
4137 2374 1
4137 3436 1
4138 475 1
4138 753 1
4138 1475 1
4138 2616 1
4139 55 1
4139 162 1
4139 176 1
4139 2247 1
4140 2 1
4140 685 1
4140 1537 1
4140 2629 1
4141 298 1
4141 611 1
4141 1062 1
4141 1197 1
4141 4372 1
4141 4401 1
4142 41 1
4142 275 1
4142 1803 1
4142 2292 1
4142 4563 1
4143 2174 1
4143 2289 1
4143 2581 1
4143 3866 1
4143 4858 1
4144 830 1
4144 1838 1
4144 2438 1
4144 4122 1
4145 66 1
4145 681 1
4145 1790 1
4145 2355 1
4146 306 1
4146 2308 1
4146 2913 1
4146 3140 1
4147 73 1
4147 817 1
4147 2534 1
4147 2897 1
4148 99 1
4148 105 1
4148 1618 1
4148 2538 1
4149 10 1
4149 314 1
4149 517 1
4149 1380 1
4150 914 1
4150 1762 1
4150 3041 1
4150 4114 1
4151 58 1
4151 740 1
4151 2964 1
4151 3715 1
4151 4839 1
4152 113 1
4152 2225 1
4152 2338 1
4152 3942 1
4153 100 1
4153 1077 1
4153 1254 1
4153 2706 1
4154 193 1
4154 250 1
4154 1617 1
4154 2027 1
4155 91 1
4155 1050 1
4155 2810 1
4155 3070 1
4156 147 1
4156 548 1
4156 3228 1
4156 3787 1
4157 23 1
4157 2481 1
4157 2758 1
4157 3884 1
4158 3 1
4158 22 1
4158 29 1
4158 526 1
4159 137 1
4159 198 1
4159 1990 1
4159 3137 1
4160 298 1
4160 554 1
4160 582 1
4160 3842 1
4161 2 1
4161 2041 1
4161 2430 1
4161 4006 1
4162 1015 1
4162 2932 1
4162 3571 1
4162 4116 1
4163 755 1
4163 3172 1
4163 3642 1
4163 3645 1
4163 4959 1
4164 306 1
4164 506 1
4164 1722 1
4164 3862 1
4165 6 1
4165 233 1
4165 2377 1
4165 4128 1
4166 254 1
4166 524 1
4166 3801 1
4166 3950 1
4167 28 1
4167 361 1
4167 2199 1
4167 2361 1
4168 113 1
4168 193 1
4168 722 1
4168 2900 1
4169 26 1
4169 316 1
4169 345 1
4169 671 1
4170 300 1
4170 506 1
4170 1971 1
4170 3112 1
4170 4639 1
4171 382 1
4171 1450 1
4171 2220 1
4171 2538 1
4171 4255 1
4171 4997 1
4172 77 1
4172 142 1
4172 442 1
4172 3816 1
4173 51 1
4173 2015 1
4173 3401 1
4173 3542 1
4174 2 1
4174 1074 1
4174 1254 1
4174 1403 1
4175 3 1
4175 166 1
4175 614 1
4175 1116 1
4176 137 1
4176 241 1
4176 1612 1
4176 2567 1
4177 163 1
4177 347 1
4177 1532 1
4177 3361 1
4178 244 1
4178 1511 1
4178 2206 1
4178 2868 1
4179 36 1
4179 251 1
4179 370 1
4179 3078 1
4180 19 1
4180 1426 1
4180 1460 1
4180 2505 1
4181 52 1
4181 2091 1
4181 2349 1
4181 2378 1
4182 332 1
4182 430 1
4182 609 1
4182 1069 1
4183 91 1
4183 1126 1
4183 2768 1
4183 3661 1
4184 267 1
4184 769 1
4184 1021 1
4184 3710 1
4185 553 1
4185 676 1
4185 1537 1
4185 2476 1
4186 2 1
4186 110 1
4186 3583 1
4186 3801 1
4186 4657 1
4187 173 1
4187 737 1
4187 1427 1
4187 2225 1
4188 10 1
4188 597 1
4188 949 1
4188 1074 1
4189 486 1
4189 648 1
4189 991 1
4189 3852 1
4189 4615 1
4190 27 1
4190 89 1
4190 99 1
4190 2850 1
4191 130 1
4191 292 1
4191 389 1
4191 2954 1
4192 1 1
4192 501 1
4192 2458 1
4192 3179 1
4193 170 1
4193 345 1
4193 404 1
4193 3908 1
4194 497 1
4194 1762 1
4194 1923 1
4194 3445 1
4195 3 1
4195 10 1
4195 375 1
4195 3642 1
4195 4545 1
4195 4597 1
4195 4686 1
4196 601 1
4196 2073 1
4196 3196 1
4196 3528 1
4197 11 1
4197 106 1
4197 2585 1
4197 2858 1
4197 4370 1
4198 1047 1
4198 2026 1
4198 2917 1
4198 3251 1
4198 4945 1
4199 298 1
4199 1377 1
4199 2282 1
4199 2586 1
4199 4630 1
4200 81 1
4200 681 1
4200 971 1
4200 2156 1
4201 3 1
4201 127 1
4201 635 1
4201 3289 1
4201 4809 1
4202 140 1
4202 2002 1
4202 2537 1
4202 2626 1
4203 290 1
4203 613 1
4203 667 1
4203 2297 1
4204 965 1
4204 1178 1
4204 3378 1
4204 3385 1
4204 4681 1
4205 52 1
4205 131 1
4205 2165 1
4205 3201 1
4206 2 1
4206 234 1
4206 1695 1
4206 2574 1
4207 13 1
4207 44 1
4207 1122 1
4207 3285 1
4208 10 1
4208 348 1
4208 499 1
4208 3698 1
4209 124 1
4209 235 1
4209 1676 1
4209 2356 1
4210 357 1
4210 370 1
4210 1340 1
4210 2367 1
4211 346 1
4211 399 1
4211 2556 1
4211 3524 1
4212 29 1
4212 54 1
4212 1837 1
4212 2555 1
4213 130 1
4213 470 1
4213 1985 1
4213 3466 1
4214 2 1
4214 17 1
4214 154 1
4214 398 1
4214 4848 1
4215 844 1
4215 1549 1
4215 2549 1
4215 3757 1
4216 548 1
4216 1676 1
4216 1774 1
4216 2356 1
4217 779 1
4217 3139 1
4217 3356 1
4217 3980 1
4218 251 1
4218 2588 1
4218 2796 1
4218 3641 1
4219 33 1
4219 1628 1
4219 2761 1
4219 3710 1
4220 4 1
4220 92 1
4220 242 1
4220 3588 1
4220 4361 1
4221 2 1
4221 12 1
4221 3053 1
4221 3414 1
4222 71 1
4222 125 1
4222 1226 1
4222 3483 1
4223 562 1
4223 2494 1
4223 3182 1
4223 3708 1
4223 4412 1
4224 92 1
4224 481 1
4224 1112 1
4224 3596 1
4225 1047 1
4225 2212 1
4225 2650 1
4225 3957 1
4226 3 1
4226 380 1
4226 2259 1
4226 3777 1
4227 36 1
4227 429 1
4227 3188 1
4227 3725 1
4228 121 1
4228 298 1
4228 806 1
4228 1074 1
4229 81 1
4229 189 1
4229 1640 1
4229 3048 1
4229 4287 1
4230 139 1
4230 3062 1
4230 3130 1
4230 3165 1
4231 11 1
4231 1306 1
4231 2033 1
4231 3594 1
4232 922 1
4232 1746 1
4232 2075 1
4232 2786 1
4233 376 1
4233 1531 1
4233 2147 1
4233 3590 1
4234 9 1
4234 644 1
4234 1807 1
4234 3914 1
4235 3 1
4235 763 1
4235 1086 1
4235 2918 1
4236 313 1
4236 898 1
4236 1300 1
4236 2521 1
4237 3 1
4237 879 1
4237 2318 1
4237 2472 1
4238 169 1
4238 1450 1
4238 1569 1
4238 3732 1
4239 514 1
4239 836 1
4239 1070 1
4239 2846 1
4240 105 1
4240 245 1
4240 253 1
4240 508 1
4241 444 1
4241 673 1
4241 1986 1
4241 2861 1
4241 4288 1
4242 125 1
4242 138 1
4242 381 1
4242 2691 1
4243 114 1
4243 387 1
4243 511 1
4243 1030 1
4244 42 1
4244 923 1
4244 939 1
4244 1257 1
4245 333 1
4245 2315 1
4245 2692 1
4245 3036 1
4246 465 1
4246 826 1
4246 1982 1
4246 3253 1
4247 90 1
4247 307 1
4247 3692 1
4247 3730 1
4248 3 1
4248 188 1
4248 845 1
4248 2668 1
4249 1 1
4249 113 1
4249 1587 1
4249 3354 1
4249 4846 1
4250 5 1
4250 194 1
4250 1979 1
4250 3744 1
4251 19 1
4251 33 1
4251 1492 1
4251 2171 1
4252 3 1
4252 22 1
4252 1290 1
4252 3630 1
4252 4289 1
4253 9 1
4253 51 1
4253 318 1
4253 2671 1
4254 1683 1
4254 1795 1
4254 1977 1
4254 3549 1
4255 456 1
4255 1257 1
4255 3111 1
4255 4171 1
4255 4997 1
4256 33 1
4256 1043 1
4256 1221 1
4256 3178 1
4257 566 1
4257 1353 1
4257 2922 1
4257 3146 1
4257 4719 1
4258 52 1
4258 2129 1
4258 2410 1
4258 2857 1
4258 4538 1
4259 52 1
4259 221 1
4259 625 1
4259 2173 1
4260 322 1
4260 2782 1
4260 3598 1
4260 3775 1
4261 53 1
4261 70 1
4261 1737 1
4261 1935 1
4262 87 1
4262 2789 1
4262 3645 1
4262 4118 1
4263 481 1
4263 1826 1
4263 3292 1
4263 4094 1
4264 29 1
4264 596 1
4264 2687 1
4264 3109 1
4265 187 1
4265 431 1
4265 2497 1
4265 3191 1
4266 898 1
4266 2990 1
4266 3763 1
4266 3978 1
4267 313 1
4267 332 1
4267 1003 1
4267 1710 1
4268 41 1
4268 347 1
4268 803 1
4268 2119 1
4268 4672 1
4269 307 1
4269 605 1
4269 908 1
4269 1523 1
4270 491 1
4270 1315 1
4270 1961 1
4270 2083 1
4271 76 1
4271 801 1
4271 1327 1
4271 2165 1
4271 4330 1
4272 5 1
4272 875 1
4272 3381 1
4272 3508 1
4273 169 1
4273 172 1
4273 270 1
4273 1370 1
4274 13 1
4274 273 1
4274 759 1
4274 1380 1
4275 2 1
4275 3 1
4275 884 1
4275 2066 1
4276 26 1
4276 171 1
4276 883 1
4276 1329 1
4276 4746 1
4277 1 1
4277 859 1
4277 1642 1
4277 3393 1
4277 4407 1
4278 14 1
4278 204 1
4278 2018 1
4278 2606 1
4279 9 1
4279 43 1
4279 122 1
4279 997 1
4280 75 1
4280 82 1
4280 1745 1
4280 2829 1
4281 588 1
4281 911 1
4281 1301 1
4281 2257 1
4282 131 1
4282 708 1
4282 2238 1
4282 2884 1
4283 19 1
4283 75 1
4283 101 1
4283 3812 1
4284 115 1
4284 1186 1
4284 1437 1
4284 2977 1
4285 3 1
4285 401 1
4285 753 1
4285 3414 1
4286 19 1
4286 153 1
4286 1498 1
4286 2277 1
4287 987 1
4287 1118 1
4287 1270 1
4287 4229 1
4288 2 1
4288 320 1
4288 781 1
4288 4241 1
4289 122 1
4289 2412 1
4289 3317 1
4289 4252 1
4289 4890 1
4289 4953 1
4290 2 1
4290 1587 1
4290 2345 1
4290 2881 1
4290 4423 1
4291 142 1
4291 2018 1
4291 3541 1
4291 3771 1
4292 628 1
4292 1086 1
4292 1194 1
4292 2648 1
4293 1489 1
4293 1525 1
4293 2613 1
4293 4072 1
4293 4527 1
4294 3 1
4294 204 1
4294 642 1
4294 3210 1
4295 418 1
4295 618 1
4295 1011 1
4295 1418 1
4296 120 1
4296 644 1
4296 697 1
4296 1804 1
4297 3 1
4297 579 1
4297 2217 1
4297 2602 1
4298 82 1
4298 89 1
4298 892 1
4298 1544 1
4299 3 1
4299 24 1
4299 38 1
4299 1967 1
4299 4411 1
4299 4662 1
4300 25 1
4300 314 1
4300 875 1
4300 1297 1
4301 706 1
4301 737 1
4301 2140 1
4301 2302 1
4301 4775 1
4302 37 1
4302 81 1
4302 471 1
4302 505 1
4303 3 1
4303 134 1
4303 3417 1
4303 3473 1
4303 4347 1
4304 363 1
4304 817 1
4304 1507 1
4304 2217 1
4305 355 1
4305 361 1
4305 873 1
4305 4110 1
4306 18 1
4306 139 1
4306 1553 1
4306 1665 1
4307 738 1
4307 951 1
4307 2817 1
4307 3450 1
4308 10 1
4308 16 1
4308 58 1
4308 1785 1
4308 4661 1
4308 4958 1
4309 49 1
4309 947 1
4309 2962 1
4309 3660 1
4310 663 1
4310 2515 1
4310 2819 1
4310 4021 1
4311 2 1
4311 3 1
4311 582 1
4311 1618 1
4311 4920 1
4312 139 1
4312 653 1
4312 810 1
4312 2548 1
4313 12 1
4313 177 1
4313 2669 1
4313 3306 1
4314 4 1
4314 111 1
4314 2687 1
4314 3218 1
4315 270 1
4315 1370 1
4315 2566 1
4315 3448 1
4316 14 1
4316 123 1
4316 426 1
4316 1952 1
4317 217 1
4317 1523 1
4317 1833 1
4317 3118 1
4318 35 1
4318 130 1
4318 841 1
4318 996 1
4319 74 1
4319 927 1
4319 2010 1
4319 2508 1
4320 9 1
4320 11 1
4320 995 1
4320 1264 1
4321 49 1
4321 562 1
4321 761 1
4321 2408 1
4322 418 1
4322 2938 1
4322 3532 1
4322 3787 1
4323 201 1
4323 449 1
4323 807 1
4323 3382 1
4324 3 1
4324 58 1
4324 132 1
4324 278 1
4325 13 1
4325 906 1
4325 938 1
4325 2732 1
4326 59 1
4326 89 1
4326 139 1
4326 3370 1
4327 87 1
4327 259 1
4327 1835 1
4327 3407 1
4328 1762 1
4328 2793 1
4328 3041 1
4328 4114 1
4329 681 1
4329 971 1
4329 1723 1
4329 2027 1
4329 4439 1
4330 155 1
4330 603 1
4330 1572 1
4330 4271 1
4330 4453 1
4331 29 1
4331 212 1
4331 3311 1
4331 3878 1
4331 4802 1
4332 245 1
4332 1526 1
4332 2163 1
4332 3564 1
4333 387 1
4333 578 1
4333 2250 1
4333 3836 1
4334 37 1
4334 411 1
4334 1167 1
4334 2919 1
4335 125 1
4335 174 1
4335 1670 1
4335 2008 1
4335 4618 1
4336 29 1
4336 523 1
4336 899 1
4336 3010 1
4337 266 1
4337 412 1
4337 2081 1
4337 3596 1
4337 4642 1
4338 17 1
4338 153 1
4338 733 1
4338 953 1
4339 176 1
4339 627 1
4339 2370 1
4339 2765 1
4340 1500 1
4340 2994 1
4340 3157 1
4340 3901 1
4341 177 1
4341 839 1
4341 1381 1
4341 2038 1
4342 35 1
4342 311 1
4342 2023 1
4342 3149 1
4343 139 1
4343 1663 1
4343 2108 1
4343 3910 1
4344 954 1
4344 1068 1
4344 2209 1
4344 2796 1
4345 12 1
4345 403 1
4345 1260 1
4345 3023 1
4346 11 1
4346 91 1
4346 1265 1
4346 2302 1
4347 134 1
4347 576 1
4347 1879 1
4347 4303 1
4348 341 1
4348 693 1
4348 2017 1
4348 2924 1
4349 13 1
4349 220 1
4349 2554 1
4349 3009 1
4350 41 1
4350 582 1
4350 2852 1
4350 4046 1
4350 4380 1
4351 1565 1
4351 1809 1
4351 2410 1
4351 4135 1
4352 222 1
4352 1492 1
4352 1794 1
4352 4026 1
4353 212 1
4353 489 1
4353 1613 1
4353 2993 1
4354 10 1
4354 248 1
4354 529 1
4354 2235 1
4355 1310 1
4355 1621 1
4355 2579 1
4355 3072 1
4356 39 1
4356 139 1
4356 1622 1
4356 2172 1
4356 4460 1
4356 4655 1
4356 4767 1
4356 4940 1
4357 91 1
4357 457 1
4357 1457 1
4357 4072 1
4357 4360 1
4358 25 1
4358 474 1
4358 1563 1
4358 3029 1
4359 4 1
4359 17 1
4359 234 1
4359 3362 1
4360 16 1
4360 1078 1
4360 4072 1
4360 4357 1
4361 92 1
4361 278 1
4361 291 1
4361 4220 1
4361 4382 1
4362 700 1
4362 1273 1
4362 2907 1
4362 4010 1
4363 179 1
4363 1957 1
4363 2072 1
4363 2325 1
4364 113 1
4364 140 1
4364 1259 1
4364 2759 1
4364 4567 1
4365 91 1
4365 1417 1
4365 1730 1
4365 2532 1
4366 41 1
4366 389 1
4366 1133 1
4366 3624 1
4367 25 1
4367 113 1
4367 1571 1
4367 2148 1
4368 2 1
4368 341 1
4368 1286 1
4368 1991 1
4369 16 1
4369 400 1
4369 1610 1
4369 2989 1
4369 4864 1
4370 10 1
4370 656 1
4370 3250 1
4370 4197 1
4370 4853 1
4370 4951 1
4371 517 1
4371 828 1
4371 1195 1
4371 1956 1
4371 4493 1
4372 611 1
4372 1979 1
4372 2240 1
4372 4141 1
4373 25 1
4373 61 1
4373 2143 1
4373 2478 1
4374 5 1
4374 36 1
4374 572 1
4374 4057 1
4375 689 1
4375 1094 1
4375 1977 1
4375 3881 1
4376 19 1
4376 26 1
4376 1151 1
4376 1501 1
4377 4 1
4377 10 1
4377 44 1
4377 105 1
4377 4415 1
4378 66 1
4378 219 1
4378 579 1
4378 2407 1
4378 4551 1
4379 430 1
4379 2199 1
4379 3477 1
4379 3765 1
4379 4850 1
4380 154 1
4380 385 1
4380 4065 1
4380 4350 1
4381 12 1
4381 684 1
4381 764 1
4381 2147 1
4382 360 1
4382 2570 1
4382 2841 1
4382 4361 1
4382 4894 1
4383 306 1
4383 641 1
4383 1879 1
4383 3265 1
4383 4607 1
4384 531 1
4384 2192 1
4384 2322 1
4384 3707 1
4385 148 1
4385 153 1
4385 597 1
4385 1364 1
4386 1 1
4386 1084 1
4386 1188 1
4386 1766 1
4387 59 1
4387 180 1
4387 382 1
4387 1301 1
4388 146 1
4388 202 1
4388 299 1
4388 1586 1
4388 4413 1
4389 9 1
4389 2354 1
4389 2971 1
4389 3195 1
4389 4916 1
4389 4959 1
4390 541 1
4390 988 1
4390 2417 1
4390 3320 1
4391 9 1
4391 1484 1
4391 2766 1
4391 2923 1
4392 369 1
4392 422 1
4392 2026 1
4392 3289 1
4393 234 1
4393 449 1
4393 458 1
4393 509 1
4394 22 1
4394 1096 1
4394 3200 1
4394 3873 1
4395 615 1
4395 779 1
4395 3117 1
4395 3201 1
4396 17 1
4396 25 1
4396 236 1
4396 3525 1
4397 21 1
4397 33 1
4397 79 1
4397 355 1
4398 49 1
4398 102 1
4398 475 1
4398 2779 1
4399 9 1
4399 14 1
4399 90 1
4399 997 1
4399 4831 1
4400 581 1
4400 1700 1
4400 1927 1
4400 2550 1
4401 397 1
4401 1197 1
4401 1315 1
4401 4141 1
4402 446 1
4402 2116 1
4402 2303 1
4402 3142 1
4403 27 1
4403 1095 1
4403 1772 1
4403 1954 1
4404 743 1
4404 2286 1
4404 3395 1
4404 4121 1
4404 4648 1
4404 4937 1
4405 265 1
4405 523 1
4405 1913 1
4405 3105 1
4406 364 1
4406 412 1
4406 1107 1
4406 4132 1
4407 105 1
4407 184 1
4407 3393 1
4407 4277 1
4408 758 1
4408 1136 1
4408 1874 1
4408 1900 1
4408 4671 1
4409 38 1
4409 131 1
4409 473 1
4409 625 1
4409 4891 1
4410 241 1
4410 1060 1
4410 2841 1
4410 3816 1
4410 4480 1
4410 4915 1
4411 1 1
4411 3162 1
4411 3873 1
4411 4299 1
4411 4718 1
4412 515 1
4412 812 1
4412 1107 1
4412 4223 1
4413 77 1
4413 681 1
4413 4118 1
4413 4388 1
4414 429 1
4414 733 1
4414 1461 1
4414 3644 1
4415 10 1
4415 62 1
4415 4041 1
4415 4377 1
4416 1 1
4416 388 1
4416 1651 1
4416 2750 1
4417 1 1
4417 44 1
4417 3091 1
4417 3175 1
4418 838 1
4418 1041 1
4418 1335 1
4418 3201 1
4419 450 1
4419 2502 1
4419 3718 1
4419 3948 1
4420 74 1
4420 89 1
4420 127 1
4420 234 1
4421 198 1
4421 213 1
4421 785 1
4421 1297 1
4422 173 1
4422 2695 1
4422 3945 1
4422 4018 1
4422 4887 1
4423 1587 1
4423 2881 1
4423 3435 1
4423 4290 1
4423 4626 1
4423 4733 1
4424 76 1
4424 120 1
4424 1341 1
4424 1874 1
4424 4444 1
4425 26 1
4425 45 1
4425 115 1
4425 327 1
4425 4557 1
4426 818 1
4426 1177 1
4426 1661 1
4426 2754 1
4427 201 1
4427 269 1
4427 2844 1
4427 3966 1
4428 761 1
4428 2737 1
4428 3121 1
4428 3530 1
4429 1696 1
4429 1740 1
4429 2008 1
4429 2245 1
4430 932 1
4430 1604 1
4430 3553 1
4430 3633 1
4431 57 1
4431 169 1
4431 430 1
4431 2228 1
4432 41 1
4432 1307 1
4432 1903 1
4432 3570 1
4433 92 1
4433 741 1
4433 1313 1
4433 2532 1
4434 342 1
4434 1737 1
4434 2762 1
4434 3924 1
4435 33 1
4435 93 1
4435 2469 1
4435 2617 1
4436 576 1
4436 609 1
4436 2711 1
4436 3295 1
4437 81 1
4437 921 1
4437 2150 1
4437 3778 1
4438 482 1
4438 1161 1
4438 1878 1
4438 2084 1
4438 4841 1
4438 4875 1
4439 124 1
4439 844 1
4439 3696 1
4439 4329 1
4440 380 1
4440 1769 1
4440 1969 1
4440 2889 1
4441 9 1
4441 149 1
4441 1843 1
4441 1989 1
4442 30 1
4442 514 1
4442 1037 1
4442 2774 1
4443 799 1
4443 1676 1
4443 2535 1
4443 2710 1
4444 199 1
4444 459 1
4444 1844 1
4444 4424 1
4444 4786 1
4445 300 1
4445 305 1
4445 3981 1
4445 3996 1
4446 27 1
4446 86 1
4446 1209 1
4446 2887 1
4447 9 1
4447 186 1
4447 593 1
4447 2727 1
4448 77 1
4448 415 1
4448 1045 1
4448 2124 1
4449 588 1
4449 1585 1
4449 2586 1
4449 2588 1
4450 182 1
4450 850 1
4450 1066 1
4450 1081 1
4451 385 1
4451 1316 1
4451 2978 1
4451 3216 1
4452 73 1
4452 753 1
4452 1824 1
4452 4046 1
4453 588 1
4453 1718 1
4453 3250 1
4453 4330 1
4454 1 1
4454 1966 1
4454 2187 1
4454 3731 1
4455 778 1
4455 1162 1
4455 1432 1
4455 2945 1
4455 4633 1
4456 242 1
4456 342 1
4456 775 1
4456 999 1
4456 4692 1
4457 348 1
4457 683 1
4457 1737 1
4457 2448 1
4458 473 1
4458 625 1
4458 1189 1
4458 2876 1
4459 724 1
4459 2772 1
4459 3094 1
4459 3242 1
4460 299 1
4460 380 1
4460 399 1
4460 4356 1
4461 36 1
4461 861 1
4461 999 1
4461 1139 1
4462 137 1
4462 505 1
4462 1080 1
4462 3658 1
4462 4971 1
4463 212 1
4463 666 1
4463 2844 1
4463 3818 1
4464 747 1
4464 1266 1
4464 2052 1
4464 3520 1
4465 1 1
4465 41 1
4465 297 1
4465 3623 1
4465 4912 1
4466 2 1
4466 178 1
4466 329 1
4466 2294 1
4466 4491 1
4467 283 1
4467 652 1
4467 1308 1
4467 2149 1
4467 4761 1
4467 4833 1
4468 1820 1
4468 2146 1
4468 2331 1
4468 3213 1
4468 4679 1
4469 17 1
4469 186 1
4469 1039 1
4469 1178 1
4469 4939 1
4470 443 1
4470 1692 1
4470 1723 1
4470 2913 1
4471 1 1
4471 411 1
4471 460 1
4471 2421 1
4471 4523 1
4472 91 1
4472 174 1
4472 1183 1
4472 3993 1
4473 70 1
4473 111 1
4473 595 1
4473 1598 1
4473 4812 1
4474 75 1
4474 132 1
4474 666 1
4474 2700 1
4474 4502 1
4475 29 1
4475 253 1
4475 2718 1
4475 3803 1
4476 49 1
4476 1086 1
4476 1258 1
4476 1426 1
4477 51 1
4477 115 1
4477 122 1
4477 948 1
4478 100 1
4478 315 1
4478 729 1
4478 1085 1
4479 141 1
4479 275 1
4479 1604 1
4479 3907 1
4480 42 1
4480 812 1
4480 2841 1
4480 4410 1
4481 21 1
4481 481 1
4481 1426 1
4481 1622 1
4481 4808 1
4481 4942 1
4482 1 1
4482 153 1
4482 521 1
4482 2126 1
4483 23 1
4483 180 1
4483 337 1
4483 3693 1
4484 2744 1
4484 3087 1
4484 3139 1
4484 3704 1
4484 4644 1
4485 10 1
4485 305 1
4485 1248 1
4485 2937 1
4486 148 1
4486 153 1
4486 1063 1
4486 1498 1
4487 651 1
4487 925 1
4487 1683 1
4487 2901 1
4488 1 1
4488 958 1
4488 1030 1
4488 2853 1
4488 4968 1
4489 299 1
4489 818 1
4489 1164 1
4489 3010 1
4489 4867 1
4490 481 1
4490 601 1
4490 646 1
4490 1190 1
4490 4618 1
4490 4621 1
4490 4862 1
4491 90 1
4491 329 1
4491 2294 1
4491 4466 1
4492 29 1
4492 161 1
4492 1610 1
4492 1995 1
4493 17 1
4493 1195 1
4493 3389 1
4493 4371 1
4494 1 1
4494 173 1
4494 917 1
4494 1707 1
4495 771 1
4495 2371 1
4495 2991 1
4495 3190 1
4496 25 1
4496 785 1
4496 1489 1
4496 3782 1
4497 66 1
4497 529 1
4497 3121 1
4497 3219 1
4497 4669 1
4498 19 1
4498 65 1
4498 260 1
4498 937 1
4499 340 1
4499 564 1
4499 857 1
4499 1086 1
4500 571 1
4500 2378 1
4500 2684 1
4500 3141 1
4501 169 1
4501 500 1
4501 1210 1
4501 2124 1
4502 2042 1
4502 2907 1
4502 3297 1
4502 4474 1
4502 4606 1
4503 358 1
4503 675 1
4503 2564 1
4503 3530 1
4504 990 1
4504 1803 1
4504 2292 1
4504 3747 1
4504 4570 1
4504 4900 1
4505 817 1
4505 2097 1
4505 3680 1
4505 3684 1
4506 491 1
4506 754 1
4506 810 1
4506 3400 1
4507 674 1
4507 1389 1
4507 1881 1
4507 3269 1
4508 17 1
4508 19 1
4508 433 1
4508 1955 1
4508 4575 1
4508 4896 1
4509 50 1
4509 1215 1
4509 1424 1
4509 2441 1
4509 4918 1
4510 2393 1
4510 2632 1
4510 2829 1
4510 3223 1
4511 142 1
4511 2172 1
4511 2446 1
4511 3015 1
4512 514 1
4512 1537 1
4512 2436 1
4512 3647 1
4513 11 1
4513 420 1
4513 2302 1
4513 3492 1
4514 52 1
4514 281 1
4514 405 1
4514 664 1
4515 80 1
4515 415 1
4515 2119 1
4515 2790 1
4516 1 1
4516 457 1
4516 629 1
4516 723 1
4517 255 1
4517 385 1
4517 935 1
4517 3874 1
4518 17 1
4518 356 1
4518 439 1
4518 1101 1
4519 25 1
4519 321 1
4519 2334 1
4519 3142 1
4520 768 1
4520 950 1
4520 1362 1
4520 1682 1
4521 9 1
4521 153 1
4521 305 1
4521 516 1
4521 4976 1
4522 383 1
4522 1567 1
4522 2016 1
4522 3502 1
4523 460 1
4523 900 1
4523 2421 1
4523 4471 1
4524 40 1
4524 49 1
4524 1232 1
4524 3193 1
4525 149 1
4525 1629 1
4525 1783 1
4525 2458 1
4526 38 1
4526 139 1
4526 176 1
4526 2763 1
4527 934 1
4527 1489 1
4527 4117 1
4527 4293 1
4528 329 1
4528 1843 1
4528 2418 1
4528 2674 1
4529 122 1
4529 1645 1
4529 3633 1
4529 3907 1
4529 4729 1
4530 35 1
4530 80 1
4530 1622 1
4530 2133 1
4531 120 1
4531 1804 1
4531 2619 1
4531 3377 1
4532 226 1
4532 1637 1
4532 2080 1
4532 2654 1
4532 4646 1
4533 387 1
4533 628 1
4533 1275 1
4533 1723 1
4534 49 1
4534 275 1
4534 929 1
4534 1044 1
4535 25 1
4535 274 1
4535 401 1
4535 2357 1
4536 152 1
4536 729 1
4536 1171 1
4536 4018 1
4537 612 1
4537 785 1
4537 1775 1
4537 2918 1
4538 3 1
4538 1981 1
4538 2007 1
4538 4258 1
4539 2 1
4539 6 1
4539 2248 1
4539 3061 1
4540 113 1
4540 436 1
4540 475 1
4540 631 1
4541 359 1
4541 481 1
4541 600 1
4541 2014 1
4542 8 1
4542 267 1
4542 878 1
4542 1081 1
4543 96 1
4543 359 1
4543 1777 1
4543 2666 1
4544 758 1
4544 963 1
4544 1561 1
4544 1904 1
4545 141 1
4545 707 1
4545 2892 1
4545 4195 1
4545 4654 1
4546 219 1
4546 885 1
4546 1563 1
4546 1737 1
4547 387 1
4547 634 1
4547 1951 1
4547 2771 1
4548 73 1
4548 298 1
4548 2730 1
4548 3925 1
4549 1460 1
4549 1661 1
4549 2140 1
4549 2365 1
4550 9 1
4550 114 1
4550 875 1
4550 1659 1
4551 137 1
4551 541 1
4551 579 1
4551 4378 1
4552 29 1
4552 416 1
4552 1340 1
4552 2898 1
4553 940 1
4553 961 1
4553 2340 1
4553 3473 1
4553 4606 1
4554 17 1
4554 466 1
4554 1195 1
4554 3389 1
4555 13 1
4555 447 1
4555 2432 1
4555 2779 1
4556 13 1
4556 1844 1
4556 2479 1
4556 3884 1
4557 115 1
4557 305 1
4557 2589 1
4557 4425 1
4557 4795 1
4557 4932 1
4558 298 1
4558 337 1
4558 1273 1
4558 2200 1
4558 4832 1
4559 534 1
4559 1225 1
4559 1970 1
4559 2454 1
4560 2 1
4560 431 1
4560 1238 1
4560 1876 1
4561 3 1
4561 2291 1
4561 2440 1
4561 3196 1
4561 4713 1
4562 463 1
4562 505 1
4562 1530 1
4562 3622 1
4563 275 1
4563 2857 1
4563 3803 1
4563 4142 1
4564 9 1
4564 155 1
4564 171 1
4564 3001 1
4565 1 1
4565 66 1
4565 158 1
4565 861 1
4566 3 1
4566 191 1
4566 991 1
4566 1476 1
4567 140 1
4567 770 1
4567 1131 1
4567 4364 1
4568 10 1
4568 11 1
4568 574 1
4568 1724 1
4569 186 1
4569 406 1
4569 1131 1
4569 2745 1
4570 19 1
4570 1963 1
4570 2454 1
4570 4504 1
4570 4772 1
4571 25 1
4571 89 1
4571 1425 1
4571 3149 1
4572 41 1
4572 336 1
4572 370 1
4572 3173 1
4573 409 1
4573 954 1
4573 2068 1
4573 3633 1
4574 621 1
4574 881 1
4574 3086 1
4574 3177 1
4575 17 1
4575 2954 1
4575 3078 1
4575 4508 1
4576 89 1
4576 270 1
4576 900 1
4576 1370 1
4577 474 1
4577 1318 1
4577 2338 1
4577 2651 1
4578 1773 1
4578 2370 1
4578 2804 1
4578 3281 1
4579 5 1
4579 674 1
4579 747 1
4579 1375 1
4580 765 1
4580 889 1
4580 1134 1
4580 3661 1
4581 176 1
4581 1037 1
4581 1562 1
4581 2895 1
4582 3 1
4582 48 1
4582 1719 1
4582 3899 1
4583 1369 1
4583 2324 1
4583 2755 1
4583 3782 1
4584 58 1
4584 167 1
4584 288 1
4584 2001 1
4585 449 1
4585 540 1
4585 666 1
4585 1810 1
4586 92 1
4586 436 1
4586 1521 1
4586 1772 1
4587 322 1
4587 1004 1
4587 1249 1
4587 3598 1
4588 5 1
4588 415 1
4588 1773 1
4588 1847 1
4588 4665 1
4589 1225 1
4589 2507 1
4589 2724 1
4589 4072 1
4590 828 1
4590 1628 1
4590 1745 1
4590 3710 1
4591 1080 1
4591 1436 1
4591 1996 1
4591 2141 1
4592 787 1
4592 2359 1
4592 3366 1
4592 3463 1
4593 523 1
4593 548 1
4593 1219 1
4593 3417 1
4594 5 1
4594 28 1
4594 51 1
4594 391 1
4595 25 1
4595 2789 1
4595 3050 1
4595 3153 1
4596 42 1
4596 657 1
4596 2664 1
4596 4120 1
4597 3 1
4597 3642 1
4597 3757 1
4597 4195 1
4598 400 1
4598 545 1
4598 2759 1
4598 3875 1
4599 25 1
4599 1145 1
4599 1735 1
4599 3788 1
4600 147 1
4600 274 1
4600 619 1
4600 2157 1
4601 18 1
4601 49 1
4601 252 1
4601 1667 1
4601 4720 1
4602 36 1
4602 981 1
4602 1393 1
4602 1741 1
4603 26 1
4603 185 1
4603 1952 1
4603 3098 1
4604 336 1
4604 931 1
4604 1402 1
4604 1945 1
4605 13 1
4605 1454 1
4605 1817 1
4605 2022 1
4605 4880 1
4606 1238 1
4606 1457 1
4606 4502 1
4606 4553 1
4607 17 1
4607 243 1
4607 3265 1
4607 4383 1
4607 4900 1
4608 703 1
4608 1147 1
4608 2744 1
4608 3320 1
4609 290 1
4609 503 1
4609 1611 1
4609 2003 1
4610 388 1
4610 556 1
4610 2318 1
4610 3767 1
4611 36 1
4611 321 1
4611 793 1
4611 3755 1
4612 1 1
4612 54 1
4612 1129 1
4612 1241 1
4613 140 1
4613 385 1
4613 1033 1
4613 1484 1
4614 25 1
4614 448 1
4614 1712 1
4614 1734 1
4615 570 1
4615 3712 1
4615 3896 1
4615 4189 1
4616 52 1
4616 92 1
4616 495 1
4616 3644 1
4617 481 1
4617 1502 1
4617 1699 1
4617 2407 1
4618 1 1
4618 646 1
4618 4335 1
4618 4490 1
4619 41 1
4619 3064 1
4619 4045 1
4619 4127 1
4620 9 1
4620 501 1
4620 778 1
4620 1013 1
4621 1267 1
4621 1977 1
4621 3909 1
4621 4490 1
4622 139 1
4622 1098 1
4622 1365 1
4622 3276 1
4623 537 1
4623 698 1
4623 1092 1
4623 1275 1
4624 983 1
4624 2169 1
4624 2628 1
4624 3592 1
4625 101 1
4625 2366 1
4625 3329 1
4625 3453 1
4626 463 1
4626 1587 1
4626 2217 1
4626 4423 1
4627 143 1
4627 339 1
4627 1663 1
4627 2173 1
4628 40 1
4628 293 1
4628 1185 1
4628 2700 1
4629 75 1
4629 847 1
4629 3188 1
4629 3990 1
4630 188 1
4630 932 1
4630 4013 1
4630 4199 1
4631 42 1
4631 292 1
4631 2265 1
4631 2662 1
4632 21 1
4632 441 1
4632 1355 1
4632 2701 1
4633 84 1
4633 519 1
4633 3560 1
4633 4455 1
4634 1030 1
4634 1707 1
4634 2604 1
4634 3303 1
4635 41 1
4635 224 1
4635 887 1
4635 3583 1
4636 5 1
4636 491 1
4636 555 1
4636 616 1
4637 73 1
4637 91 1
4637 2642 1
4637 2723 1
4637 4830 1
4638 132 1
4638 199 1
4638 305 1
4638 372 1
4639 508 1
4639 1384 1
4639 1668 1
4639 4170 1
4640 16 1
4640 28 1
4640 748 1
4640 2800 1
4641 89 1
4641 964 1
4641 1270 1
4641 1469 1
4642 2708 1
4642 2812 1
4642 3070 1
4642 4337 1
4643 1180 1
4643 1540 1
4643 2364 1
4643 3083 1
4644 81 1
4644 226 1
4644 3480 1
4644 4484 1
4645 58 1
4645 177 1
4645 288 1
4645 568 1
4646 2 1
4646 311 1
4646 1670 1
4646 4532 1
4647 238 1
4647 1264 1
4647 3424 1
4647 3859 1
4648 979 1
4648 1598 1
4648 2286 1
4648 4404 1
4649 159 1
4649 283 1
4649 710 1
4649 1312 1
4650 26 1
4650 89 1
4650 336 1
4650 1362 1
4651 2 1
4651 380 1
4651 1010 1
4651 3721 1
4652 59 1
4652 308 1
4652 1513 1
4652 3957 1
4653 73 1
4653 447 1
4653 956 1
4653 1741 1
4653 4699 1
4654 834 1
4654 2525 1
4654 2892 1
4654 4545 1
4655 106 1
4655 674 1
4655 3261 1
4655 4356 1
4656 97 1
4656 702 1
4656 1350 1
4656 2358 1
4657 293 1
4657 1156 1
4657 2927 1
4657 4186 1
4658 2045 1
4658 2489 1
4658 2531 1
4658 3923 1
4659 6 1
4659 12 1
4659 105 1
4659 1483 1
4660 17 1
4660 388 1
4660 1042 1
4660 1555 1
4661 10 1
4661 12 1
4661 308 1
4661 4308 1
4662 993 1
4662 1896 1
4662 1975 1
4662 4299 1
4663 842 1
4663 2045 1
4663 2953 1
4663 3796 1
4664 969 1
4664 1307 1
4664 2394 1
4664 3681 1
4665 5 1
4665 819 1
4665 870 1
4665 4588 1
4666 13 1
4666 1301 1
4666 1353 1
4666 3514 1
4667 8 1
4667 139 1
4667 897 1
4667 1802 1
4668 17 1
4668 98 1
4668 1567 1
4668 1874 1
4669 41 1
4669 349 1
4669 3165 1
4669 4497 1
4670 3 1
4670 305 1
4670 378 1
4670 2318 1
4671 169 1
4671 1900 1
4671 2557 1
4671 4408 1
4672 10 1
4672 443 1
4672 521 1
4672 4268 1
4673 1 1
4673 861 1
4673 2335 1
4673 2347 1
4674 3 1
4674 1707 1
4674 2779 1
4674 3277 1
4675 25 1
4675 443 1
4675 2913 1
4675 4083 1
4676 19 1
4676 395 1
4676 629 1
4676 4070 1
4677 18 1
4677 201 1
4677 405 1
4677 2863 1
4678 1070 1
4678 1844 1
4678 3474 1
4678 3847 1
4679 9 1
4679 1820 1
4679 2513 1
4679 4468 1
4680 122 1
4680 545 1
4680 2667 1
4680 3506 1
4681 10 1
4681 125 1
4681 627 1
4681 4204 1
4682 184 1
4682 251 1
4682 374 1
4682 530 1
4683 33 1
4683 83 1
4683 214 1
4683 4091 1
4684 1 1
4684 11 1
4684 527 1
4684 817 1
4685 17 1
4685 234 1
4685 3099 1
4685 3505 1
4686 537 1
4686 1300 1
4686 1353 1
4686 4195 1
4687 21 1
4687 91 1
4687 154 1
4687 1732 1
4688 157 1
4688 366 1
4688 1230 1
4688 3825 1
4689 324 1
4689 396 1
4689 957 1
4689 1505 1
4689 4774 1
4690 225 1
4690 1181 1
4690 2534 1
4690 2996 1
4690 4719 1
4691 59 1
4691 92 1
4691 972 1
4691 1342 1
4692 242 1
4692 1683 1
4692 2459 1
4692 4456 1
4693 17 1
4693 25 1
4693 157 1
4693 998 1
4693 4922 1
4694 602 1
4694 964 1
4694 2201 1
4694 3282 1
4694 4909 1
4695 33 1
4695 148 1
4695 527 1
4695 3786 1
4696 2 1
4696 1084 1
4696 1733 1
4696 2283 1
4697 629 1
4697 907 1
4697 1177 1
4697 2107 1
4698 1990 1
4698 2718 1
4698 3106 1
4698 3254 1
4699 73 1
4699 170 1
4699 1741 1
4699 4653 1
4699 4868 1
4700 89 1
4700 477 1
4700 817 1
4700 1361 1
4701 25 1
4701 334 1
4701 1522 1
4701 2349 1
4702 110 1
4702 304 1
4702 588 1
4702 1581 1
4702 4868 1
4703 1389 1
4703 1419 1
4703 2978 1
4703 3817 1
4704 283 1
4704 409 1
4704 917 1
4704 3939 1
4705 1 1
4705 213 1
4705 542 1
4705 1215 1
4706 186 1
4706 1113 1
4706 2787 1
4706 3161 1
4706 4739 1
4707 158 1
4707 338 1
4707 1422 1
4707 3189 1
4708 5 1
4708 34 1
4708 83 1
4708 2785 1
4709 339 1
4709 1049 1
4709 1809 1
4709 2713 1
4710 185 1
4710 2009 1
4710 2145 1
4710 2267 1
4711 29 1
4711 130 1
4711 698 1
4711 2709 1
4712 11 1
4712 194 1
4712 3513 1
4712 3584 1
4713 583 1
4713 923 1
4713 2481 1
4713 4561 1
4713 4765 1
4714 130 1
4714 1134 1
4714 1663 1
4714 2380 1
4715 17 1
4715 80 1
4715 881 1
4715 1789 1
4716 1276 1
4716 1628 1
4716 1756 1
4716 2199 1
4717 149 1
4717 729 1
4717 1171 1
4717 2172 1
4718 12 1
4718 1219 1
4718 3162 1
4718 4411 1
4719 20 1
4719 3119 1
4719 4257 1
4719 4690 1
4720 628 1
4720 3441 1
4720 3886 1
4720 4601 1
4721 12 1
4721 206 1
4721 1051 1
4721 1606 1
4722 36 1
4722 194 1
4722 962 1
4722 3175 1
4723 26 1
4723 379 1
4723 829 1
4723 2697 1
4724 36 1
4724 1346 1
4724 1701 1
4724 3371 1
4725 19 1
4725 83 1
4725 278 1
4725 3355 1
4726 1137 1
4726 2522 1
4726 2992 1
4726 3848 1
4727 332 1
4727 971 1
4727 1529 1
4727 3010 1
4728 33 1
4728 1733 1
4728 2451 1
4728 2968 1
4728 4763 1
4729 1645 1
4729 3633 1
4729 3907 1
4729 4529 1
4730 1 1
4730 1500 1
4730 1945 1
4730 2077 1
4731 96 1
4731 2387 1
4731 2518 1
4731 2889 1
4732 70 1
4732 405 1
4732 2889 1
4732 3084 1
4733 1653 1
4733 3282 1
4733 3435 1
4733 4423 1
4734 49 1
4734 1152 1
4734 1571 1
4734 3921 1
4735 209 1
4735 464 1
4735 782 1
4735 1549 1
4736 461 1
4736 2780 1
4736 3681 1
4736 3771 1
4737 62 1
4737 126 1
4737 145 1
4737 1232 1
4738 22 1
4738 75 1
4738 1562 1
4738 3873 1
4738 4999 1
4739 186 1
4739 714 1
4739 3749 1
4739 4706 1
4740 178 1
4740 457 1
4740 1020 1
4740 2540 1
4740 4796 1
4741 50 1
4741 326 1
4741 380 1
4741 441 1
4742 120 1
4742 563 1
4742 988 1
4742 1341 1
4743 68 1
4743 652 1
4743 2434 1
4743 3655 1
4744 9 1
4744 60 1
4744 998 1
4744 1404 1
4745 2 1
4745 155 1
4745 1010 1
4745 2299 1
4746 17 1
4746 75 1
4746 234 1
4746 4276 1
4747 609 1
4747 1851 1
4747 1994 1
4747 3401 1
4748 158 1
4748 549 1
4748 1090 1
4748 1752 1
4749 194 1
4749 1779 1
4749 3148 1
4749 3515 1
4750 41 1
4750 173 1
4750 564 1
4750 2127 1
4751 729 1
4751 1066 1
4751 1266 1
4751 2424 1
4751 4905 1
4752 52 1
4752 889 1
4752 3325 1
4752 4106 1
4752 4931 1
4753 105 1
4753 361 1
4753 899 1
4753 2978 1
4754 312 1
4754 573 1
4754 787 1
4754 1232 1
4755 1 1
4755 304 1
4755 1004 1
4755 1535 1
4756 314 1
4756 609 1
4756 3454 1
4756 4021 1
4757 91 1
4757 92 1
4757 601 1
4757 3835 1
4758 51 1
4758 188 1
4758 808 1
4758 1853 1
4759 129 1
4759 139 1
4759 1468 1
4759 2108 1
4759 4896 1
4760 45 1
4760 125 1
4760 138 1
4760 3251 1
4761 2621 1
4761 3403 1
4761 4034 1
4761 4467 1
4762 145 1
4762 177 1
4762 2042 1
4762 2051 1
4763 1733 1
4763 2451 1
4763 2968 1
4763 4728 1
4764 17 1
4764 26 1
4764 105 1
4764 3582 1
4764 4851 1
4765 817 1
4765 923 1
4765 2724 1
4765 4713 1
4765 4806 1
4766 6 1
4766 955 1
4766 1442 1
4766 3554 1
4767 39 1
4767 419 1
4767 620 1
4767 4356 1
4768 808 1
4768 1137 1
4768 2729 1
4768 3172 1
4768 4828 1
4769 17 1
4769 423 1
4769 1655 1
4769 2033 1
4770 1313 1
4770 2748 1
4770 2779 1
4770 3594 1
4771 41 1
4771 108 1
4771 371 1
4771 3985 1
4772 3097 1
4772 3296 1
4772 4046 1
4772 4570 1
4773 618 1
4773 647 1
4773 2189 1
4773 3587 1
4774 227 1
4774 802 1
4774 1180 1
4774 4689 1
4775 105 1
4775 706 1
4775 3059 1
4775 4301 1
4776 100 1
4776 2308 1
4776 2755 1
4776 2913 1
4777 92 1
4777 378 1
4777 2025 1
4777 3969 1
4777 4781 1
4778 26 1
4778 225 1
4778 355 1
4778 1010 1
4779 170 1
4779 1107 1
4779 1667 1
4779 2014 1
4780 314 1
4780 478 1
4780 707 1
4780 2108 1
4781 284 1
4781 2025 1
4781 2484 1
4781 4777 1
4782 217 1
4782 893 1
4782 2568 1
4782 3202 1
4782 4852 1
4783 249 1
4783 964 1
4783 1362 1
4783 3882 1
4784 13 1
4784 347 1
4784 731 1
4784 864 1
4785 913 1
4785 1316 1
4785 2197 1
4785 3752 1
4786 28 1
4786 348 1
4786 459 1
4786 4444 1
4787 105 1
4787 236 1
4787 1825 1
4787 3201 1
4788 11 1
4788 2719 1
4788 3589 1
4788 3897 1
4789 11 1
4789 19 1
4789 2475 1
4789 2945 1
4790 52 1
4790 569 1
4790 841 1
4790 2220 1
4791 60 1
4791 92 1
4791 2731 1
4791 3602 1
4792 4 1
4792 33 1
4792 265 1
4792 2242 1
4793 597 1
4793 1611 1
4793 3340 1
4793 4103 1
4794 154 1
4794 451 1
4794 1202 1
4794 2387 1
4795 4 1
4795 2145 1
4795 3395 1
4795 4557 1
4796 3 1
4796 178 1
4796 229 1
4796 4740 1
4797 18 1
4797 1911 1
4797 2322 1
4797 3707 1
4798 51 1
4798 2458 1
4798 2650 1
4798 3865 1
4799 185 1
4799 386 1
4799 1078 1
4799 3021 1
4800 636 1
4800 1727 1
4800 2423 1
4800 3372 1
4801 370 1
4801 553 1
4801 1537 1
4801 2128 1
4802 212 1
4802 1047 1
4802 4017 1
4802 4331 1
4803 12 1
4803 18 1
4803 2036 1
4803 2572 1
4804 20 1
4804 29 1
4804 306 1
4804 477 1
4805 2 1
4805 371 1
4805 860 1
4805 3257 1
4806 260 1
4806 898 1
4806 2394 1
4806 4765 1
4807 91 1
4807 222 1
4807 688 1
4807 725 1
4808 1426 1
4808 1885 1
4808 3969 1
4808 4481 1
4808 4942 1
4809 26 1
4809 127 1
4809 3193 1
4809 4201 1
4810 523 1
4810 812 1
4810 900 1
4810 2844 1
4811 617 1
4811 1397 1
4811 1446 1
4811 1820 1
4812 70 1
4812 595 1
4812 1598 1
4812 4473 1
4813 133 1
4813 478 1
4813 1790 1
4813 3000 1
4814 11 1
4814 618 1
4814 1707 1
4814 3354 1
4815 506 1
4815 609 1
4815 978 1
4815 1731 1
4816 12 1
4816 168 1
4816 764 1
4816 1606 1
4817 1 1
4817 657 1
4817 2050 1
4817 2715 1
4818 318 1
4818 929 1
4818 1065 1
4818 3250 1
4819 11 1
4819 874 1
4819 2021 1
4819 3507 1
4819 4971 1
4820 196 1
4820 218 1
4820 690 1
4820 3734 1
4821 25 1
4821 97 1
4821 413 1
4821 1210 1
4822 184 1
4822 1377 1
4822 1507 1
4822 3796 1
4823 73 1
4823 95 1
4823 194 1
4823 2156 1
4823 4900 1
4824 479 1
4824 1220 1
4824 1489 1
4824 4117 1
4825 48 1
4825 113 1
4825 2580 1
4825 3691 1
4826 35 1
4826 171 1
4826 1193 1
4826 1587 1
4827 186 1
4827 559 1
4827 2677 1
4827 3452 1
4827 4988 1
4828 3 1
4828 1975 1
4828 3996 1
4828 4768 1
4829 222 1
4829 1034 1
4829 1105 1
4829 2963 1
4830 91 1
4830 1517 1
4830 2650 1
4830 4637 1
4831 658 1
4831 830 1
4831 1976 1
4831 4399 1
4832 18 1
4832 337 1
4832 1186 1
4832 4558 1
4833 1 1
4833 283 1
4833 286 1
4833 4467 1
4834 18 1
4834 1482 1
4834 1962 1
4834 2273 1
4835 663 1
4835 1981 1
4835 2473 1
4835 3603 1
4836 123 1
4836 708 1
4836 943 1
4836 2356 1
4837 1068 1
4837 1362 1
4837 1653 1
4837 1959 1
4838 259 1
4838 837 1
4838 1990 1
4838 3052 1
4839 740 1
4839 1003 1
4839 3715 1
4839 4151 1
4840 29 1
4840 91 1
4840 1299 1
4840 1420 1
4841 11 1
4841 923 1
4841 2099 1
4841 4438 1
4842 34 1
4842 49 1
4842 769 1
4842 2449 1
4843 32 1
4843 60 1
4843 1897 1
4843 3711 1
4843 4972 1
4844 90 1
4844 374 1
4844 660 1
4844 898 1
4844 4972 1
4845 5 1
4845 178 1
4845 406 1
4845 1141 1
4846 1056 1
4846 1860 1
4846 2858 1
4846 4249 1
4847 201 1
4847 884 1
4847 1625 1
4847 3818 1
4848 2 1
4848 3708 1
4848 3956 1
4848 4214 1
4849 212 1
4849 563 1
4849 652 1
4849 963 1
4850 2 1
4850 336 1
4850 2130 1
4850 4379 1
4851 1169 1
4851 2333 1
4851 2910 1
4851 4764 1
4852 72 1
4852 85 1
4852 217 1
4852 4782 1
4853 76 1
4853 801 1
4853 3250 1
4853 4370 1
4854 17 1
4854 70 1
4854 1389 1
4854 1881 1
4855 63 1
4855 529 1
4855 984 1
4855 2767 1
4856 106 1
4856 120 1
4856 206 1
4856 1399 1
4857 1 1
4857 348 1
4857 1250 1
4857 1609 1
4858 1 1
4858 1942 1
4858 3866 1
4858 4143 1
4859 55 1
4859 130 1
4859 975 1
4859 2675 1
4860 188 1
4860 478 1
4860 1298 1
4860 3242 1
4861 130 1
4861 706 1
4861 1859 1
4861 3310 1
4862 378 1
4862 1998 1
4862 2675 1
4862 4490 1
4862 4948 1
4863 105 1
4863 899 1
4863 1567 1
4863 2322 1
4864 1610 1
4864 1876 1
4864 3014 1
4864 4369 1
4865 2 1
4865 153 1
4865 2251 1
4865 2966 1
4866 3017 1
4866 3190 1
4866 3418 1
4866 4009 1
4867 420 1
4867 818 1
4867 2355 1
4867 4489 1
4868 110 1
4868 427 1
4868 4699 1
4868 4702 1
4869 2083 1
4869 2746 1
4869 2829 1
4869 2869 1
4870 105 1
4870 613 1
4870 1224 1
4870 3707 1
4871 173 1
4871 506 1
4871 1622 1
4871 4087 1
4872 519 1
4872 595 1
4872 681 1
4872 1401 1
4873 387 1
4873 852 1
4873 2793 1
4873 3473 1
4873 4881 1
4874 195 1
4874 963 1
4874 1158 1
4874 1606 1
4875 138 1
4875 640 1
4875 1601 1
4875 4438 1
4876 2 1
4876 378 1
4876 1866 1
4876 2619 1
4877 711 1
4877 2906 1
4877 3834 1
4877 4051 1
4877 4897 1
4878 700 1
4878 1273 1
4878 3396 1
4878 3639 1
4879 92 1
4879 108 1
4879 738 1
4879 3032 1
4880 67 1
4880 452 1
4880 2739 1
4880 4605 1
4881 426 1
4881 534 1
4881 1066 1
4881 4873 1
4882 701 1
4882 1145 1
4882 1437 1
4882 1883 1
4883 73 1
4883 180 1
4883 217 1
4883 1791 1
4884 103 1
4884 1314 1
4884 1516 1
4884 1891 1
4885 18 1
4885 159 1
4885 1048 1
4885 1235 1
4886 75 1
4886 954 1
4886 2841 1
4886 3268 1
4887 1274 1
4887 2185 1
4887 3431 1
4887 4422 1
4888 49 1
4888 761 1
4888 2752 1
4888 3422 1
4889 149 1
4889 330 1
4889 2354 1
4889 3895 1
4890 12 1
4890 995 1
4890 1605 1
4890 4289 1
4891 5 1
4891 473 1
4891 850 1
4891 4409 1
4892 5 1
4892 345 1
4892 876 1
4892 1184 1
4893 155 1
4893 312 1
4893 1712 1
4893 1874 1
4894 141 1
4894 1604 1
4894 2814 1
4894 4382 1
4895 249 1
4895 796 1
4895 1165 1
4895 4044 1
4896 2494 1
4896 3779 1
4896 4508 1
4896 4759 1
4897 332 1
4897 1479 1
4897 2109 1
4897 4877 1
4898 221 1
4898 1876 1
4898 3436 1
4898 3674 1
4899 158 1
4899 987 1
4899 2739 1
4899 3129 1
4900 1693 1
4900 4504 1
4900 4607 1
4900 4823 1
4901 23 1
4901 599 1
4901 1044 1
4901 3769 1
4902 5 1
4902 800 1
4902 1183 1
4902 1540 1
4903 906 1
4903 1867 1
4903 3872 1
4903 4073 1
4904 49 1
4904 71 1
4904 186 1
4904 319 1
4905 2568 1
4905 3048 1
4905 3430 1
4905 4751 1
4906 634 1
4906 1356 1
4906 2142 1
4906 2543 1
4907 393 1
4907 954 1
4907 2112 1
4907 2283 1
4908 108 1
4908 410 1
4908 1674 1
4908 1910 1
4909 499 1
4909 602 1
4909 657 1
4909 4694 1
4910 590 1
4910 665 1
4910 1390 1
4910 3549 1
4911 63 1
4911 275 1
4911 874 1
4911 3774 1
4912 2 1
4912 297 1
4912 3345 1
4912 4465 1
4913 770 1
4913 787 1
4913 1737 1
4913 2102 1
4914 1 1
4914 675 1
4914 870 1
4914 1634 1
4915 241 1
4915 1706 1
4915 2415 1
4915 4410 1
4916 334 1
4916 340 1
4916 1777 1
4916 4389 1
4917 66 1
4917 810 1
4917 1931 1
4917 2407 1
4918 169 1
4918 1215 1
4918 3083 1
4918 4509 1
4919 443 1
4919 1273 1
4919 2332 1
4919 3955 1
4920 2 1
4920 2237 1
4920 3496 1
4920 4311 1
4921 186 1
4921 2585 1
4921 2598 1
4921 3821 1
4922 132 1
4922 157 1
4922 1308 1
4922 4693 1
4923 36 1
4923 104 1
4923 2441 1
4923 2655 1
4924 76 1
4924 154 1
4924 580 1
4924 3777 1
4925 37 1
4925 435 1
4925 497 1
4925 2304 1
4926 54 1
4926 448 1
4926 1824 1
4926 3326 1
4927 5 1
4927 2047 1
4927 2772 1
4927 2823 1
4928 75 1
4928 1510 1
4928 1541 1
4928 3251 1
4929 2 1
4929 51 1
4929 158 1
4929 162 1
4930 18 1
4930 475 1
4930 2185 1
4930 3152 1
4931 889 1
4931 2507 1
4931 3164 1
4931 4752 1
4932 10 1
4932 299 1
4932 305 1
4932 4557 1
4933 3 1
4933 436 1
4933 1466 1
4933 4030 1
4934 604 1
4934 1980 1
4934 2377 1
4934 3397 1
4935 381 1
4935 1017 1
4935 1439 1
4935 3464 1
4936 21 1
4936 337 1
4936 1515 1
4936 1598 1
4937 805 1
4937 970 1
4937 1021 1
4937 4404 1
4938 10 1
4938 50 1
4938 1739 1
4938 2242 1
4939 186 1
4939 838 1
4939 1696 1
4939 4469 1
4940 39 1
4940 2172 1
4940 3628 1
4940 4356 1
4941 35 1
4941 299 1
4941 2395 1
4941 2504 1
4942 49 1
4942 2844 1
4942 4481 1
4942 4808 1
4943 2 1
4943 1522 1
4943 2349 1
4943 2628 1
4944 26 1
4944 531 1
4944 1950 1
4944 3433 1
4945 2917 1
4945 2923 1
4945 3866 1
4945 4198 1
4946 531 1
4946 906 1
4946 1340 1
4946 1411 1
4947 189 1
4947 914 1
4947 2130 1
4947 2739 1
4948 315 1
4948 862 1
4948 1958 1
4948 4862 1
4949 17 1
4949 431 1
4949 1614 1
4949 3186 1
4950 17 1
4950 66 1
4950 1419 1
4950 1630 1
4951 401 1
4951 1663 1
4951 3202 1
4951 4370 1
4952 75 1
4952 177 1
4952 373 1
4952 1082 1
4953 122 1
4953 560 1
4953 3293 1
4953 4289 1
4954 780 1
4954 923 1
4954 1490 1
4954 3282 1
4955 316 1
4955 615 1
4955 1153 1
4955 1722 1
4955 4992 1
4956 138 1
4956 224 1
4956 4037 1
4956 4062 1
4957 1634 1
4957 2495 1
4957 2566 1
4957 3753 1
4958 410 1
4958 1305 1
4958 2915 1
4958 4308 1
4959 2013 1
4959 2354 1
4959 4163 1
4959 4389 1
4960 567 1
4960 761 1
4960 1427 1
4960 1737 1
4961 1 1
4961 169 1
4961 2099 1
4961 3663 1
4962 544 1
4962 1730 1
4962 1955 1
4962 3970 1
4963 43 1
4963 474 1
4963 2523 1
4963 3884 1
4964 92 1
4964 1229 1
4964 1538 1
4964 2315 1
4965 2 1
4965 268 1
4965 762 1
4965 1413 1
4966 753 1
4966 2485 1
4966 4005 1
4966 4022 1
4967 153 1
4967 213 1
4967 1052 1
4967 2739 1
4968 10 1
4968 1038 1
4968 3161 1
4968 4488 1
4969 19 1
4969 193 1
4969 3061 1
4969 3554 1
4970 70 1
4970 784 1
4970 2747 1
4970 3110 1
4971 229 1
4971 3882 1
4971 4462 1
4971 4819 1
4972 2329 1
4972 2550 1
4972 4843 1
4972 4844 1
4973 47 1
4973 2080 1
4973 3633 1
4973 3907 1
4974 2401 1
4974 2478 1
4974 3138 1
4974 3423 1
4975 49 1
4975 106 1
4975 2650 1
4975 2748 1
4976 440 1
4976 750 1
4976 3124 1
4976 4521 1
4977 11 1
4977 1310 1
4977 1586 1
4977 3210 1
4978 25 1
4978 59 1
4978 366 1
4978 923 1
4979 141 1
4979 288 1
4979 447 1
4979 944 1
4980 42 1
4980 91 1
4980 508 1
4980 835 1
4981 188 1
4981 603 1
4981 1594 1
4981 1602 1
4982 202 1
4982 226 1
4982 602 1
4982 3661 1
4983 247 1
4983 306 1
4983 1782 1
4983 2532 1
4984 2 1
4984 330 1
4984 653 1
4984 2354 1
4985 2 1
4985 248 1
4985 1297 1
4985 1550 1
4986 33 1
4986 105 1
4986 1755 1
4986 2800 1
4987 242 1
4987 361 1
4987 874 1
4987 3559 1
4988 559 1
4988 584 1
4988 1369 1
4988 4827 1
4989 563 1
4989 738 1
4989 1629 1
4989 2492 1
4990 412 1
4990 1509 1
4990 1581 1
4990 2219 1
4991 106 1
4991 220 1
4991 1794 1
4991 1893 1
4992 290 1
4992 316 1
4992 423 1
4992 4955 1
4993 58 1
4993 545 1
4993 2759 1
4993 3506 1
4994 16 1
4994 141 1
4994 1425 1
4994 2793 1
4995 67 1
4995 106 1
4995 779 1
4995 3590 1
4996 40 1
4996 619 1
4996 1272 1
4996 2622 1
4997 18 1
4997 240 1
4997 4171 1
4997 4255 1
4998 22 1
4998 298 1
4998 2692 1
4998 3101 1
4999 84 1
4999 2866 1
4999 4010 1
4999 4738 1
5000 73 1
5000 715 1
5000 1065 1
5000 1997 1
