%%MatrixMarket matrix coordinate integer general
%
500 500 3962
1 5 1
1 6 1
1 7 1
1 8 1
1 11 1
1 13 1
1 18 1
1 19 1
1 23 1
1 26 1
1 27 1
1 32 1
1 34 1
1 40 1
1 43 1
1 44 1
1 52 1
1 60 1
1 63 1
1 66 1
1 70 1
1 79 1
1 89 1
1 92 1
1 95 1
1 100 1
1 102 1
1 113 1
1 114 1
1 116 1
1 126 1
1 146 1
1 148 1
1 151 1
1 163 1
1 174 1
1 186 1
1 187 1
1 188 1
1 191 1
1 195 1
1 198 1
1 199 1
1 200 1
1 202 1
1 219 1
1 235 1
1 254 1
1 260 1
1 265 1
1 299 1
1 302 1
1 304 1
1 312 1
1 331 1
1 341 1
1 344 1
1 354 1
1 359 1
1 361 1
1 373 1
1 385 1
1 386 1
1 397 1
1 400 1
1 412 1
1 419 1
1 427 1
1 450 1
1 451 1
1 454 1
1 469 1
1 472 1
1 477 1
1 479 1
1 480 1
2 5 1
2 6 1
2 7 1
2 8 1
2 9 1
2 10 1
2 13 1
2 14 1
2 37 1
2 50 1
2 55 1
2 56 1
2 59 1
2 60 1
2 68 1
2 71 1
2 73 1
2 75 1
2 85 1
2 88 1
2 91 1
2 105 1
2 108 1
2 109 1
2 115 1
2 117 1
2 134 1
2 144 1
2 148 1
2 151 1
2 153 1
2 162 1
2 182 1
2 185 1
2 206 1
2 210 1
2 212 1
2 229 1
2 236 1
2 242 1
2 244 1
2 248 1
2 270 1
2 272 1
2 278 1
2 282 1
2 293 1
2 317 1
2 323 1
2 369 1
2 384 1
2 395 1
2 436 1
2 461 1
2 463 1
3 5 1
3 6 1
3 16 1
3 17 1
3 47 1
3 49 1
3 70 1
3 87 1
3 116 1
3 130 1
3 222 1
3 256 1
3 262 1
3 264 1
3 270 1
3 274 1
3 286 1
3 289 1
3 318 1
3 321 1
3 367 1
3 425 1
3 485 1
4 5 1
4 9 1
4 16 1
4 25 1
4 32 1
4 34 1
4 35 1
4 37 1
4 38 1
4 54 1
4 58 1
4 71 1
4 90 1
4 98 1
4 124 1
4 129 1
4 132 1
4 157 1
4 161 1
4 162 1
4 168 1
4 170 1
4 196 1
4 209 1
4 235 1
4 245 1
4 289 1
4 307 1
4 312 1
4 352 1
4 355 1
4 357 1
4 365 1
4 378 1
4 399 1
4 409 1
4 426 1
4 456 1
4 467 1
4 478 1
4 480 1
5 1 1
5 2 1
5 3 1
5 4 1
5 6 1
5 7 1
5 8 1
5 11 1
5 12 1
5 13 1
5 15 1
5 16 1
5 17 1
5 18 1
5 19 1
5 20 1
5 21 1
5 22 1
5 23 1
5 28 1
5 30 1
5 31 1
5 33 1
5 34 1
5 35 1
5 38 1
5 41 1
5 42 1
5 49 1
5 51 1
5 53 1
5 58 1
5 62 1
5 74 1
5 78 1
5 81 1
5 87 1
5 92 1
5 94 1
5 98 1
5 99 1
5 111 1
5 120 1
5 124 1
5 128 1
5 135 1
5 137 1
5 138 1
5 141 1
5 152 1
5 153 1
5 161 1
5 175 1
5 177 1
5 179 1
5 180 1
5 192 1
5 199 1
5 207 1
5 220 1
5 226 1
5 233 1
5 239 1
5 247 1
5 253 1
5 258 1
5 263 1
5 279 1
5 284 1
5 308 1
5 312 1
5 329 1
5 352 1
5 374 1
5 390 1
5 394 1
5 411 1
5 433 1
5 459 1
5 474 1
6 1 1
6 2 1
6 3 1
6 5 1
6 7 1
6 8 1
6 9 1
6 10 1
6 12 1
6 14 1
6 15 1
6 20 1
6 22 1
6 23 1
6 25 1
6 26 1
6 28 1
6 33 1
6 34 1
6 56 1
6 67 1
6 75 1
6 79 1
6 83 1
6 90 1
6 93 1
6 107 1
6 113 1
6 125 1
6 127 1
6 153 1
6 154 1
6 189 1
6 190 1
6 204 1
6 208 1
6 254 1
6 256 1
6 272 1
6 292 1
6 302 1
6 340 1
6 393 1
6 441 1
6 443 1
6 449 1
6 478 1
7 1 1
7 2 1
7 5 1
7 6 1
7 12 1
7 15 1
7 30 1
7 44 1
7 195 1
7 244 1
7 346 1
8 1 1
8 2 1
8 5 1
8 6 1
8 9 1
8 10 1
8 11 1
8 13 1
8 14 1
8 15 1
8 17 1
8 18 1
8 27 1
8 56 1
8 57 1
8 64 1
8 72 1
8 81 1
8 95 1
8 118 1
8 143 1
8 218 1
8 253 1
8 267 1
8 325 1
8 354 1
8 358 1
8 363 1
8 378 1
8 394 1
8 424 1
8 439 1
9 2 1
9 4 1
9 6 1
9 8 1
9 10 1
9 11 1
9 12 1
9 14 1
9 16 1
9 18 1
9 20 1
9 22 1
9 29 1
9 30 1
9 35 1
9 38 1
9 40 1
9 47 1
9 48 1
9 53 1
9 54 1
9 55 1
9 59 1
9 62 1
9 76 1
9 80 1
9 85 1
9 99 1
9 104 1
9 108 1
9 172 1
9 190 1
9 211 1
9 214 1
9 218 1
9 229 1
9 231 1
9 233 1
9 240 1
9 259 1
9 266 1
9 291 1
9 319 1
9 321 1
9 328 1
9 335 1
9 337 1
9 371 1
9 381 1
9 390 1
9 396 1
9 401 1
9 416 1
9 424 1
9 437 1
9 444 1
9 447 1
9 453 1
9 454 1
10 2 1
10 6 1
10 8 1
10 9 1
10 19 1
10 36 1
10 53 1
10 59 1
10 99 1
10 107 1
10 123 1
10 177 1
10 206 1
10 251 1
10 258 1
10 393 1
10 396 1
10 418 1
10 444 1
11 1 1
11 5 1
11 8 1
11 9 1
11 21 1
11 31 1
11 38 1
11 47 1
11 52 1
11 63 1
11 65 1
11 74 1
11 89 1
11 100 1
11 110 1
11 112 1
11 122 1
11 129 1
11 144 1
11 169 1
11 176 1
11 184 1
11 201 1
11 205 1
11 225 1
11 238 1
11 249 1
11 325 1
11 345 1
11 357 1
11 408 1
11 423 1
11 432 1
11 436 1
11 462 1
11 476 1
11 486 1
11 497 1
12 5 1
12 6 1
12 7 1
12 9 1
12 17 1
12 20 1
12 21 1
12 22 1
12 24 1
12 25 1
12 26 1
12 30 1
12 32 1
12 33 1
12 36 1
12 41 1
12 48 1
12 49 1
12 51 1
12 57 1
12 58 1
12 62 1
12 68 1
12 69 1
12 82 1
12 83 1
12 84 1
12 93 1
12 96 1
12 104 1
12 109 1
12 111 1
12 118 1
12 127 1
12 130 1
12 133 1
12 135 1
12 148 1
12 160 1
12 162 1
12 165 1
12 171 1
12 182 1
12 192 1
12 198 1
12 227 1
12 231 1
12 248 1
12 260 1
12 285 1
12 288 1
12 298 1
12 304 1
12 309 1
12 316 1
12 319 1
12 330 1
12 340 1
12 345 1
12 348 1
12 357 1
12 371 1
12 377 1
12 408 1
12 432 1
12 434 1
12 441 1
12 446 1
12 484 1
12 494 1
12 499 1
13 1 1
13 2 1
13 5 1
13 8 1
13 19 1
13 40 1
13 42 1
13 64 1
13 77 1
13 167 1
13 381 1
14 2 1
14 6 1
14 8 1
14 9 1
14 28 1
14 61 1
14 68 1
14 75 1
14 125 1
14 218 1
14 310 1
14 416 1
14 443 1
14 467 1
15 5 1
15 6 1
15 7 1
15 8 1
15 24 1
15 45 1
15 66 1
15 102 1
15 115 1
15 137 1
15 142 1
15 233 1
15 449 1
16 3 1
16 4 1
16 5 1
16 9 1
16 54 1
16 108 1
16 275 1
16 352 1
16 485 1
17 3 1
17 5 1
17 8 1
17 12 1
17 31 1
17 46 1
17 57 1
17 79 1
17 87 1
17 101 1
17 128 1
17 168 1
17 211 1
17 223 1
17 224 1
17 264 1
17 286 1
17 290 1
17 319 1
17 388 1
18 1 1
18 5 1
18 8 1
18 9 1
18 26 1
18 27 1
18 29 1
18 39 1
18 40 1
18 43 1
18 45 1
18 59 1
18 61 1
18 69 1
18 70 1
18 72 1
18 80 1
18 86 1
18 89 1
18 103 1
18 109 1
18 120 1
18 125 1
18 136 1
18 141 1
18 152 1
18 154 1
18 158 1
18 159 1
18 183 1
18 188 1
18 194 1
18 200 1
18 204 1
18 214 1
18 216 1
18 219 1
18 244 1
18 246 1
18 252 1
18 255 1
18 257 1
18 262 1
18 269 1
18 277 1
18 286 1
18 293 1
18 298 1
18 350 1
18 389 1
18 427 1
18 433 1
18 471 1
18 475 1
18 484 1
19 1 1
19 5 1
19 10 1
19 13 1
19 28 1
19 42 1
19 78 1
19 126 1
19 129 1
19 138 1
19 141 1
19 161 1
19 183 1
19 234 1
19 243 1
19 297 1
19 334 1
19 365 1
19 381 1
19 439 1
19 492 1
20 5 1
20 6 1
20 9 1
20 12 1
20 21 1
20 24 1
20 25 1
20 29 1
20 52 1
20 64 1
20 65 1
20 66 1
20 68 1
20 74 1
20 76 1
20 97 1
20 131 1
20 147 1
20 154 1
20 159 1
20 160 1
20 164 1
20 179 1
20 188 1
20 189 1
20 193 1
20 217 1
20 222 1
20 228 1
20 237 1
20 269 1
20 274 1
20 344 1
20 360 1
20 405 1
20 410 1
20 428 1
20 440 1
21 5 1
21 11 1
21 12 1
21 20 1
21 23 1
21 24 1
21 37 1
21 39 1
21 65 1
21 73 1
21 223 1
21 307 1
21 410 1
21 417 1
21 474 1
22 5 1
22 6 1
22 9 1
22 12 1
22 33 1
22 36 1
22 66 1
22 74 1
22 114 1
22 155 1
22 200 1
22 259 1
22 285 1
22 294 1
22 309 1
22 333 1
22 349 1
22 448 1
22 465 1
23 1 1
23 5 1
23 6 1
23 21 1
23 73 1
23 106 1
23 307 1
23 309 1
24 12 1
24 15 1
24 20 1
24 21 1
24 37 1
24 39 1
24 52 1
24 97 1
24 139 1
24 192 1
24 193 1
24 417 1
24 460 1
25 4 1
25 6 1
25 12 1
25 20 1
25 29 1
25 31 1
25 32 1
25 50 1
25 55 1
25 56 1
25 76 1
25 84 1
25 106 1
25 117 1
25 133 1
25 140 1
25 155 1
25 209 1
25 211 1
25 268 1
25 287 1
25 364 1
25 387 1
25 426 1
26 1 1
26 6 1
26 12 1
26 18 1
26 27 1
26 43 1
26 72 1
26 73 1
26 96 1
26 127 1
26 369 1
26 372 1
26 445 1
26 462 1
27 1 1
27 8 1
27 18 1
27 26 1
27 44 1
27 51 1
27 70 1
27 79 1
27 156 1
27 183 1
27 199 1
27 200 1
27 203 1
27 225 1
27 339 1
27 388 1
27 403 1
27 474 1
27 475 1
27 476 1
27 498 1
28 5 1
28 6 1
28 14 1
28 19 1
28 45 1
28 60 1
28 85 1
28 105 1
28 112 1
28 204 1
28 292 1
28 314 1
28 377 1
28 493 1
29 9 1
29 18 1
29 20 1
29 25 1
29 49 1
29 50 1
29 103 1
29 115 1
29 215 1
29 280 1
29 344 1
30 5 1
30 7 1
30 9 1
30 12 1
30 135 1
30 180 1
30 198 1
30 218 1
30 240 1
31 5 1
31 11 1
31 17 1
31 25 1
31 48 1
31 84 1
31 87 1
31 89 1
31 101 1
31 110 1
31 137 1
31 140 1
31 271 1
31 281 1
31 372 1
32 1 1
32 4 1
32 12 1
32 25 1
32 44 1
32 106 1
32 111 1
32 129 1
32 132 1
32 184 1
32 472 1
32 478 1
33 5 1
33 6 1
33 12 1
33 22 1
33 39 1
33 46 1
33 69 1
33 71 1
33 92 1
33 110 1
33 114 1
33 119 1
33 121 1
33 123 1
33 148 1
33 182 1
33 285 1
33 317 1
33 340 1
33 386 1
33 406 1
33 409 1
33 434 1
33 465 1
33 490 1
33 495 1
34 1 1
34 4 1
34 5 1
34 6 1
34 35 1
34 67 1
34 72 1
34 105 1
34 113 1
34 157 1
34 167 1
34 170 1
34 207 1
34 256 1
34 279 1
34 299 1
34 329 1
34 362 1
34 378 1
34 385 1
34 388 1
34 407 1
34 411 1
34 438 1
34 457 1
35 4 1
35 5 1
35 9 1
35 34 1
35 36 1
35 41 1
35 45 1
35 67 1
35 92 1
35 105 1
35 109 1
35 112 1
35 118 1
35 120 1
35 126 1
35 172 1
35 208 1
35 306 1
35 311 1
35 314 1
35 404 1
35 421 1
35 429 1
35 435 1
35 464 1
35 469 1
35 471 1
36 10 1
36 12 1
36 22 1
36 35 1
36 41 1
36 67 1
36 91 1
36 135 1
36 189 1
36 208 1
36 306 1
36 311 1
36 355 1
36 442 1
37 2 1
37 4 1
37 21 1
37 24 1
37 170 1
37 196 1
37 197 1
37 269 1
37 458 1
38 4 1
38 5 1
38 9 1
38 11 1
38 48 1
38 60 1
38 213 1
38 486 1
39 18 1
39 21 1
39 24 1
39 33 1
39 42 1
39 69 1
39 114 1
39 121 1
39 151 1
39 473 1
40 1 1
40 9 1
40 13 1
40 18 1
40 53 1
40 80 1
40 231 1
40 303 1
40 373 1
41 5 1
41 12 1
41 35 1
41 36 1
41 471 1
41 499 1
42 5 1
42 13 1
42 19 1
42 39 1
42 43 1
42 57 1
42 78 1
42 138 1
42 153 1
42 181 1
42 338 1
42 351 1
42 456 1
42 492 1
43 1 1
43 18 1
43 26 1
43 42 1
43 51 1
43 65 1
43 108 1
43 174 1
43 176 1
43 187 1
43 226 1
43 245 1
43 322 1
43 332 1
43 338 1
43 341 1
43 351 1
43 368 1
43 462 1
44 1 1
44 7 1
44 27 1
44 32 1
44 46 1
44 86 1
44 88 1
44 156 1
44 160 1
44 183 1
44 203 1
44 221 1
44 224 1
44 230 1
44 245 1
44 339 1
44 369 1
45 15 1
45 18 1
45 28 1
45 35 1
45 46 1
45 47 1
45 54 1
45 86 1
45 100 1
45 122 1
45 126 1
45 134 1
45 142 1
45 155 1
45 219 1
45 294 1
45 316 1
45 323 1
45 395 1
45 442 1
45 493 1
46 17 1
46 33 1
46 44 1
46 45 1
46 121 1
46 134 1
46 167 1
46 406 1
46 472 1
47 3 1
47 9 1
47 11 1
47 45 1
47 55 1
47 173 1
47 178 1
47 201 1
47 210 1
47 278 1
47 283 1
47 332 1
47 335 1
47 367 1
47 395 1
48 9 1
48 12 1
48 31 1
48 38 1
48 62 1
48 178 1
48 215 1
48 271 1
48 278 1
48 437 1
49 3 1
49 5 1
49 12 1
49 29 1
49 50 1
49 101 1
49 130 1
49 133 1
49 164 1
49 184 1
49 264 1
49 270 1
49 280 1
49 284 1
49 413 1
49 489 1
50 2 1
50 25 1
50 29 1
50 49 1
50 101 1
50 110 1
50 117 1
50 130 1
50 131 1
50 177 1
50 212 1
50 222 1
50 236 1
50 252 1
50 266 1
50 287 1
50 296 1
50 343 1
50 353 1
50 380 1
50 446 1
50 482 1
50 496 1
51 5 1
51 12 1
51 27 1
51 43 1
51 58 1
51 81 1
51 116 1
51 138 1
51 156 1
51 226 1
51 301 1
51 400 1
52 1 1
52 11 1
52 20 1
52 24 1
52 64 1
52 145 1
52 191 1
52 249 1
52 254 1
52 398 1
52 423 1
52 500 1
53 5 1
53 9 1
53 10 1
53 40 1
53 61 1
53 85 1
53 107 1
53 154 1
53 173 1
53 184 1
53 192 1
53 308 1
53 326 1
54 4 1
54 9 1
54 16 1
54 45 1
54 90 1
54 98 1
54 100 1
54 119 1
54 122 1
54 155 1
54 261 1
54 275 1
54 382 1
54 393 1
54 400 1
54 447 1
54 481 1
54 493 1
55 2 1
55 9 1
55 25 1
55 47 1
55 80 1
55 140 1
55 173 1
55 247 1
55 370 1
55 407 1
55 431 1
55 461 1
56 2 1
56 6 1
56 8 1
56 25 1
57 8 1
57 12 1
57 17 1
57 42 1
57 76 1
57 133 1
57 143 1
57 146 1
57 163 1
57 175 1
57 176 1
57 228 1
57 265 1
57 267 1
57 354 1
57 379 1
57 417 1
57 443 1
58 4 1
58 5 1
58 12 1
58 51 1
58 75 1
58 77 1
58 81 1
58 123 1
58 136 1
58 205 1
58 260 1
58 306 1
58 415 1
58 443 1
59 2 1
59 9 1
59 10 1
59 18 1
59 61 1
59 63 1
59 78 1
59 143 1
59 152 1
59 214 1
59 229 1
59 233 1
59 246 1
59 262 1
59 472 1
60 1 1
60 2 1
60 28 1
60 38 1
60 63 1
60 82 1
60 86 1
60 94 1
60 102 1
60 149 1
60 210 1
60 216 1
60 237 1
60 241 1
60 313 1
60 363 1
60 408 1
61 14 1
61 18 1
61 53 1
61 59 1
61 298 1
62 5 1
62 9 1
62 12 1
62 48 1
62 90 1
63 1 1
63 11 1
63 59 1
63 60 1
63 82 1
63 94 1
63 95 1
63 99 1
63 161 1
63 169 1
63 174 1
63 201 1
63 250 1
63 253 1
63 359 1
63 379 1
63 395 1
64 8 1
64 13 1
64 20 1
64 52 1
64 162 1
64 289 1
65 11 1
65 20 1
65 21 1
65 43 1
65 97 1
65 103 1
65 139 1
65 166 1
65 217 1
65 296 1
66 1 1
66 15 1
66 20 1
66 22 1
66 127 1
66 160 1
66 234 1
66 373 1
66 378 1
66 442 1
67 6 1
67 34 1
67 35 1
67 36 1
67 91 1
67 107 1
67 189 1
67 208 1
67 290 1
67 339 1
67 392 1
67 455 1
67 464 1
67 495 1
68 2 1
68 12 1
68 14 1
68 20 1
68 71 1
68 83 1
68 93 1
68 96 1
68 125 1
68 131 1
68 158 1
68 181 1
68 377 1
68 399 1
69 12 1
69 18 1
69 33 1
69 39 1
69 285 1
70 1 1
70 3 1
70 18 1
70 27 1
70 77 1
70 165 1
70 288 1
70 386 1
70 404 1
70 410 1
71 2 1
71 4 1
71 33 1
71 68 1
71 91 1
71 95 1
71 157 1
72 8 1
72 18 1
72 26 1
72 34 1
73 2 1
73 21 1
73 23 1
73 26 1
73 124 1
73 196 1
73 207 1
73 277 1
73 282 1
73 324 1
73 336 1
73 376 1
73 404 1
73 420 1
73 428 1
74 5 1
74 11 1
74 20 1
74 22 1
74 139 1
74 179 1
74 217 1
74 232 1
74 250 1
74 281 1
74 348 1
74 486 1
75 2 1
75 6 1
75 14 1
75 58 1
75 77 1
75 117 1
75 136 1
75 150 1
75 163 1
75 207 1
75 252 1
75 260 1
75 305 1
75 307 1
75 310 1
75 366 1
75 458 1
75 467 1
76 9 1
76 20 1
76 25 1
76 57 1
76 82 1
76 84 1
76 93 1
76 143 1
76 145 1
76 147 1
76 166 1
76 178 1
76 186 1
76 190 1
76 202 1
76 228 1
76 230 1
76 250 1
76 311 1
76 330 1
76 332 1
76 338 1
76 406 1
76 445 1
76 497 1
77 13 1
77 58 1
77 70 1
77 75 1
77 136 1
77 163 1
77 165 1
77 383 1
77 499 1
78 5 1
78 19 1
78 42 1
78 59 1
78 152 1
78 176 1
78 243 1
78 487 1
79 1 1
79 6 1
79 17 1
79 27 1
79 221 1
79 450 1
79 498 1
80 9 1
80 18 1
80 40 1
80 55 1
80 88 1
81 5 1
81 8 1
81 51 1
81 58 1
81 120 1
81 123 1
81 394 1
81 400 1
81 417 1
82 12 1
82 60 1
82 63 1
82 76 1
82 104 1
82 132 1
82 145 1
82 146 1
82 166 1
82 168 1
82 241 1
82 261 1
82 265 1
82 280 1
82 281 1
82 300 1
82 316 1
82 324 1
82 334 1
82 345 1
82 371 1
82 376 1
82 453 1
82 482 1
82 500 1
83 6 1
83 12 1
83 68 1
83 88 1
83 96 1
83 103 1
83 158 1
83 173 1
83 180 1
83 231 1
83 259 1
83 295 1
83 348 1
83 478 1
84 12 1
84 25 1
84 31 1
84 76 1
84 179 1
84 186 1
84 209 1
84 211 1
84 227 1
84 266 1
84 290 1
84 320 1
84 330 1
85 2 1
85 9 1
85 28 1
85 53 1
86 18 1
86 44 1
86 45 1
86 60 1
86 102 1
86 104 1
86 149 1
86 305 1
86 363 1
86 389 1
86 430 1
86 493 1
87 3 1
87 5 1
87 17 1
87 31 1
87 128 1
87 159 1
87 270 1
87 277 1
87 337 1
87 363 1
87 367 1
87 488 1
88 2 1
88 44 1
88 80 1
88 83 1
88 118 1
88 461 1
89 1 1
89 11 1
89 18 1
89 31 1
89 199 1
89 283 1
89 299 1
89 352 1
90 4 1
90 6 1
90 54 1
90 62 1
90 98 1
90 215 1
90 241 1
90 275 1
90 333 1
90 370 1
90 382 1
90 399 1
90 409 1
90 439 1
90 481 1
91 2 1
91 36 1
91 67 1
91 71 1
91 115 1
91 191 1
91 220 1
91 254 1
91 387 1
91 418 1
91 419 1
92 1 1
92 5 1
92 33 1
92 35 1
92 112 1
92 119 1
92 121 1
92 164 1
92 166 1
92 232 1
92 239 1
92 302 1
92 368 1
92 405 1
92 435 1
92 483 1
93 6 1
93 12 1
93 68 1
93 76 1
93 94 1
93 111 1
93 141 1
93 171 1
93 249 1
93 303 1
93 392 1
94 5 1
94 60 1
94 63 1
94 93 1
94 303 1
94 313 1
95 1 1
95 8 1
95 63 1
95 71 1
95 106 1
95 242 1
95 322 1
96 12 1
96 26 1
96 68 1
96 83 1
96 131 1
96 159 1
96 262 1
96 288 1
96 289 1
96 377 1
96 456 1
97 20 1
97 24 1
97 65 1
97 164 1
97 272 1
97 428 1
97 437 1
98 4 1
98 5 1
98 54 1
98 90 1
98 196 1
98 258 1
98 275 1
98 333 1
98 382 1
98 399 1
98 413 1
99 5 1
99 9 1
99 10 1
99 63 1
99 169 1
99 251 1
100 1 1
100 11 1
100 45 1
100 54 1
100 122 1
100 142 1
100 150 1
100 237 1
100 282 1
100 356 1
100 391 1
100 412 1
100 485 1
100 496 1
101 17 1
101 31 1
101 49 1
101 50 1
101 195 1
101 249 1
101 452 1
102 1 1
102 15 1
102 60 1
102 86 1
103 18 1
103 29 1
103 65 1
103 83 1
103 139 1
103 158 1
103 171 1
103 213 1
103 216 1
103 280 1
103 448 1
104 9 1
104 12 1
104 82 1
104 86 1
104 124 1
104 146 1
104 172 1
104 328 1
104 335 1
104 384 1
104 444 1
104 470 1
105 2 1
105 28 1
105 34 1
105 35 1
105 113 1
105 213 1
105 246 1
105 279 1
105 314 1
105 317 1
105 321 1
105 343 1
105 347 1
105 429 1
105 464 1
106 23 1
106 25 1
106 32 1
106 95 1
106 309 1
107 6 1
107 10 1
107 53 1
107 67 1
107 251 1
108 2 1
108 9 1
108 16 1
108 43 1
108 206 1
109 2 1
109 12 1
109 18 1
109 35 1
109 172 1
109 185 1
109 206 1
109 229 1
109 328 1
109 361 1
109 434 1
109 469 1
110 11 1
110 31 1
110 33 1
110 50 1
110 140 1
110 194 1
110 272 1
110 356 1
110 370 1
110 446 1
110 475 1
111 5 1
111 12 1
111 32 1
111 93 1
111 227 1
111 239 1
111 240 1
111 371 1
111 390 1
111 407 1
111 490 1
112 11 1
112 28 1
112 35 1
112 92 1
112 119 1
113 1 1
113 6 1
113 34 1
113 105 1
113 151 1
113 174 1
113 194 1
113 203 1
113 213 1
113 232 1
113 235 1
113 293 1
113 342 1
113 356 1
113 388 1
113 411 1
113 433 1
113 459 1
114 1 1
114 22 1
114 33 1
114 39 1
114 116 1
114 149 1
114 191 1
114 212 1
114 259 1
114 333 1
114 364 1
114 376 1
114 486 1
115 2 1
115 15 1
115 29 1
115 91 1
116 1 1
116 3 1
116 51 1
116 114 1
116 239 1
116 273 1
116 337 1
116 406 1
116 480 1
117 2 1
117 25 1
117 50 1
117 75 1
117 150 1
117 193 1
117 391 1
117 460 1
118 8 1
118 12 1
118 35 1
118 88 1
118 149 1
119 33 1
119 54 1
119 92 1
119 112 1
119 488 1
120 5 1
120 18 1
120 35 1
120 81 1
120 219 1
120 394 1
121 33 1
121 39 1
121 46 1
121 92 1
121 182 1
121 186 1
121 228 1
121 255 1
121 473 1
122 11 1
122 45 1
122 54 1
122 100 1
122 128 1
122 134 1
122 144 1
122 147 1
122 201 1
122 227 1
122 273 1
122 325 1
122 384 1
123 10 1
123 33 1
123 58 1
123 81 1
123 185 1
123 205 1
123 340 1
123 441 1
124 4 1
124 5 1
124 73 1
124 104 1
124 175 1
125 6 1
125 14 1
125 18 1
125 68 1
125 310 1
125 427 1
126 1 1
126 19 1
126 35 1
126 45 1
126 243 1
126 365 1
126 424 1
126 450 1
127 6 1
127 12 1
127 26 1
127 66 1
127 190 1
127 234 1
127 244 1
127 346 1
127 398 1
127 462 1
128 5 1
128 17 1
128 87 1
128 122 1
128 274 1
128 292 1
129 4 1
129 11 1
129 19 1
129 32 1
129 132 1
129 248 1
130 3 1
130 12 1
130 49 1
130 50 1
130 165 1
130 171 1
130 194 1
130 232 1
130 238 1
130 243 1
130 256 1
130 264 1
130 288 1
130 296 1
130 301 1
130 302 1
130 323 1
130 324 1
130 327 1
130 374 1
130 387 1
130 393 1
130 402 1
130 415 1
130 422 1
131 20 1
131 50 1
131 68 1
131 96 1
131 142 1
131 181 1
131 195 1
131 225 1
131 236 1
131 331 1
131 353 1
131 364 1
131 366 1
131 470 1
132 4 1
132 32 1
132 82 1
132 129 1
132 145 1
132 168 1
132 485 1
133 12 1
133 25 1
133 49 1
133 57 1
133 187 1
133 209 1
133 284 1
133 415 1
133 426 1
133 476 1
134 2 1
134 45 1
134 46 1
134 122 1
134 167 1
134 251 1
135 5 1
135 12 1
135 30 1
135 36 1
135 137 1
135 198 1
135 263 1
135 336 1
136 18 1
136 58 1
136 75 1
136 77 1
136 286 1
137 5 1
137 15 1
137 31 1
137 135 1
137 144 1
137 263 1
137 282 1
137 305 1
137 336 1
137 398 1
137 468 1
138 5 1
138 19 1
138 42 1
138 51 1
138 181 1
138 237 1
138 247 1
138 283 1
138 342 1
138 391 1
138 422 1
138 447 1
138 487 1
139 24 1
139 65 1
139 74 1
139 103 1
139 273 1
139 281 1
139 348 1
140 25 1
140 31 1
140 55 1
140 110 1
140 242 1
140 287 1
140 370 1
140 407 1
141 5 1
141 18 1
141 19 1
141 93 1
141 220 1
141 403 1
142 15 1
142 45 1
142 100 1
142 131 1
142 308 1
143 8 1
143 57 1
143 59 1
143 76 1
143 147 1
143 267 1
143 276 1
143 350 1
143 445 1
144 2 1
144 11 1
144 122 1
144 137 1
144 263 1
145 52 1
145 76 1
145 82 1
145 132 1
145 334 1
145 500 1
146 1 1
146 57 1
146 82 1
146 104 1
146 265 1
146 294 1
146 303 1
146 318 1
146 358 1
147 20 1
147 76 1
147 122 1
147 143 1
147 170 1
147 178 1
147 222 1
147 313 1
147 350 1
147 402 1
148 1 1
148 2 1
148 12 1
148 33 1
149 60 1
149 86 1
149 114 1
149 118 1
149 305 1
150 75 1
150 100 1
150 117 1
150 157 1
150 391 1
150 496 1
151 1 1
151 2 1
151 39 1
151 113 1
151 293 1
152 5 1
152 18 1
152 59 1
152 78 1
152 284 1
153 2 1
153 5 1
153 6 1
153 42 1
153 156 1
153 180 1
153 210 1
153 279 1
154 6 1
154 18 1
154 20 1
154 53 1
154 188 1
154 216 1
154 220 1
154 257 1
154 326 1
154 358 1
154 448 1
154 449 1
154 470 1
155 22 1
155 25 1
155 45 1
155 54 1
155 197 1
155 294 1
156 27 1
156 44 1
156 51 1
156 153 1
156 225 1
156 226 1
156 268 1
156 295 1
156 327 1
157 4 1
157 34 1
157 71 1
157 150 1
157 385 1
157 421 1
158 18 1
158 68 1
158 83 1
158 103 1
159 18 1
159 20 1
159 87 1
159 96 1
159 255 1
160 12 1
160 20 1
160 44 1
160 66 1
160 169 1
160 224 1
161 4 1
161 5 1
161 19 1
161 63 1
161 334 1
162 2 1
162 4 1
162 12 1
162 64 1
162 248 1
162 357 1
162 463 1
163 1 1
163 57 1
163 75 1
163 77 1
163 175 1
163 427 1
163 499 1
164 20 1
164 49 1
164 92 1
164 97 1
164 217 1
164 329 1
164 362 1
165 12 1
165 70 1
165 77 1
165 130 1
165 212 1
165 383 1
166 65 1
166 76 1
166 82 1
166 92 1
166 177 1
166 230 1
166 439 1
167 13 1
167 34 1
167 46 1
167 134 1
168 4 1
168 17 1
168 82 1
168 132 1
169 11 1
169 63 1
169 99 1
169 160 1
170 4 1
170 34 1
170 37 1
170 147 1
170 325 1
170 365 1
171 12 1
171 93 1
171 103 1
171 130 1
171 223 1
171 360 1
172 9 1
172 35 1
172 104 1
172 109 1
172 197 1
172 230 1
172 328 1
172 434 1
173 47 1
173 53 1
173 55 1
173 83 1
173 215 1
173 341 1
174 1 1
174 43 1
174 63 1
174 113 1
175 5 1
175 57 1
175 124 1
175 163 1
176 11 1
176 43 1
176 57 1
176 78 1
176 187 1
176 202 1
176 221 1
176 238 1
176 458 1
176 466 1
177 5 1
177 10 1
177 50 1
177 166 1
177 252 1
178 47 1
178 48 1
178 76 1
178 147 1
178 278 1
178 313 1
178 332 1
178 349 1
178 403 1
179 5 1
179 20 1
179 74 1
179 84 1
179 433 1
180 5 1
180 30 1
180 83 1
180 153 1
180 238 1
181 42 1
181 68 1
181 131 1
181 138 1
181 185 1
181 283 1
181 372 1
181 375 1
181 420 1
182 2 1
182 12 1
182 33 1
182 121 1
183 18 1
183 19 1
183 27 1
183 44 1
183 234 1
183 297 1
184 11 1
184 32 1
184 49 1
184 53 1
184 205 1
185 2 1
185 109 1
185 123 1
185 181 1
186 1 1
186 76 1
186 84 1
186 121 1
186 255 1
186 320 1
187 1 1
187 43 1
187 133 1
187 176 1
187 202 1
187 344 1
187 451 1
188 1 1
188 18 1
188 20 1
188 154 1
188 193 1
188 257 1
188 298 1
188 414 1
188 465 1
189 6 1
189 20 1
189 36 1
189 67 1
190 6 1
190 9 1
190 76 1
190 127 1
190 392 1
191 1 1
191 52 1
191 91 1
191 114 1
191 299 1
191 449 1
192 5 1
192 12 1
192 24 1
192 53 1
193 20 1
193 24 1
193 117 1
193 188 1
193 410 1
193 460 1
193 466 1
194 18 1
194 110 1
194 113 1
194 130 1
194 203 1
194 301 1
195 1 1
195 7 1
195 101 1
195 131 1
195 318 1
195 331 1
195 341 1
195 346 1
195 347 1
195 351 1
196 4 1
196 37 1
196 73 1
196 98 1
196 197 1
196 214 1
196 221 1
196 415 1
197 37 1
197 155 1
197 172 1
197 196 1
198 1 1
198 12 1
198 30 1
198 135 1
198 204 1
198 358 1
199 1 1
199 5 1
199 27 1
199 89 1
199 386 1
199 479 1
200 1 1
200 18 1
200 22 1
200 27 1
201 11 1
201 47 1
201 63 1
201 122 1
201 250 1
201 404 1
202 1 1
202 76 1
202 176 1
202 187 1
203 27 1
203 44 1
203 113 1
203 194 1
203 247 1
203 322 1
203 476 1
204 6 1
204 18 1
204 28 1
204 198 1
205 11 1
205 58 1
205 123 1
205 184 1
205 419 1
206 2 1
206 10 1
206 108 1
206 109 1
207 5 1
207 34 1
207 73 1
207 75 1
207 329 1
207 355 1
207 362 1
208 6 1
208 35 1
208 36 1
208 67 1
208 468 1
209 4 1
209 25 1
209 84 1
209 133 1
209 236 1
209 268 1
209 364 1
209 426 1
209 466 1
210 2 1
210 47 1
210 60 1
210 153 1
211 9 1
211 17 1
211 25 1
211 84 1
211 223 1
211 224 1
211 266 1
211 287 1
212 2 1
212 50 1
212 114 1
212 165 1
212 276 1
212 296 1
212 320 1
212 343 1
212 354 1
212 455 1
213 38 1
213 103 1
213 105 1
213 113 1
213 235 1
213 246 1
213 261 1
213 347 1
213 360 1
213 429 1
213 468 1
214 9 1
214 18 1
214 59 1
214 196 1
214 291 1
215 29 1
215 48 1
215 90 1
215 173 1
215 241 1
215 359 1
215 375 1
215 383 1
215 481 1
216 18 1
216 60 1
216 103 1
216 154 1
216 326 1
217 20 1
217 65 1
217 74 1
217 164 1
218 8 1
218 9 1
218 14 1
218 30 1
218 390 1
218 416 1
218 474 1
219 1 1
219 18 1
219 45 1
219 120 1
219 311 1
220 5 1
220 91 1
220 141 1
220 154 1
220 257 1
220 326 1
220 418 1
220 440 1
221 44 1
221 79 1
221 176 1
221 196 1
221 489 1
222 3 1
222 20 1
222 50 1
222 147 1
222 274 1
222 350 1
222 353 1
222 380 1
222 425 1
222 496 1
223 17 1
223 21 1
223 171 1
223 211 1
224 17 1
224 44 1
224 160 1
224 211 1
225 11 1
225 27 1
225 131 1
225 156 1
225 268 1
225 269 1
225 336 1
225 366 1
225 423 1
225 450 1
225 463 1
225 495 1
226 5 1
226 43 1
226 51 1
226 156 1
226 271 1
226 277 1
226 295 1
226 361 1
226 414 1
226 425 1
226 491 1
227 12 1
227 84 1
227 111 1
227 122 1
227 240 1
227 290 1
228 20 1
228 57 1
228 76 1
228 121 1
228 267 1
229 2 1
229 9 1
229 59 1
229 109 1
229 337 1
229 347 1
230 44 1
230 76 1
230 166 1
230 172 1
231 9 1
231 12 1
231 40 1
231 83 1
231 320 1
232 74 1
232 92 1
232 113 1
232 130 1
232 346 1
233 5 1
233 9 1
233 15 1
233 59 1
233 291 1
233 437 1
234 19 1
234 66 1
234 127 1
234 183 1
234 242 1
234 297 1
235 1 1
235 4 1
235 113 1
235 213 1
235 300 1
235 373 1
236 2 1
236 50 1
236 131 1
236 209 1
236 261 1
236 300 1
236 380 1
236 431 1
236 469 1
237 20 1
237 60 1
237 100 1
237 138 1
237 342 1
237 356 1
237 490 1
238 11 1
238 130 1
238 176 1
238 180 1
238 436 1
239 5 1
239 92 1
239 111 1
239 116 1
239 245 1
239 368 1
240 9 1
240 30 1
240 111 1
240 227 1
240 484 1
241 60 1
241 82 1
241 90 1
241 215 1
241 258 1
241 315 1
241 359 1
241 375 1
241 421 1
242 2 1
242 95 1
242 140 1
242 234 1
242 297 1
242 369 1
242 396 1
243 19 1
243 78 1
243 126 1
243 130 1
244 2 1
244 7 1
244 18 1
244 127 1
244 271 1
245 4 1
245 43 1
245 44 1
245 239 1
245 380 1
246 18 1
246 59 1
246 105 1
246 213 1
247 5 1
247 55 1
247 138 1
247 203 1
247 487 1
248 2 1
248 12 1
248 129 1
248 162 1
248 397 1
248 491 1
249 11 1
249 52 1
249 93 1
249 101 1
249 482 1
250 63 1
250 74 1
250 76 1
250 201 1
250 306 1
250 414 1
250 452 1
251 10 1
251 99 1
251 107 1
251 134 1
251 253 1
252 18 1
252 50 1
252 75 1
252 177 1
253 5 1
253 8 1
253 63 1
253 251 1
253 381 1
253 495 1
254 1 1
254 6 1
254 52 1
254 91 1
254 397 1
255 18 1
255 121 1
255 159 1
255 186 1
255 273 1
256 3 1
256 6 1
256 34 1
256 130 1
256 402 1
257 18 1
257 154 1
257 188 1
257 220 1
258 5 1
258 10 1
258 98 1
258 241 1
258 315 1
258 413 1
259 9 1
259 22 1
259 83 1
259 114 1
259 291 1
260 1 1
260 12 1
260 58 1
260 75 1
261 54 1
261 82 1
261 213 1
261 236 1
261 316 1
261 477 1
262 3 1
262 18 1
262 59 1
262 96 1
262 375 1
263 5 1
263 135 1
263 137 1
263 144 1
264 3 1
264 17 1
264 49 1
264 130 1
264 276 1
264 327 1
265 1 1
265 57 1
265 82 1
265 146 1
265 318 1
265 454 1
265 461 1
266 9 1
266 50 1
266 84 1
266 211 1
266 322 1
266 330 1
266 343 1
266 353 1
266 487 1
267 8 1
267 57 1
267 143 1
267 228 1
267 276 1
267 315 1
267 339 1
267 397 1
268 25 1
268 156 1
268 209 1
268 225 1
268 295 1
268 360 1
268 475 1
269 18 1
269 20 1
269 37 1
269 225 1
270 2 1
270 3 1
270 49 1
270 87 1
270 367 1
270 463 1
271 31 1
271 48 1
271 226 1
271 244 1
271 312 1
271 361 1
271 466 1
272 2 1
272 6 1
272 97 1
272 110 1
273 116 1
273 122 1
273 139 1
273 255 1
274 3 1
274 20 1
274 128 1
274 222 1
274 292 1
274 349 1
274 405 1
274 440 1
274 453 1
275 16 1
275 54 1
275 90 1
275 98 1
275 382 1
275 409 1
276 143 1
276 212 1
276 264 1
276 267 1
276 315 1
276 477 1
277 18 1
277 73 1
277 87 1
277 226 1
277 301 1
277 459 1
278 2 1
278 47 1
278 48 1
278 178 1
279 5 1
279 34 1
279 105 1
279 153 1
279 314 1
280 29 1
280 49 1
280 82 1
280 103 1
281 31 1
281 74 1
281 82 1
281 139 1
282 2 1
282 73 1
282 100 1
282 137 1
282 324 1
282 387 1
283 47 1
283 89 1
283 138 1
283 181 1
283 372 1
284 5 1
284 49 1
284 133 1
284 152 1
284 304 1
285 12 1
285 22 1
285 33 1
285 69 1
286 3 1
286 17 1
286 18 1
286 136 1
287 25 1
287 50 1
287 140 1
287 211 1
288 12 1
288 70 1
288 96 1
288 130 1
288 327 1
289 3 1
289 4 1
289 64 1
289 96 1
289 456 1
290 17 1
290 67 1
290 84 1
290 227 1
290 366 1
291 9 1
291 214 1
291 233 1
291 259 1
292 6 1
292 28 1
292 128 1
292 274 1
292 310 1
292 457 1
293 2 1
293 18 1
293 113 1
293 151 1
293 317 1
293 342 1
294 22 1
294 45 1
294 146 1
294 155 1
295 83 1
295 156 1
295 226 1
295 268 1
296 50 1
296 65 1
296 130 1
296 212 1
296 323 1
297 19 1
297 183 1
297 234 1
297 242 1
298 12 1
298 18 1
298 61 1
298 188 1
299 1 1
299 34 1
299 89 1
299 191 1
299 300 1
299 304 1
299 319 1
299 385 1
299 389 1
299 428 1
300 82 1
300 235 1
300 236 1
300 299 1
300 308 1
300 345 1
300 477 1
301 51 1
301 130 1
301 194 1
301 277 1
301 338 1
301 416 1
301 418 1
301 459 1
302 1 1
302 6 1
302 92 1
302 130 1
302 368 1
302 451 1
302 498 1
303 40 1
303 93 1
303 94 1
303 146 1
304 1 1
304 12 1
304 284 1
304 299 1
305 75 1
305 86 1
305 137 1
305 149 1
306 35 1
306 36 1
306 58 1
306 250 1
306 355 1
306 414 1
306 435 1
306 452 1
306 494 1
307 4 1
307 21 1
307 23 1
307 75 1
307 335 1
308 5 1
308 53 1
308 142 1
308 300 1
309 12 1
309 22 1
309 23 1
309 106 1
310 14 1
310 75 1
310 125 1
310 292 1
311 35 1
311 36 1
311 76 1
311 219 1
312 1 1
312 4 1
312 5 1
312 271 1
312 497 1
313 60 1
313 94 1
313 147 1
313 178 1
313 402 1
313 455 1
314 28 1
314 35 1
314 105 1
314 279 1
315 241 1
315 258 1
315 267 1
315 276 1
316 12 1
316 45 1
316 82 1
316 261 1
317 2 1
317 33 1
317 105 1
317 293 1
317 429 1
317 464 1
318 3 1
318 146 1
318 195 1
318 265 1
318 321 1
318 331 1
318 454 1
319 9 1
319 12 1
319 17 1
319 299 1
319 401 1
320 84 1
320 186 1
320 212 1
320 231 1
320 401 1
320 442 1
321 3 1
321 9 1
321 105 1
321 318 1
322 43 1
322 95 1
322 203 1
322 266 1
322 351 1
322 383 1
322 412 1
323 2 1
323 45 1
323 130 1
323 296 1
323 384 1
323 389 1
324 73 1
324 82 1
324 130 1
324 282 1
324 482 1
325 8 1
325 11 1
325 122 1
325 170 1
325 432 1
326 53 1
326 154 1
326 216 1
326 220 1
327 130 1
327 156 1
327 264 1
327 288 1
328 9 1
328 104 1
328 109 1
328 172 1
329 5 1
329 34 1
329 164 1
329 207 1
329 362 1
329 374 1
329 438 1
330 12 1
330 76 1
330 84 1
330 266 1
331 1 1
331 131 1
331 195 1
331 318 1
332 43 1
332 47 1
332 76 1
332 178 1
333 22 1
333 90 1
333 98 1
333 114 1
333 376 1
333 420 1
333 432 1
334 19 1
334 82 1
334 145 1
334 161 1
334 500 1
335 9 1
335 47 1
335 104 1
335 307 1
335 403 1
335 484 1
336 73 1
336 135 1
336 137 1
336 225 1
336 420 1
337 9 1
337 87 1
337 116 1
337 229 1
337 411 1
337 488 1
338 42 1
338 43 1
338 76 1
338 301 1
338 379 1
339 27 1
339 44 1
339 67 1
339 267 1
339 489 1
340 6 1
340 12 1
340 33 1
340 123 1
340 441 1
341 1 1
341 43 1
341 173 1
341 195 1
342 113 1
342 138 1
342 237 1
342 293 1
342 422 1
343 50 1
343 105 1
343 212 1
343 266 1
343 349 1
343 446 1
344 1 1
344 20 1
344 29 1
344 187 1
345 11 1
345 12 1
345 82 1
345 300 1
345 423 1
345 430 1
346 7 1
346 127 1
346 195 1
346 232 1
346 430 1
347 105 1
347 195 1
347 213 1
347 229 1
348 12 1
348 74 1
348 83 1
348 139 1
348 412 1
349 22 1
349 178 1
349 274 1
349 343 1
349 435 1
349 468 1
349 494 1
350 18 1
350 143 1
350 147 1
350 222 1
351 42 1
351 43 1
351 195 1
351 322 1
352 4 1
352 5 1
352 16 1
352 89 1
353 50 1
353 131 1
353 222 1
353 266 1
354 1 1
354 8 1
354 57 1
354 212 1
354 396 1
355 4 1
355 36 1
355 207 1
355 306 1
356 100 1
356 110 1
356 113 1
356 237 1
357 4 1
357 11 1
357 12 1
357 162 1
357 455 1
358 8 1
358 146 1
358 154 1
358 198 1
359 1 1
359 63 1
359 215 1
359 241 1
360 20 1
360 171 1
360 213 1
360 268 1
361 1 1
361 109 1
361 226 1
361 271 1
362 34 1
362 164 1
362 207 1
362 329 1
363 8 1
363 60 1
363 86 1
363 87 1
363 408 1
363 424 1
364 25 1
364 114 1
364 131 1
364 209 1
365 4 1
365 19 1
365 126 1
365 170 1
366 75 1
366 131 1
366 225 1
366 290 1
366 379 1
366 405 1
367 3 1
367 47 1
367 87 1
367 270 1
367 492 1
368 43 1
368 92 1
368 239 1
368 302 1
368 498 1
369 2 1
369 26 1
369 44 1
369 242 1
370 55 1
370 90 1
370 110 1
370 140 1
370 374 1
370 398 1
370 431 1
370 481 1
371 9 1
371 12 1
371 82 1
371 111 1
371 444 1
371 453 1
372 26 1
372 31 1
372 181 1
372 283 1
372 438 1
372 445 1
373 1 1
373 40 1
373 66 1
373 235 1
374 5 1
374 130 1
374 329 1
374 370 1
375 181 1
375 215 1
375 241 1
375 262 1
376 73 1
376 82 1
376 114 1
376 333 1
377 12 1
377 28 1
377 68 1
377 96 1
378 4 1
378 8 1
378 34 1
378 66 1
378 457 1
378 467 1
379 57 1
379 63 1
379 338 1
379 366 1
379 392 1
379 448 1
380 50 1
380 222 1
380 236 1
380 245 1
380 431 1
381 9 1
381 13 1
381 19 1
381 253 1
382 54 1
382 90 1
382 98 1
382 275 1
382 413 1
382 458 1
383 77 1
383 165 1
383 215 1
383 322 1
384 2 1
384 104 1
384 122 1
384 323 1
385 1 1
385 34 1
385 157 1
385 299 1
385 421 1
385 451 1
385 457 1
385 489 1
386 1 1
386 33 1
386 70 1
386 199 1
386 490 1
387 25 1
387 91 1
387 130 1
387 282 1
387 401 1
388 17 1
388 27 1
388 34 1
388 113 1
389 18 1
389 86 1
389 299 1
389 323 1
389 471 1
390 5 1
390 9 1
390 111 1
390 218 1
391 100 1
391 117 1
391 138 1
391 150 1
391 422 1
392 67 1
392 93 1
392 190 1
392 379 1
393 6 1
393 10 1
393 54 1
393 130 1
394 5 1
394 8 1
394 81 1
394 120 1
395 2 1
395 45 1
395 47 1
395 63 1
396 9 1
396 10 1
396 242 1
396 354 1
397 1 1
397 248 1
397 254 1
397 267 1
398 52 1
398 127 1
398 137 1
398 370 1
399 4 1
399 68 1
399 90 1
399 98 1
400 1 1
400 51 1
400 54 1
400 81 1
401 9 1
401 319 1
401 320 1
401 387 1
401 438 1
401 440 1
402 130 1
402 147 1
402 256 1
402 313 1
402 479 1
403 27 1
403 141 1
403 178 1
403 335 1
404 35 1
404 70 1
404 73 1
404 201 1
404 436 1
405 20 1
405 92 1
405 274 1
405 366 1
405 483 1
406 33 1
406 46 1
406 76 1
406 116 1
407 34 1
407 55 1
407 111 1
407 140 1
408 11 1
408 12 1
408 60 1
408 363 1
409 4 1
409 33 1
409 90 1
409 275 1
410 20 1
410 21 1
410 70 1
410 193 1
410 460 1
411 5 1
411 34 1
411 113 1
411 337 1
412 1 1
412 100 1
412 322 1
412 348 1
413 49 1
413 98 1
413 258 1
413 382 1
414 188 1
414 226 1
414 250 1
414 306 1
414 419 1
414 425 1
414 430 1
414 452 1
414 473 1
414 491 1
414 497 1
415 58 1
415 130 1
415 133 1
415 196 1
416 9 1
416 14 1
416 218 1
416 301 1
417 21 1
417 24 1
417 57 1
417 81 1
418 10 1
418 91 1
418 220 1
418 301 1
419 1 1
419 91 1
419 205 1
419 414 1
420 73 1
420 181 1
420 333 1
420 336 1
421 35 1
421 157 1
421 241 1
421 385 1
422 130 1
422 138 1
422 342 1
422 391 1
422 447 1
422 473 1
423 11 1
423 52 1
423 225 1
423 345 1
424 8 1
424 9 1
424 126 1
424 363 1
425 3 1
425 222 1
425 226 1
425 414 1
425 491 1
426 4 1
426 25 1
426 133 1
426 209 1
427 1 1
427 18 1
427 125 1
427 163 1
428 20 1
428 73 1
428 97 1
428 299 1
428 470 1
429 35 1
429 105 1
429 213 1
429 317 1
429 492 1
430 86 1
430 345 1
430 346 1
430 414 1
431 55 1
431 236 1
431 370 1
431 380 1
432 11 1
432 12 1
432 325 1
432 333 1
433 5 1
433 18 1
433 113 1
433 179 1
434 12 1
434 33 1
434 109 1
434 172 1
435 35 1
435 92 1
435 306 1
435 349 1
435 483 1
435 494 1
436 2 1
436 11 1
436 238 1
436 404 1
437 9 1
437 48 1
437 97 1
437 233 1
438 34 1
438 329 1
438 372 1
438 401 1
439 8 1
439 19 1
439 90 1
439 166 1
440 20 1
440 220 1
440 274 1
440 401 1
441 6 1
441 12 1
441 123 1
441 340 1
442 36 1
442 45 1
442 66 1
442 320 1
443 6 1
443 14 1
443 57 1
443 58 1
444 9 1
444 10 1
444 104 1
444 371 1
445 26 1
445 76 1
445 143 1
445 372 1
446 12 1
446 50 1
446 110 1
446 343 1
447 9 1
447 54 1
447 138 1
447 422 1
448 22 1
448 103 1
448 154 1
448 379 1
448 465 1
449 6 1
449 15 1
449 154 1
449 191 1
450 1 1
450 79 1
450 126 1
450 225 1
451 1 1
451 187 1
451 302 1
451 385 1
452 101 1
452 250 1
452 306 1
452 414 1
453 9 1
453 82 1
453 274 1
453 371 1
454 1 1
454 9 1
454 265 1
454 318 1
454 479 1
455 67 1
455 212 1
455 313 1
455 357 1
456 4 1
456 42 1
456 96 1
456 289 1
457 34 1
457 292 1
457 378 1
457 385 1
458 37 1
458 75 1
458 176 1
458 382 1
459 5 1
459 113 1
459 277 1
459 301 1
460 24 1
460 117 1
460 193 1
460 410 1
461 2 1
461 55 1
461 88 1
461 265 1
462 11 1
462 26 1
462 43 1
462 127 1
463 2 1
463 162 1
463 225 1
463 270 1
464 35 1
464 67 1
464 105 1
464 317 1
465 22 1
465 33 1
465 188 1
465 448 1
466 176 1
466 193 1
466 209 1
466 271 1
467 4 1
467 14 1
467 75 1
467 378 1
468 137 1
468 208 1
468 213 1
468 349 1
469 1 1
469 35 1
469 109 1
469 236 1
470 104 1
470 131 1
470 154 1
470 428 1
471 18 1
471 35 1
471 41 1
471 389 1
472 1 1
472 32 1
472 46 1
472 59 1
473 39 1
473 121 1
473 414 1
473 422 1
474 5 1
474 21 1
474 27 1
474 218 1
474 483 1
474 488 1
475 18 1
475 27 1
475 110 1
475 268 1
476 11 1
476 27 1
476 133 1
476 203 1
477 1 1
477 261 1
477 276 1
477 300 1
478 4 1
478 6 1
478 32 1
478 83 1
479 1 1
479 199 1
479 402 1
479 454 1
479 480 1
480 1 1
480 4 1
480 116 1
480 479 1
481 54 1
481 90 1
481 215 1
481 370 1
482 50 1
482 82 1
482 249 1
482 324 1
483 92 1
483 405 1
483 435 1
483 474 1
484 12 1
484 18 1
484 240 1
484 335 1
485 3 1
485 16 1
485 100 1
485 132 1
486 11 1
486 38 1
486 74 1
486 114 1
487 78 1
487 138 1
487 247 1
487 266 1
488 87 1
488 119 1
488 337 1
488 474 1
489 49 1
489 221 1
489 339 1
489 385 1
490 33 1
490 111 1
490 237 1
490 386 1
491 226 1
491 248 1
491 414 1
491 425 1
492 19 1
492 42 1
492 367 1
492 429 1
493 28 1
493 45 1
493 54 1
493 86 1
494 12 1
494 306 1
494 349 1
494 435 1
495 33 1
495 67 1
495 225 1
495 253 1
496 50 1
496 100 1
496 150 1
496 222 1
497 11 1
497 76 1
497 312 1
497 414 1
498 27 1
498 79 1
498 302 1
498 368 1
499 12 1
499 41 1
499 77 1
499 163 1
500 52 1
500 82 1
500 145 1
500 334 1
