%%MatrixMarket matrix coordinate integer general
1 5 1
1 6 1
1 7 1
1 8 1
1 9 1
1 10 1
1 11 1
1 12 1
1 14 1
1 16 1
1 17 1
1 21 1
1 23 1
1 29 1
1 30 1
1 31 1
1 35 1
1 36 1
1 41 1
1 60 1
1 90 1
1 91 1
1 100 1
1 107 1
1 132 1
1 155 1
1 164 1
1 181 1
1 195 1
1 221 1
1 231 1
1 235 1
1 245 1
1 257 1
1 287 1
1 288 1
1 296 1
1 308 1
1 312 1
1 314 1
1 315 1
1 333 1
1 355 1
1 366 1
1 371 1
1 395 1
1 424 1
1 443 1
1 454 1
1 462 1
1 482 1
1 487 1
1 499 1
1 551 1
1 599 1
1 621 1
1 701 1
1 709 1
1 813 1
1 825 1
1 827 1
2 5 1
2 8 1
2 180 1
2 297 1
2 341 1
2 690 1
2 768 1
2 948 1
3 5 1
3 6 1
3 7 1
3 9 1
3 10 1
3 11 1
3 18 1
3 20 1
3 27 1
3 31 1
3 33 1
3 39 1
3 42 1
3 55 1
3 64 1
3 67 1
3 71 1
3 79 1
3 85 1
3 86 1
3 97 1
3 109 1
3 111 1
3 118 1
3 133 1
3 139 1
3 142 1
3 145 1
3 160 1
3 161 1
3 214 1
3 242 1
3 266 1
3 281 1
3 289 1
3 312 1
3 316 1
3 321 1
3 327 1
3 331 1
3 334 1
3 363 1
3 378 1
3 380 1
3 391 1
3 417 1
3 427 1
3 434 1
3 438 1
3 444 1
3 470 1
3 484 1
3 507 1
3 511 1
3 532 1
3 541 1
3 584 1
3 617 1
3 619 1
3 635 1
3 656 1
3 686 1
3 704 1
3 710 1
3 725 1
3 728 1
3 739 1
3 740 1
3 750 1
3 751 1
3 756 1
3 767 1
3 808 1
3 818 1
3 826 1
3 827 1
3 864 1
3 871 1
3 906 1
3 909 1
3 912 1
3 922 1
3 955 1
3 976 1
3 981 1
3 988 1
4 5 1
4 6 1
4 7 1
4 8 1
4 9 1
4 12 1
4 13 1
4 18 1
4 19 1
4 25 1
4 26 1
4 27 1
4 28 1
4 29 1
4 31 1
4 32 1
4 35 1
4 36 1
4 38 1
4 41 1
4 43 1
4 46 1
4 49 1
4 50 1
4 52 1
4 54 1
4 55 1
4 59 1
4 61 1
4 65 1
4 74 1
4 79 1
4 80 1
4 89 1
4 95 1
4 105 1
4 106 1
4 114 1
4 123 1
4 124 1
4 135 1
4 166 1
4 172 1
4 178 1
4 184 1
4 186 1
4 190 1
4 201 1
4 204 1
4 206 1
4 207 1
4 209 1
4 210 1
4 230 1
4 234 1
4 261 1
4 276 1
4 312 1
4 316 1
4 347 1
4 361 1
4 369 1
4 375 1
4 386 1
4 388 1
4 394 1
4 413 1
4 429 1
4 457 1
4 463 1
4 504 1
4 509 1
4 525 1
4 559 1
4 562 1
4 571 1
4 578 1
4 600 1
4 608 1
4 610 1
4 615 1
4 623 1
4 645 1
4 648 1
4 654 1
4 669 1
4 689 1
4 718 1
4 734 1
4 762 1
4 774 1
4 788 1
4 789 1
4 833 1
4 850 1
4 891 1
4 892 1
4 914 1
4 944 1
4 951 1
4 968 1
4 971 1
4 994 1
5 1 1
5 2 1
5 3 1
5 4 1
5 6 1
5 8 1
5 9 1
5 11 1
5 13 1
5 15 1
5 20 1
5 38 1
5 40 1
5 54 1
5 57 1
5 91 1
5 104 1
5 105 1
5 126 1
5 130 1
5 138 1
5 145 1
5 161 1
5 180 1
5 182 1
5 192 1
5 197 1
5 203 1
5 220 1
5 236 1
5 267 1
5 303 1
5 382 1
5 386 1
5 391 1
5 449 1
5 450 1
5 482 1
5 489 1
5 494 1
5 498 1
5 500 1
5 534 1
5 572 1
5 593 1
5 617 1
5 648 1
5 670 1
5 746 1
5 762 1
5 799 1
5 813 1
5 834 1
5 854 1
5 902 1
5 904 1
5 928 1
6 1 1
6 3 1
6 4 1
6 5 1
6 7 1
6 14 1
6 15 1
6 24 1
6 25 1
6 27 1
6 48 1
6 63 1
6 93 1
6 139 1
6 150 1
6 172 1
6 182 1
6 216 1
6 220 1
6 267 1
6 270 1
6 281 1
6 308 1
6 360 1
6 449 1
6 512 1
6 520 1
6 530 1
6 633 1
6 656 1
6 681 1
6 689 1
6 833 1
7 1 1
7 3 1
7 4 1
7 6 1
7 10 1
7 11 1
7 13 1
7 14 1
7 23 1
7 49 1
7 90 1
7 107 1
7 110 1
7 119 1
7 150 1
7 220 1
7 367 1
7 392 1
7 421 1
7 470 1
7 474 1
7 599 1
7 924 1
7 939 1
8 1 1
8 2 1
8 4 1
8 5 1
8 12 1
8 16 1
8 32 1
8 37 1
8 40 1
8 180 1
8 195 1
8 263 1
8 369 1
8 404 1
8 407 1
8 411 1
8 448 1
8 628 1
8 694 1
8 742 1
8 878 1
9 1 1
9 3 1
9 4 1
9 5 1
9 10 1
9 12 1
9 17 1
9 24 1
9 30 1
9 33 1
9 34 1
9 42 1
9 49 1
9 53 1
9 58 1
9 61 1
9 66 1
9 74 1
9 87 1
9 94 1
9 101 1
9 111 1
9 121 1
9 129 1
9 142 1
9 143 1
9 147 1
9 157 1
9 160 1
9 184 1
9 185 1
9 190 1
9 203 1
9 205 1
9 238 1
9 239 1
9 254 1
9 263 1
9 264 1
9 271 1
9 298 1
9 302 1
9 328 1
9 330 1
9 333 1
9 336 1
9 337 1
9 350 1
9 355 1
9 383 1
9 397 1
9 399 1
9 402 1
9 408 1
9 419 1
9 429 1
9 454 1
9 475 1
9 495 1
9 510 1
9 520 1
9 523 1
9 531 1
9 533 1
9 545 1
9 569 1
9 605 1
9 655 1
9 670 1
9 677 1
9 684 1
9 688 1
9 696 1
9 755 1
9 767 1
9 813 1
9 820 1
9 830 1
9 834 1
9 837 1
9 844 1
9 867 1
9 899 1
9 911 1
9 912 1
9 914 1
9 915 1
9 938 1
9 942 1
9 980 1
9 986 1
9 988 1
9 991 1
9 992 1
10 1 1
10 3 1
10 7 1
10 9 1
10 16 1
10 17 1
10 35 1
10 96 1
10 97 1
10 102 1
10 106 1
10 123 1
10 132 1
10 177 1
10 290 1
10 299 1
10 499 1
10 549 1
10 761 1
10 804 1
10 813 1
10 853 1
10 881 1
10 913 1
10 935 1
11 1 1
11 3 1
11 5 1
11 7 1
11 13 1
11 15 1
11 16 1
11 18 1
11 19 1
11 20 1
11 22 1
11 24 1
11 25 1
11 28 1
11 29 1
11 34 1
11 37 1
11 39 1
11 44 1
11 51 1
11 69 1
11 72 1
11 87 1
11 96 1
11 99 1
11 110 1
11 112 1
11 117 1
11 138 1
11 140 1
11 146 1
11 148 1
11 149 1
11 151 1
11 153 1
11 175 1
11 179 1
11 215 1
11 222 1
11 224 1
11 228 1
11 231 1
11 246 1
11 249 1
11 275 1
11 283 1
11 301 1
11 320 1
11 325 1
11 342 1
11 354 1
11 358 1
11 379 1
11 392 1
11 452 1
11 466 1
11 489 1
11 493 1
11 532 1
11 599 1
11 600 1
11 614 1
11 619 1
11 628 1
11 637 1
11 652 1
11 659 1
11 719 1
11 734 1
11 741 1
11 742 1
11 760 1
11 771 1
11 784 1
11 799 1
11 804 1
11 805 1
11 809 1
11 840 1
11 871 1
11 885 1
11 898 1
11 902 1
11 903 1
11 919 1
11 924 1
11 940 1
11 981 1
11 982 1
11 995 1
12 1 1
12 4 1
12 8 1
12 9 1
12 21 1
12 29 1
12 33 1
12 39 1
12 53 1
12 56 1
12 58 1
12 61 1
12 65 1
12 66 1
12 71 1
12 73 1
12 77 1
12 82 1
12 100 1
12 103 1
12 104 1
12 109 1
12 141 1
12 159 1
12 166 1
12 183 1
12 195 1
12 199 1
12 200 1
12 254 1
12 324 1
12 332 1
12 338 1
12 353 1
12 369 1
12 403 1
12 404 1
12 419 1
12 427 1
12 439 1
12 444 1
12 451 1
12 462 1
12 467 1
12 501 1
12 502 1
12 504 1
12 509 1
12 597 1
12 652 1
12 672 1
12 675 1
12 692 1
12 698 1
12 745 1
12 787 1
12 812 1
12 815 1
12 832 1
12 833 1
12 847 1
12 850 1
12 910 1
12 931 1
12 947 1
12 962 1
12 979 1
13 4 1
13 5 1
13 7 1
13 11 1
13 14 1
13 23 1
13 32 1
13 49 1
13 59 1
13 63 1
13 76 1
13 99 1
13 154 1
13 201 1
13 236 1
13 307 1
13 374 1
13 388 1
13 476 1
13 589 1
13 645 1
14 1 1
14 6 1
14 7 1
14 13 1
14 18 1
14 22 1
14 57 1
14 77 1
14 130 1
14 147 1
14 181 1
14 189 1
14 249 1
14 258 1
14 286 1
14 350 1
14 388 1
14 403 1
14 409 1
14 435 1
14 576 1
14 586 1
14 607 1
14 633 1
14 660 1
14 697 1
14 723 1
14 732 1
14 772 1
14 939 1
15 5 1
15 6 1
15 11 1
15 19 1
15 23 1
15 34 1
15 38 1
15 54 1
15 78 1
15 116 1
15 226 1
15 310 1
15 341 1
15 634 1
15 681 1
15 692 1
15 715 1
15 933 1
15 977 1
16 1 1
16 8 1
16 10 1
16 11 1
16 17 1
16 27 1
16 100 1
16 122 1
16 201 1
16 211 1
16 594 1
17 1 1
17 9 1
17 10 1
17 16 1
17 25 1
17 45 1
17 47 1
17 48 1
17 70 1
17 83 1
17 96 1
17 98 1
17 100 1
17 101 1
17 129 1
17 132 1
17 200 1
17 225 1
17 228 1
17 248 1
17 257 1
17 262 1
17 270 1
17 271 1
17 274 1
17 328 1
17 338 1
17 345 1
17 368 1
17 376 1
17 377 1
17 387 1
17 397 1
17 398 1
17 414 1
17 423 1
17 452 1
17 454 1
17 455 1
17 464 1
17 498 1
17 532 1
17 556 1
17 587 1
17 600 1
17 610 1
17 713 1
17 722 1
17 734 1
17 735 1
17 776 1
17 784 1
17 791 1
17 802 1
17 853 1
17 864 1
17 982 1
17 985 1
18 3 1
18 4 1
18 11 1
18 14 1
18 19 1
18 20 1
18 21 1
18 22 1
18 28 1
18 39 1
18 43 1
18 45 1
18 76 1
18 84 1
18 88 1
18 90 1
18 93 1
18 94 1
18 95 1
18 120 1
18 124 1
18 126 1
18 150 1
18 170 1
18 176 1
18 215 1
18 260 1
18 284 1
18 361 1
18 399 1
18 409 1
18 458 1
18 463 1
18 483 1
18 521 1
18 541 1
18 544 1
18 580 1
18 635 1
18 653 1
18 655 1
18 661 1
18 694 1
18 717 1
18 720 1
18 726 1
18 730 1
18 731 1
18 740 1
18 774 1
18 823 1
18 909 1
18 940 1
18 945 1
19 4 1
19 11 1
19 15 1
19 18 1
19 21 1
19 22 1
19 26 1
19 37 1
19 45 1
19 51 1
19 78 1
19 84 1
19 92 1
19 96 1
19 103 1
19 105 1
19 119 1
19 122 1
19 127 1
19 128 1
19 132 1
19 140 1
19 143 1
19 173 1
19 175 1
19 176 1
19 183 1
19 255 1
19 270 1
19 280 1
19 281 1
19 323 1
19 324 1
19 325 1
19 336 1
19 359 1
19 362 1
19 381 1
19 393 1
19 521 1
19 524 1
19 560 1
19 591 1
19 593 1
19 653 1
19 664 1
19 669 1
19 703 1
19 725 1
19 731 1
19 777 1
19 821 1
19 824 1
19 839 1
19 872 1
19 879 1
19 914 1
19 941 1
19 983 1
20 3 1
20 5 1
20 11 1
20 18 1
20 37 1
20 46 1
20 50 1
20 54 1
20 55 1
20 88 1
20 118 1
20 121 1
20 136 1
20 161 1
20 221 1
20 319 1
20 323 1
20 356 1
20 402 1
20 432 1
20 439 1
20 538 1
20 555 1
20 652 1
20 666 1
20 673 1
20 680 1
20 690 1
20 723 1
20 752 1
20 874 1
20 993 1
21 1 1
21 12 1
21 18 1
21 19 1
21 24 1
21 40 1
21 45 1
21 59 1
21 88 1
21 99 1
21 131 1
21 134 1
21 187 1
21 215 1
21 232 1
21 241 1
21 246 1
21 274 1
21 309 1
21 373 1
21 460 1
21 556 1
21 636 1
21 639 1
21 663 1
21 698 1
21 755 1
21 760 1
21 816 1
21 863 1
21 899 1
22 11 1
22 14 1
22 18 1
22 19 1
22 30 1
22 32 1
22 44 1
22 55 1
22 57 1
22 165 1
22 172 1
22 191 1
22 322 1
22 346 1
22 380 1
22 456 1
22 560 1
22 585 1
22 607 1
22 727 1
22 760 1
22 799 1
22 857 1
22 897 1
22 926 1
22 952 1
23 1 1
23 7 1
23 13 1
23 15 1
23 34 1
23 38 1
23 41 1
23 60 1
23 62 1
23 113 1
23 191 1
23 197 1
23 244 1
23 304 1
23 388 1
23 479 1
23 655 1
23 706 1
24 6 1
24 9 1
24 11 1
24 21 1
24 30 1
24 66 1
24 148 1
24 216 1
24 273 1
24 736 1
25 4 1
25 6 1
25 11 1
25 17 1
25 26 1
25 28 1
25 48 1
25 59 1
25 72 1
25 79 1
25 83 1
25 87 1
25 108 1
25 114 1
25 130 1
25 145 1
25 149 1
25 165 1
25 168 1
25 185 1
25 197 1
25 205 1
25 219 1
25 224 1
25 230 1
25 231 1
25 232 1
25 256 1
25 259 1
25 260 1
25 294 1
25 295 1
25 314 1
25 318 1
25 389 1
25 391 1
25 392 1
25 456 1
25 463 1
25 506 1
25 540 1
25 542 1
25 616 1
25 620 1
25 621 1
25 650 1
25 722 1
25 762 1
25 771 1
25 846 1
25 895 1
25 930 1
25 941 1
25 943 1
25 986 1
26 4 1
26 19 1
26 25 1
26 33 1
26 40 1
26 41 1
26 42 1
26 47 1
26 51 1
26 53 1
26 64 1
26 72 1
26 88 1
26 118 1
26 134 1
26 144 1
26 147 1
26 152 1
26 156 1
26 171 1
26 193 1
26 202 1
26 219 1
26 224 1
26 244 1
26 268 1
26 289 1
26 306 1
26 362 1
26 384 1
26 422 1
26 445 1
26 453 1
26 473 1
26 567 1
26 646 1
26 674 1
26 693 1
26 736 1
26 769 1
26 792 1
26 797 1
26 889 1
26 893 1
26 942 1
26 956 1
26 996 1
27 3 1
27 4 1
27 6 1
27 16 1
27 36 1
27 67 1
27 68 1
27 75 1
27 99 1
27 115 1
27 229 1
27 256 1
27 280 1
27 349 1
27 360 1
27 433 1
27 472 1
27 484 1
27 490 1
27 667 1
27 689 1
27 782 1
27 892 1
28 4 1
28 11 1
28 18 1
28 25 1
28 31 1
28 46 1
28 48 1
28 56 1
28 63 1
28 65 1
28 68 1
28 72 1
28 75 1
28 78 1
28 92 1
28 95 1
28 102 1
28 116 1
28 120 1
28 128 1
28 156 1
28 164 1
28 181 1
28 234 1
28 235 1
28 237 1
28 247 1
28 260 1
28 282 1
28 319 1
28 357 1
28 365 1
28 386 1
28 418 1
28 424 1
28 440 1
28 447 1
28 478 1
28 505 1
28 550 1
28 551 1
28 577 1
28 584 1
28 604 1
28 608 1
28 685 1
28 695 1
28 713 1
28 714 1
28 768 1
28 773 1
28 787 1
28 790 1
28 823 1
28 840 1
28 862 1
28 887 1
28 888 1
28 891 1
28 923 1
28 924 1
28 970 1
29 1 1
29 4 1
29 11 1
29 12 1
29 64 1
29 172 1
29 183 1
29 184 1
29 257 1
29 309 1
29 437 1
29 444 1
29 453 1
29 474 1
29 478 1
29 495 1
29 544 1
29 591 1
29 609 1
29 692 1
29 714 1
29 934 1
30 1 1
30 9 1
30 22 1
30 24 1
30 36 1
30 44 1
30 52 1
30 74 1
30 188 1
30 239 1
30 273 1
30 282 1
30 291 1
30 344 1
30 393 1
30 487 1
30 528 1
30 603 1
30 666 1
30 674 1
30 829 1
30 855 1
30 917 1
31 1 1
31 3 1
31 4 1
31 28 1
31 44 1
31 92 1
31 127 1
31 178 1
31 206 1
32 4 1
32 8 1
32 13 1
32 22 1
32 35 1
32 76 1
32 121 1
32 210 1
32 329 1
32 383 1
32 919 1
32 926 1
33 3 1
33 9 1
33 12 1
33 26 1
33 42 1
33 43 1
33 46 1
33 58 1
33 93 1
33 103 1
33 109 1
33 114 1
33 123 1
33 168 1
33 175 1
33 199 1
33 229 1
33 265 1
33 278 1
33 279 1
33 357 1
33 396 1
33 401 1
33 432 1
33 445 1
33 457 1
33 461 1
33 470 1
33 507 1
33 548 1
33 575 1
33 602 1
33 624 1
33 687 1
33 737 1
33 792 1
33 794 1
33 809 1
33 869 1
33 885 1
33 895 1
34 9 1
34 11 1
34 15 1
34 23 1
34 52 1
34 53 1
34 70 1
34 81 1
34 140 1
34 158 1
34 243 1
34 401 1
34 520 1
34 531 1
35 1 1
35 4 1
35 10 1
35 32 1
35 84 1
35 178 1
35 213 1
35 222 1
35 248 1
35 290 1
35 314 1
35 376 1
35 919 1
36 1 1
36 4 1
36 27 1
36 30 1
36 50 1
36 70 1
36 75 1
36 80 1
36 91 1
36 94 1
36 103 1
36 112 1
36 115 1
36 125 1
36 162 1
36 188 1
36 192 1
36 214 1
36 218 1
36 223 1
36 239 1
36 253 1
36 265 1
36 290 1
36 295 1
36 297 1
36 327 1
36 352 1
36 356 1
36 378 1
36 395 1
36 435 1
36 496 1
36 503 1
36 508 1
36 526 1
36 579 1
36 631 1
36 668 1
36 672 1
36 699 1
36 747 1
36 751 1
36 752 1
36 780 1
36 803 1
36 850 1
36 978 1
37 8 1
37 11 1
37 19 1
37 20 1
37 71 1
37 125 1
37 370 1
37 480 1
37 613 1
37 741 1
37 828 1
38 4 1
38 5 1
38 15 1
38 23 1
38 106 1
38 197 1
38 244 1
38 370 1
39 3 1
39 11 1
39 12 1
39 18 1
39 56 1
39 86 1
39 104 1
39 146 1
39 154 1
39 168 1
39 279 1
39 347 1
39 367 1
39 656 1
39 680 1
40 5 1
40 8 1
40 21 1
40 26 1
40 51 1
40 134 1
40 136 1
40 145 1
40 162 1
40 516 1
40 795 1
41 1 1
41 4 1
41 23 1
41 26 1
41 47 1
41 60 1
41 62 1
41 64 1
41 118 1
41 131 1
41 183 1
41 245 1
41 321 1
41 436 1
41 457 1
41 537 1
41 649 1
41 710 1
41 769 1
42 3 1
42 9 1
42 26 1
42 33 1
42 43 1
42 47 1
42 56 1
42 65 1
42 87 1
42 102 1
42 108 1
42 116 1
42 130 1
42 149 1
42 151 1
42 153 1
42 160 1
42 169 1
42 175 1
42 202 1
42 219 1
42 226 1
42 242 1
42 247 1
42 251 1
42 266 1
42 272 1
42 278 1
42 303 1
42 320 1
42 325 1
42 326 1
42 340 1
42 346 1
42 379 1
42 385 1
42 390 1
42 396 1
42 397 1
42 404 1
42 411 1
42 468 1
42 469 1
42 513 1
42 614 1
42 617 1
42 643 1
42 715 1
42 825 1
42 831 1
42 845 1
42 875 1
42 889 1
42 927 1
42 950 1
43 4 1
43 18 1
43 33 1
43 42 1
43 77 1
43 85 1
43 91 1
43 106 1
43 116 1
43 160 1
43 198 1
43 251 1
43 273 1
43 315 1
43 479 1
43 493 1
43 606 1
43 624 1
43 933 1
43 946 1
44 11 1
44 22 1
44 30 1
44 31 1
44 52 1
44 57 1
44 61 1
44 69 1
44 82 1
44 208 1
44 212 1
44 251 1
44 283 1
44 292 1
44 297 1
44 311 1
44 352 1
44 445 1
44 457 1
44 460 1
44 485 1
44 526 1
44 634 1
44 652 1
44 666 1
44 717 1
44 769 1
44 771 1
44 786 1
44 822 1
44 852 1
44 856 1
44 864 1
45 17 1
45 18 1
45 19 1
45 21 1
45 83 1
45 84 1
45 110 1
45 153 1
45 169 1
45 249 1
45 387 1
45 407 1
45 423 1
45 615 1
45 684 1
45 815 1
45 859 1
45 898 1
46 4 1
46 20 1
46 28 1
46 33 1
46 93 1
46 109 1
46 111 1
46 169 1
46 227 1
46 275 1
46 317 1
46 354 1
46 358 1
46 366 1
46 375 1
46 522 1
46 526 1
46 575 1
46 597 1
46 733 1
46 855 1
47 17 1
47 26 1
47 41 1
47 42 1
47 62 1
47 83 1
47 101 1
47 137 1
47 464 1
47 754 1
48 6 1
48 17 1
48 25 1
48 28 1
48 185 1
48 293 1
48 430 1
48 587 1
49 4 1
49 7 1
49 9 1
49 13 1
49 50 1
49 68 1
49 82 1
49 203 1
49 286 1
49 305 1
49 350 1
49 512 1
49 604 1
50 4 1
50 20 1
50 36 1
50 49 1
50 60 1
50 66 1
50 68 1
50 80 1
50 89 1
50 125 1
50 133 1
50 162 1
50 164 1
50 189 1
50 200 1
50 204 1
50 240 1
50 255 1
50 261 1
50 285 1
50 286 1
50 305 1
50 330 1
50 383 1
50 394 1
50 481 1
50 491 1
50 515 1
50 542 1
50 615 1
50 702 1
50 703 1
50 705 1
50 723 1
50 815 1
50 836 1
50 860 1
50 870 1
50 888 1
50 923 1
50 928 1
50 943 1
51 11 1
51 19 1
51 26 1
51 40 1
51 69 1
51 74 1
51 110 1
51 152 1
51 158 1
51 163 1
51 167 1
51 176 1
51 177 1
51 226 1
51 261 1
51 277 1
51 364 1
51 380 1
51 433 1
51 623 1
51 641 1
51 662 1
51 703 1
51 774 1
51 801 1
51 805 1
51 806 1
51 809 1
51 845 1
51 905 1
51 937 1
51 945 1
51 991 1
52 4 1
52 30 1
52 34 1
52 44 1
52 63 1
52 158 1
52 216 1
52 297 1
52 315 1
52 451 1
52 588 1
53 9 1
53 12 1
53 26 1
53 34 1
53 58 1
53 70 1
53 73 1
53 141 1
53 143 1
53 166 1
53 187 1
53 250 1
53 269 1
53 322 1
53 422 1
53 486 1
53 517 1
53 631 1
53 641 1
53 797 1
53 907 1
53 929 1
54 4 1
54 5 1
54 15 1
54 20 1
54 181 1
54 341 1
54 342 1
54 430 1
55 3 1
55 4 1
55 20 1
55 22 1
55 67 1
55 434 1
55 704 1
55 871 1
56 12 1
56 28 1
56 39 1
56 42 1
56 711 1
57 5 1
57 14 1
57 22 1
57 44 1
57 77 1
57 97 1
57 174 1
57 203 1
57 212 1
57 287 1
57 307 1
57 417 1
57 536 1
57 537 1
57 552 1
57 554 1
57 585 1
57 592 1
57 597 1
57 613 1
57 621 1
57 624 1
57 658 1
57 729 1
57 764 1
57 779 1
57 935 1
57 969 1
57 973 1
57 976 1
57 997 1
58 9 1
58 12 1
58 33 1
58 53 1
58 69 1
58 123 1
58 142 1
58 208 1
58 250 1
58 278 1
58 367 1
58 501 1
58 517 1
58 571 1
58 632 1
58 641 1
58 651 1
58 706 1
59 4 1
59 13 1
59 21 1
59 25 1
59 186 1
59 210 1
59 230 1
59 232 1
59 267 1
59 274 1
59 316 1
59 344 1
59 345 1
59 373 1
59 442 1
59 612 1
59 643 1
59 650 1
59 698 1
59 722 1
59 744 1
59 758 1
59 886 1
59 979 1
60 1 1
60 23 1
60 41 1
60 50 1
60 62 1
60 81 1
60 148 1
60 155 1
60 198 1
60 209 1
60 253 1
60 295 1
60 321 1
60 337 1
60 439 1
60 470 1
60 488 1
60 491 1
60 577 1
60 583 1
60 603 1
60 861 1
60 998 1
61 4 1
61 9 1
61 12 1
61 44 1
61 82 1
61 128 1
61 147 1
61 163 1
61 228 1
61 250 1
61 269 1
61 346 1
61 857 1
61 951 1
61 1000 1
62 23 1
62 41 1
62 47 1
62 60 1
62 119 1
62 138 1
62 155 1
62 184 1
62 253 1
62 336 1
62 410 1
62 441 1
62 598 1
62 696 1
62 855 1
63 6 1
63 13 1
63 28 1
63 52 1
63 76 1
63 711 1
63 835 1
63 894 1
64 3 1
64 26 1
64 29 1
64 41 1
64 67 1
64 873 1
64 983 1
65 4 1
65 12 1
65 28 1
65 42 1
65 78 1
65 125 1
65 131 1
65 151 1
65 202 1
65 268 1
65 285 1
65 453 1
65 458 1
65 469 1
65 471 1
65 508 1
65 527 1
65 539 1
65 549 1
65 609 1
65 740 1
65 800 1
65 894 1
66 9 1
66 12 1
66 24 1
66 50 1
66 481 1
66 633 1
66 702 1
66 781 1
66 962 1
67 3 1
67 27 1
67 55 1
67 64 1
67 71 1
67 73 1
67 152 1
67 213 1
67 321 1
67 326 1
67 607 1
67 687 1
67 884 1
67 902 1
67 909 1
67 918 1
68 27 1
68 28 1
68 49 1
68 50 1
68 75 1
68 80 1
68 89 1
68 98 1
68 136 1
68 148 1
68 163 1
68 217 1
68 238 1
68 356 1
68 406 1
68 422 1
68 510 1
68 568 1
68 590 1
68 688 1
68 718 1
68 769 1
68 828 1
68 836 1
68 938 1
68 946 1
69 11 1
69 44 1
69 51 1
69 58 1
69 144 1
69 163 1
69 303 1
69 328 1
69 407 1
69 532 1
69 596 1
69 599 1
69 937 1
70 17 1
70 34 1
70 36 1
70 53 1
70 73 1
70 296 1
70 377 1
70 777 1
71 3 1
71 12 1
71 37 1
71 67 1
71 79 1
71 85 1
71 162 1
71 194 1
71 212 1
71 363 1
71 690 1
71 795 1
71 837 1
72 11 1
72 25 1
72 26 1
72 28 1
72 216 1
72 246 1
72 505 1
72 550 1
72 565 1
72 881 1
72 943 1
73 12 1
73 53 1
73 67 1
73 70 1
73 86 1
73 112 1
73 182 1
73 296 1
73 501 1
73 543 1
73 665 1
73 745 1
73 861 1
73 884 1
74 4 1
74 9 1
74 30 1
74 51 1
74 166 1
74 206 1
74 229 1
74 336 1
74 342 1
74 400 1
74 428 1
74 623 1
74 658 1
74 674 1
74 829 1
74 882 1
75 27 1
75 28 1
75 36 1
75 68 1
75 85 1
75 94 1
75 95 1
75 115 1
75 139 1
75 173 1
75 218 1
75 238 1
75 245 1
75 265 1
75 419 1
75 437 1
75 487 1
75 510 1
75 553 1
75 647 1
75 682 1
75 683 1
75 749 1
75 803 1
75 844 1
75 939 1
75 967 1
75 975 1
76 13 1
76 18 1
76 32 1
76 63 1
76 108 1
76 139 1
76 193 1
76 210 1
76 243 1
76 265 1
76 343 1
76 390 1
76 391 1
76 443 1
76 576 1
76 629 1
76 711 1
76 744 1
76 835 1
76 973 1
77 12 1
77 14 1
77 43 1
77 57 1
77 81 1
77 90 1
77 105 1
77 107 1
77 113 1
77 135 1
77 141 1
77 189 1
77 348 1
77 504 1
77 669 1
77 671 1
77 707 1
78 15 1
78 19 1
78 28 1
78 65 1
78 81 1
78 144 1
78 280 1
78 324 1
78 500 1
78 551 1
78 753 1
78 761 1
78 801 1
78 841 1
78 935 1
79 3 1
79 4 1
79 25 1
79 71 1
79 138 1
79 335 1
79 389 1
79 589 1
79 662 1
79 668 1
80 4 1
80 36 1
80 50 1
80 68 1
80 115 1
80 129 1
80 214 1
80 255 1
80 408 1
80 811 1
80 822 1
81 34 1
81 60 1
81 77 1
81 78 1
81 112 1
81 113 1
81 134 1
81 266 1
81 319 1
81 490 1
81 633 1
81 914 1
81 994 1
82 12 1
82 44 1
82 49 1
82 61 1
82 86 1
82 128 1
82 146 1
82 205 1
82 233 1
82 277 1
82 382 1
82 398 1
82 447 1
82 456 1
82 464 1
82 465 1
82 469 1
82 546 1
82 558 1
82 562 1
82 585 1
82 605 1
82 627 1
82 676 1
82 998 1
83 17 1
83 25 1
83 45 1
83 47 1
83 137 1
83 205 1
83 407 1
83 410 1
83 481 1
83 534 1
83 846 1
84 18 1
84 19 1
84 35 1
84 45 1
84 92 1
84 127 1
84 133 1
84 137 1
84 157 1
84 158 1
84 211 1
84 215 1
84 227 1
84 248 1
84 259 1
84 262 1
84 264 1
84 283 1
84 317 1
84 331 1
84 339 1
84 351 1
84 387 1
84 589 1
84 598 1
84 629 1
84 704 1
84 798 1
84 814 1
84 890 1
84 941 1
84 949 1
85 3 1
85 43 1
85 71 1
85 75 1
85 97 1
85 102 1
85 174 1
85 194 1
85 274 1
85 346 1
85 528 1
85 857 1
86 3 1
86 39 1
86 73 1
86 82 1
86 89 1
86 98 1
86 104 1
86 120 1
86 154 1
86 209 1
86 225 1
86 263 1
86 296 1
86 476 1
86 513 1
86 522 1
86 581 1
86 679 1
86 691 1
86 801 1
86 878 1
86 978 1
87 9 1
87 11 1
87 25 1
87 42 1
87 142 1
87 149 1
87 198 1
87 302 1
87 402 1
87 620 1
87 628 1
87 646 1
87 734 1
88 18 1
88 20 1
88 21 1
88 26 1
88 161 1
88 567 1
88 966 1
89 4 1
89 50 1
89 68 1
89 86 1
89 98 1
89 121 1
89 133 1
89 171 1
89 221 1
89 294 1
89 326 1
89 411 1
89 414 1
89 417 1
89 506 1
89 509 1
89 561 1
89 601 1
89 610 1
89 685 1
89 870 1
89 887 1
89 954 1
89 971 1
89 987 1
90 1 1
90 7 1
90 18 1
90 77 1
90 107 1
90 108 1
90 222 1
90 237 1
90 348 1
90 385 1
90 483 1
90 515 1
90 554 1
90 667 1
90 793 1
90 824 1
90 965 1
90 980 1
91 1 1
91 5 1
91 36 1
91 43 1
91 192 1
91 207 1
91 208 1
91 786 1
92 19 1
92 28 1
92 31 1
92 84 1
92 127 1
92 137 1
92 227 1
92 264 1
92 283 1
92 301 1
92 461 1
92 546 1
92 810 1
92 848 1
92 974 1
93 6 1
93 18 1
93 33 1
93 46 1
93 126 1
93 218 1
93 227 1
93 233 1
93 606 1
93 618 1
93 697 1
93 972 1
94 9 1
94 18 1
94 36 1
94 75 1
94 124 1
94 126 1
94 156 1
94 279 1
94 301 1
94 496 1
94 553 1
94 963 1
95 4 1
95 18 1
95 28 1
95 75 1
95 124 1
95 170 1
95 237 1
95 284 1
95 313 1
95 372 1
95 416 1
95 430 1
95 518 1
95 647 1
95 660 1
95 841 1
95 906 1
95 913 1
95 993 1
96 10 1
96 11 1
96 17 1
96 19 1
96 119 1
96 140 1
96 159 1
96 188 1
96 332 1
96 473 1
96 897 1
97 3 1
97 10 1
97 57 1
97 85 1
97 155 1
97 174 1
97 208 1
97 289 1
97 307 1
97 340 1
97 385 1
97 405 1
97 406 1
97 519 1
97 537 1
97 675 1
97 722 1
97 808 1
97 890 1
97 959 1
98 17 1
98 68 1
98 86 1
98 89 1
98 114 1
98 157 1
98 199 1
98 225 1
98 298 1
98 318 1
98 345 1
98 360 1
98 379 1
98 506 1
98 523 1
98 539 1
98 581 1
98 626 1
98 775 1
98 851 1
98 934 1
98 975 1
98 982 1
98 985 1
98 990 1
99 11 1
99 13 1
99 21 1
99 27 1
99 154 1
99 177 1
99 201 1
99 229 1
99 240 1
99 418 1
99 446 1
99 556 1
99 582 1
99 619 1
99 747 1
99 748 1
99 762 1
99 992 1
100 1 1
100 12 1
100 16 1
100 17 1
100 101 1
100 122 1
100 141 1
100 179 1
100 195 1
100 207 1
100 251 1
100 262 1
100 294 1
100 334 1
100 338 1
100 359 1
100 416 1
100 425 1
100 490 1
100 543 1
100 546 1
100 558 1
100 566 1
100 573 1
100 605 1
100 638 1
100 649 1
100 847 1
100 897 1
100 932 1
100 936 1
101 9 1
101 17 1
101 47 1
101 100 1
101 117 1
101 135 1
101 254 1
101 255 1
101 272 1
101 349 1
101 395 1
101 493 1
101 556 1
101 593 1
101 814 1
101 866 1
102 10 1
102 28 1
102 42 1
102 85 1
102 202 1
102 253 1
102 499 1
102 875 1
103 12 1
103 19 1
103 33 1
103 36 1
103 131 1
103 403 1
103 512 1
104 5 1
104 12 1
104 39 1
104 86 1
104 120 1
105 4 1
105 5 1
105 19 1
105 77 1
105 362 1
105 405 1
105 413 1
105 524 1
105 583 1
105 904 1
105 966 1
106 4 1
106 10 1
106 38 1
106 43 1
106 113 1
106 196 1
106 273 1
106 279 1
106 300 1
106 315 1
106 347 1
106 488 1
106 678 1
106 737 1
106 852 1
107 1 1
107 7 1
107 77 1
107 90 1
107 217 1
107 581 1
107 738 1
107 800 1
108 25 1
108 42 1
108 76 1
108 90 1
108 117 1
108 180 1
108 222 1
108 421 1
108 480 1
108 513 1
108 697 1
108 807 1
108 843 1
109 3 1
109 12 1
109 33 1
109 46 1
109 111 1
109 117 1
109 217 1
109 353 1
109 354 1
109 368 1
109 415 1
109 427 1
109 787 1
109 809 1
109 859 1
109 885 1
110 7 1
110 11 1
110 45 1
110 51 1
110 249 1
110 299 1
110 964 1
111 3 1
111 9 1
111 46 1
111 109 1
111 194 1
111 271 1
111 355 1
111 670 1
112 11 1
112 36 1
112 73 1
112 81 1
112 466 1
113 23 1
113 77 1
113 81 1
113 106 1
113 191 1
113 193 1
113 196 1
113 223 1
113 230 1
113 243 1
113 246 1
113 288 1
113 304 1
113 308 1
113 401 1
113 497 1
113 516 1
113 632 1
113 670 1
113 710 1
113 785 1
113 789 1
113 993 1
114 4 1
114 25 1
114 33 1
114 98 1
114 165 1
114 167 1
114 199 1
114 225 1
114 241 1
114 263 1
114 327 1
114 389 1
114 456 1
114 610 1
114 817 1
114 851 1
114 853 1
114 883 1
114 920 1
114 930 1
114 989 1
115 27 1
115 36 1
115 75 1
115 80 1
115 129 1
115 211 1
115 214 1
115 416 1
115 811 1
116 15 1
116 28 1
116 42 1
116 43 1
116 198 1
116 449 1
116 480 1
116 529 1
116 578 1
116 715 1
116 831 1
117 11 1
117 101 1
117 108 1
117 109 1
117 135 1
117 187 1
117 284 1
117 372 1
117 415 1
117 511 1
117 529 1
117 917 1
118 3 1
118 20 1
118 26 1
118 41 1
118 666 1
119 7 1
119 19 1
119 62 1
119 96 1
119 122 1
119 179 1
119 306 1
119 671 1
120 18 1
120 28 1
120 86 1
120 104 1
120 136 1
120 357 1
120 517 1
120 550 1
121 9 1
121 20 1
121 32 1
121 89 1
121 157 1
121 178 1
121 213 1
121 221 1
121 329 1
121 383 1
121 590 1
121 624 1
121 700 1
121 893 1
121 896 1
122 16 1
122 19 1
122 100 1
122 119 1
122 168 1
122 179 1
122 200 1
122 381 1
122 498 1
122 616 1
122 912 1
123 4 1
123 10 1
123 33 1
123 58 1
123 186 1
123 234 1
123 291 1
123 409 1
123 525 1
123 644 1
123 776 1
123 783 1
123 796 1
123 949 1
124 4 1
124 18 1
124 94 1
124 95 1
124 360 1
124 580 1
124 650 1
124 660 1
124 963 1
125 36 1
125 37 1
125 50 1
125 65 1
125 268 1
125 430 1
125 441 1
125 592 1
125 959 1
126 5 1
126 18 1
126 93 1
126 94 1
126 218 1
126 292 1
126 730 1
127 19 1
127 31 1
127 84 1
127 92 1
127 301 1
127 381 1
127 461 1
128 19 1
128 28 1
128 61 1
128 82 1
128 146 1
129 9 1
129 17 1
129 80 1
129 115 1
129 204 1
129 257 1
129 299 1
129 408 1
129 416 1
129 726 1
129 822 1
130 5 1
130 14 1
130 25 1
130 42 1
130 144 1
130 185 1
130 219 1
130 286 1
130 293 1
130 382 1
130 431 1
130 570 1
130 660 1
130 661 1
130 707 1
130 743 1
130 880 1
131 21 1
131 41 1
131 65 1
131 103 1
131 171 1
131 276 1
131 377 1
131 436 1
131 459 1
131 537 1
131 649 1
131 755 1
131 819 1
131 893 1
132 1 1
132 10 1
132 17 1
132 19 1
132 173 1
132 292 1
132 324 1
132 371 1
132 709 1
132 995 1
132 1000 1
133 3 1
133 50 1
133 84 1
133 89 1
134 21 1
134 26 1
134 40 1
134 81 1
134 171 1
134 187 1
134 309 1
134 310 1
134 319 1
134 349 1
134 414 1
134 561 1
134 639 1
134 921 1
135 4 1
135 77 1
135 101 1
135 117 1
135 189 1
135 272 1
135 375 1
135 923 1
135 969 1
136 20 1
136 40 1
136 68 1
136 120 1
136 517 1
136 706 1
136 838 1
137 47 1
137 83 1
137 84 1
137 92 1
137 170 1
137 313 1
137 339 1
137 359 1
137 479 1
137 496 1
137 546 1
137 798 1
137 810 1
138 5 1
138 11 1
138 62 1
138 79 1
138 335 1
138 569 1
138 662 1
138 999 1
139 3 1
139 6 1
139 75 1
139 76 1
139 239 1
139 242 1
139 332 1
139 390 1
139 435 1
139 437 1
139 606 1
139 685 1
139 803 1
140 11 1
140 19 1
140 34 1
140 96 1
140 143 1
140 151 1
140 159 1
140 209 1
140 300 1
140 320 1
140 343 1
140 381 1
140 569 1
140 618 1
140 752 1
140 804 1
141 12 1
141 53 1
141 77 1
141 100 1
141 270 1
141 631 1
141 797 1
141 868 1
142 3 1
142 9 1
142 58 1
142 87 1
142 258 1
142 316 1
142 337 1
142 460 1
142 664 1
142 786 1
142 910 1
142 940 1
143 9 1
143 19 1
143 53 1
143 140 1
143 153 1
143 190 1
143 247 1
143 300 1
143 420 1
144 26 1
144 69 1
144 78 1
144 130 1
144 156 1
144 207 1
144 384 1
144 473 1
144 588 1
144 964 1
145 3 1
145 5 1
145 25 1
145 40 1
145 150 1
145 235 1
145 374 1
145 428 1
145 440 1
145 547 1
145 620 1
145 637 1
145 757 1
145 844 1
145 955 1
146 11 1
146 39 1
146 82 1
146 128 1
146 275 1
146 382 1
146 398 1
146 487 1
146 492 1
146 493 1
146 538 1
146 821 1
146 823 1
146 995 1
147 9 1
147 14 1
147 26 1
147 61 1
147 165 1
147 167 1
147 213 1
147 234 1
147 455 1
147 494 1
147 514 1
147 521 1
147 566 1
147 567 1
147 579 1
147 721 1
148 11 1
148 24 1
148 60 1
148 68 1
149 11 1
149 25 1
149 42 1
149 87 1
149 159 1
149 191 1
149 192 1
149 237 1
149 272 1
149 285 1
149 370 1
149 384 1
149 545 1
149 862 1
149 957 1
149 974 1
149 980 1
150 6 1
150 7 1
150 18 1
150 145 1
150 152 1
150 170 1
150 313 1
150 374 1
150 428 1
150 590 1
150 720 1
150 944 1
151 11 1
151 42 1
151 65 1
151 140 1
151 850 1
151 883 1
152 26 1
152 51 1
152 67 1
152 150 1
152 261 1
152 277 1
152 553 1
153 11 1
153 42 1
153 45 1
153 143 1
153 169 1
153 247 1
153 278 1
153 311 1
153 325 1
153 335 1
153 420 1
153 426 1
153 530 1
153 648 1
153 765 1
153 807 1
153 977 1
154 13 1
154 39 1
154 86 1
154 99 1
154 400 1
154 476 1
154 496 1
154 582 1
154 638 1
154 716 1
154 834 1
154 840 1
154 925 1
155 1 1
155 60 1
155 62 1
155 97 1
155 174 1
155 287 1
155 405 1
155 645 1
155 821 1
155 890 1
156 26 1
156 28 1
156 94 1
156 144 1
156 164 1
156 173 1
156 252 1
156 674 1
156 963 1
157 9 1
157 84 1
157 98 1
157 121 1
157 190 1
157 254 1
157 298 1
157 334 1
157 351 1
157 375 1
157 426 1
157 466 1
157 576 1
157 677 1
157 705 1
157 719 1
157 851 1
158 34 1
158 51 1
158 52 1
158 84 1
158 243 1
158 248 1
158 271 1
158 392 1
158 845 1
158 954 1
158 965 1
159 12 1
159 96 1
159 140 1
159 149 1
159 206 1
159 268 1
159 343 1
159 448 1
159 451 1
159 497 1
160 3 1
160 9 1
160 42 1
160 43 1
161 3 1
161 5 1
161 20 1
161 88 1
161 186 1
161 236 1
161 340 1
161 449 1
161 540 1
161 573 1
161 720 1
161 754 1
161 878 1
161 966 1
162 36 1
162 40 1
162 50 1
162 71 1
162 212 1
162 240 1
162 242 1
162 782 1
162 795 1
163 51 1
163 61 1
163 68 1
163 69 1
163 217 1
163 226 1
163 228 1
163 403 1
163 406 1
163 524 1
163 530 1
163 568 1
163 587 1
163 640 1
163 753 1
164 1 1
164 28 1
164 50 1
164 156 1
164 194 1
164 252 1
164 344 1
164 361 1
164 434 1
164 497 1
164 764 1
165 22 1
165 25 1
165 114 1
165 147 1
165 167 1
165 224 1
165 256 1
165 259 1
165 339 1
165 371 1
165 535 1
165 625 1
165 727 1
165 781 1
165 794 1
166 4 1
166 12 1
166 53 1
166 74 1
167 51 1
167 114 1
167 147 1
167 165 1
167 177 1
167 418 1
167 716 1
167 920 1
167 925 1
168 25 1
168 33 1
168 39 1
168 122 1
169 42 1
169 45 1
169 46 1
169 153 1
169 176 1
169 335 1
169 424 1
169 542 1
169 582 1
169 597 1
169 644 1
169 684 1
169 733 1
169 847 1
170 18 1
170 95 1
170 137 1
170 150 1
170 289 1
170 313 1
170 323 1
170 377 1
170 492 1
170 889 1
170 993 1
170 999 1
171 26 1
171 89 1
171 131 1
171 134 1
171 276 1
171 280 1
171 414 1
171 505 1
171 561 1
171 627 1
171 845 1
172 4 1
172 6 1
172 22 1
172 29 1
172 182 1
172 188 1
172 378 1
172 503 1
172 563 1
172 691 1
172 772 1
173 19 1
173 75 1
173 132 1
173 156 1
173 419 1
174 57 1
174 85 1
174 97 1
174 155 1
174 287 1
175 11 1
175 19 1
175 33 1
175 42 1
175 608 1
175 908 1
175 919 1
176 18 1
176 19 1
176 51 1
176 169 1
176 380 1
176 946 1
177 10 1
177 51 1
177 99 1
177 167 1
177 220 1
177 240 1
177 503 1
177 564 1
177 583 1
177 612 1
177 619 1
177 716 1
178 4 1
178 31 1
178 35 1
178 121 1
178 204 1
178 291 1
178 351 1
178 376 1
178 442 1
178 535 1
178 659 1
178 700 1
178 858 1
179 11 1
179 100 1
179 119 1
179 122 1
179 565 1
180 2 1
180 5 1
180 8 1
180 108 1
180 421 1
180 843 1
181 1 1
181 14 1
181 28 1
181 54 1
181 303 1
181 312 1
181 317 1
181 772 1
182 5 1
182 6 1
182 73 1
182 172 1
182 241 1
182 295 1
182 450 1
182 665 1
182 780 1
183 12 1
183 19 1
183 29 1
183 41 1
183 462 1
184 4 1
184 9 1
184 29 1
184 62 1
184 437 1
184 899 1
185 9 1
185 25 1
185 48 1
185 130 1
185 293 1
185 294 1
185 298 1
185 328 1
185 463 1
185 620 1
185 738 1
185 763 1
185 844 1
185 886 1
186 4 1
186 59 1
186 123 1
186 161 1
186 232 1
186 259 1
186 302 1
186 386 1
186 479 1
186 679 1
186 883 1
186 926 1
186 994 1
186 997 1
187 21 1
187 53 1
187 117 1
187 134 1
187 917 1
188 30 1
188 36 1
188 96 1
188 172 1
188 352 1
188 848 1
188 897 1
189 14 1
189 50 1
189 77 1
189 135 1
189 266 1
189 331 1
189 693 1
189 923 1
190 4 1
190 9 1
190 143 1
190 157 1
190 330 1
190 429 1
190 485 1
191 22 1
191 23 1
191 113 1
191 149 1
191 193 1
191 196 1
191 223 1
191 330 1
191 349 1
191 370 1
191 477 1
191 766 1
191 770 1
192 5 1
192 36 1
192 91 1
192 149 1
193 26 1
193 76 1
193 113 1
193 191 1
193 196 1
193 258 1
193 304 1
193 649 1
193 658 1
193 792 1
193 819 1
193 931 1
194 71 1
194 85 1
194 111 1
194 164 1
194 252 1
194 363 1
195 1 1
195 8 1
195 12 1
195 100 1
195 448 1
195 454 1
195 878 1
196 106 1
196 113 1
196 191 1
196 193 1
196 258 1
196 304 1
196 632 1
196 679 1
196 816 1
196 831 1
196 852 1
196 867 1
196 950 1
197 5 1
197 23 1
197 25 1
197 38 1
197 231 1
197 244 1
197 542 1
198 43 1
198 60 1
198 87 1
198 116 1
198 275 1
198 426 1
198 588 1
198 675 1
198 759 1
198 812 1
198 876 1
199 12 1
199 33 1
199 98 1
199 114 1
199 318 1
199 379 1
199 450 1
199 491 1
199 510 1
199 626 1
199 775 1
199 879 1
200 12 1
200 17 1
200 50 1
200 122 1
200 467 1
201 4 1
201 13 1
201 16 1
201 99 1
201 211 1
201 310 1
201 578 1
201 657 1
201 920 1
201 989 1
202 26 1
202 42 1
202 65 1
202 102 1
202 277 1
202 288 1
202 389 1
202 412 1
202 469 1
202 514 1
202 592 1
202 694 1
202 729 1
202 785 1
202 800 1
203 5 1
203 9 1
203 49 1
203 57 1
203 281 1
203 554 1
203 613 1
203 772 1
204 4 1
204 50 1
204 129 1
204 178 1
204 347 1
204 448 1
204 688 1
204 928 1
205 9 1
205 25 1
205 82 1
205 83 1
205 233 1
205 474 1
205 481 1
205 590 1
205 591 1
205 596 1
205 608 1
205 647 1
205 750 1
205 872 1
205 990 1
206 4 1
206 31 1
206 74 1
206 159 1
207 4 1
207 91 1
207 100 1
207 144 1
207 497 1
207 605 1
208 44 1
208 58 1
208 91 1
208 97 1
209 4 1
209 60 1
209 86 1
209 140 1
209 337 1
209 366 1
209 471 1
209 618 1
209 654 1
210 4 1
210 32 1
210 59 1
210 76 1
210 236 1
210 282 1
210 421 1
210 443 1
210 629 1
210 638 1
211 16 1
211 84 1
211 115 1
211 201 1
211 329 1
212 44 1
212 57 1
212 71 1
212 162 1
213 35 1
213 67 1
213 121 1
213 147 1
213 314 1
213 472 1
213 683 1
213 905 1
213 909 1
213 918 1
214 3 1
214 36 1
214 80 1
214 115 1
214 223 1
214 284 1
214 372 1
214 393 1
214 656 1
214 717 1
215 11 1
215 18 1
215 21 1
215 84 1
215 309 1
215 529 1
215 874 1
215 950 1
216 6 1
216 24 1
216 52 1
216 72 1
216 630 1
217 68 1
217 107 1
217 109 1
217 163 1
217 404 1
217 568 1
217 938 1
218 36 1
218 75 1
218 93 1
218 126 1
218 238 1
218 245 1
218 262 1
218 290 1
218 305 1
218 333 1
218 365 1
218 378 1
218 434 1
218 575 1
218 766 1
218 972 1
218 997 1
219 25 1
219 26 1
219 42 1
219 130 1
219 260 1
219 320 1
219 329 1
219 348 1
219 431 1
219 622 1
219 773 1
219 849 1
219 854 1
220 5 1
220 6 1
220 7 1
220 177 1
220 267 1
220 338 1
220 665 1
220 728 1
221 1 1
221 20 1
221 89 1
221 121 1
221 371 1
221 432 1
221 908 1
222 11 1
222 35 1
222 90 1
222 108 1
222 570 1
223 36 1
223 113 1
223 191 1
223 214 1
223 526 1
224 11 1
224 25 1
224 26 1
224 165 1
224 589 1
224 996 1
225 17 1
225 86 1
225 98 1
225 114 1
225 233 1
225 318 1
225 368 1
225 503 1
225 516 1
225 581 1
225 654 1
226 15 1
226 42 1
226 51 1
226 163 1
226 634 1
226 692 1
227 46 1
227 84 1
227 92 1
227 93 1
227 317 1
227 488 1
227 759 1
227 890 1
228 11 1
228 17 1
228 61 1
228 163 1
228 250 1
228 269 1
228 322 1
228 477 1
228 587 1
229 27 1
229 33 1
229 74 1
229 99 1
229 235 1
229 400 1
229 440 1
229 507 1
229 575 1
229 611 1
229 829 1
229 882 1
230 4 1
230 25 1
230 59 1
230 113 1
230 256 1
230 643 1
230 749 1
231 1 1
231 11 1
231 25 1
231 197 1
231 342 1
231 478 1
232 21 1
232 25 1
232 59 1
232 186 1
232 241 1
233 82 1
233 93 1
233 205 1
233 225 1
233 410 1
233 474 1
233 596 1
233 778 1
233 827 1
234 4 1
234 28 1
234 123 1
234 147 1
234 452 1
234 555 1
234 748 1
234 768 1
234 828 1
234 836 1
234 892 1
234 900 1
235 1 1
235 28 1
235 145 1
235 229 1
235 440 1
235 572 1
235 606 1
235 642 1
235 691 1
236 5 1
236 13 1
236 161 1
236 210 1
236 307 1
236 518 1
236 759 1
237 28 1
237 90 1
237 95 1
237 149 1
237 426 1
237 980 1
238 9 1
238 68 1
238 75 1
238 218 1
238 264 1
238 433 1
238 682 1
238 974 1
239 9 1
239 30 1
239 36 1
239 139 1
239 327 1
239 352 1
239 410 1
240 50 1
240 99 1
240 162 1
240 177 1
240 564 1
241 21 1
241 114 1
241 182 1
241 232 1
241 502 1
241 695 1
241 780 1
241 865 1
241 951 1
241 984 1
242 3 1
242 42 1
242 139 1
242 162 1
242 332 1
242 354 1
242 435 1
242 438 1
242 536 1
242 732 1
243 34 1
243 76 1
243 113 1
243 158 1
243 288 1
243 500 1
243 638 1
243 688 1
243 710 1
243 927 1
244 23 1
244 26 1
244 38 1
244 197 1
244 567 1
244 595 1
244 736 1
244 948 1
245 1 1
245 41 1
245 75 1
245 218 1
245 348 1
245 362 1
245 364 1
245 483 1
245 601 1
245 616 1
245 839 1
245 981 1
246 11 1
246 21 1
246 72 1
246 113 1
246 663 1
247 28 1
247 42 1
247 143 1
247 153 1
247 311 1
247 357 1
247 447 1
247 548 1
248 17 1
248 35 1
248 84 1
248 158 1
248 292 1
248 411 1
248 455 1
248 713 1
249 11 1
249 14 1
249 45 1
249 110 1
249 306 1
249 511 1
249 723 1
249 898 1
250 53 1
250 58 1
250 61 1
250 228 1
250 269 1
250 486 1
250 571 1
250 1000 1
251 42 1
251 43 1
251 44 1
251 100 1
251 396 1
251 462 1
251 865 1
251 881 1
251 984 1
252 156 1
252 164 1
252 194 1
252 300 1
252 764 1
252 987 1
253 36 1
253 60 1
253 62 1
253 102 1
253 577 1
254 9 1
254 12 1
254 101 1
254 157 1
254 369 1
254 475 1
254 931 1
255 19 1
255 50 1
255 80 1
255 101 1
256 25 1
256 27 1
256 165 1
256 230 1
256 506 1
256 525 1
257 1 1
257 17 1
257 29 1
257 129 1
257 452 1
257 609 1
257 712 1
257 866 1
258 14 1
258 142 1
258 193 1
258 196 1
258 353 1
258 831 1
259 25 1
259 84 1
259 165 1
259 186 1
259 276 1
259 302 1
259 339 1
259 507 1
259 533 1
259 611 1
259 627 1
259 954 1
260 18 1
260 25 1
260 28 1
260 219 1
260 341 1
260 580 1
261 4 1
261 50 1
261 51 1
261 152 1
261 285 1
261 308 1
261 467 1
261 559 1
261 708 1
261 718 1
261 888 1
261 956 1
262 17 1
262 84 1
262 100 1
262 218 1
262 310 1
262 334 1
262 706 1
263 8 1
263 9 1
263 86 1
263 114 1
264 9 1
264 84 1
264 92 1
264 238 1
264 306 1
264 355 1
264 459 1
264 461 1
264 571 1
264 622 1
264 682 1
264 811 1
264 932 1
264 974 1
265 33 1
265 36 1
265 75 1
265 76 1
265 343 1
265 384 1
265 402 1
265 415 1
265 431 1
265 499 1
265 552 1
265 561 1
265 586 1
265 626 1
265 658 1
266 3 1
266 42 1
266 81 1
266 189 1
266 424 1
266 468 1
266 484 1
266 490 1
266 543 1
266 818 1
267 5 1
267 6 1
267 59 1
267 220 1
267 345 1
267 482 1
267 494 1
267 588 1
267 748 1
267 793 1
267 837 1
268 26 1
268 65 1
268 125 1
268 159 1
268 367 1
268 441 1
268 445 1
268 458 1
268 527 1
268 693 1
268 766 1
269 53 1
269 61 1
269 228 1
269 250 1
269 322 1
269 468 1
269 486 1
269 848 1
269 901 1
270 6 1
270 17 1
270 19 1
270 141 1
270 374 1
270 976 1
271 9 1
271 17 1
271 111 1
271 158 1
271 397 1
271 531 1
271 603 1
272 42 1
272 101 1
272 135 1
272 149 1
272 326 1
272 359 1
272 528 1
272 680 1
272 862 1
273 24 1
273 30 1
273 43 1
273 106 1
273 551 1
273 678 1
273 726 1
273 767 1
273 934 1
274 17 1
274 21 1
274 59 1
274 85 1
274 413 1
274 573 1
274 758 1
275 11 1
275 46 1
275 146 1
275 198 1
275 505 1
275 678 1
275 712 1
275 759 1
275 910 1
275 940 1
276 4 1
276 131 1
276 171 1
276 259 1
276 428 1
276 627 1
277 51 1
277 82 1
277 152 1
277 202 1
277 282 1
277 412 1
277 622 1
277 696 1
278 33 1
278 42 1
278 58 1
278 153 1
278 311 1
278 491 1
278 502 1
278 765 1
279 33 1
279 39 1
279 94 1
279 106 1
279 418 1
280 19 1
280 27 1
280 78 1
280 171 1
280 472 1
280 761 1
281 3 1
281 6 1
281 19 1
281 203 1
281 524 1
281 541 1
281 987 1
282 28 1
282 30 1
282 210 1
282 277 1
282 291 1
282 563 1
282 741 1
282 842 1
282 891 1
282 902 1
282 917 1
282 947 1
283 11 1
283 44 1
283 84 1
283 92 1
283 331 1
284 18 1
284 95 1
284 117 1
284 214 1
284 372 1
284 460 1
284 574 1
284 661 1
284 717 1
284 792 1
284 945 1
284 990 1
285 50 1
285 65 1
285 149 1
285 261 1
285 399 1
285 559 1
285 956 1
286 14 1
286 49 1
286 50 1
286 130 1
286 350 1
286 788 1
287 1 1
287 57 1
287 155 1
287 174 1
287 536 1
288 1 1
288 113 1
288 202 1
288 243 1
288 592 1
288 694 1
288 729 1
289 3 1
289 26 1
289 97 1
289 170 1
289 323 1
289 492 1
289 545 1
289 735 1
289 749 1
289 756 1
289 887 1
289 889 1
289 916 1
289 969 1
290 10 1
290 35 1
290 36 1
290 218 1
290 299 1
290 305 1
290 365 1
290 642 1
290 863 1
291 30 1
291 123 1
291 178 1
291 282 1
291 293 1
291 425 1
291 442 1
291 563 1
291 602 1
291 634 1
291 651 1
292 44 1
292 126 1
292 132 1
292 248 1
292 412 1
293 48 1
293 130 1
293 185 1
293 291 1
293 602 1
293 661 1
293 689 1
293 861 1
294 25 1
294 89 1
294 100 1
294 185 1
294 425 1
294 550 1
294 612 1
294 739 1
294 746 1
295 25 1
295 36 1
295 60 1
295 182 1
295 664 1
296 1 1
296 70 1
296 73 1
296 86 1
296 504 1
296 708 1
297 2 1
297 36 1
297 44 1
297 52 1
297 368 1
297 376 1
297 618 1
297 802 1
297 835 1
298 9 1
298 98 1
298 157 1
298 185 1
298 763 1
298 775 1
298 830 1
298 944 1
298 991 1
299 10 1
299 110 1
299 129 1
299 290 1
299 344 1
299 913 1
299 964 1
300 106 1
300 140 1
300 143 1
300 252 1
300 568 1
300 639 1
300 733 1
301 11 1
301 92 1
301 94 1
301 127 1
301 803 1
302 9 1
302 87 1
302 186 1
302 259 1
302 664 1
302 684 1
302 830 1
303 5 1
303 42 1
303 69 1
303 181 1
303 451 1
303 625 1
303 754 1
303 781 1
304 23 1
304 113 1
304 193 1
304 196 1
304 739 1
304 903 1
305 49 1
305 50 1
305 218 1
305 290 1
305 333 1
305 365 1
306 26 1
306 119 1
306 249 1
306 264 1
306 459 1
306 596 1
306 693 1
306 900 1
307 13 1
307 57 1
307 97 1
307 236 1
307 406 1
308 1 1
308 6 1
308 113 1
308 261 1
308 420 1
308 475 1
308 476 1
308 564 1
308 632 1
308 833 1
309 21 1
309 29 1
309 134 1
309 215 1
309 594 1
309 683 1
309 807 1
310 15 1
310 134 1
310 201 1
310 262 1
310 826 1
311 44 1
311 153 1
311 247 1
311 278 1
311 420 1
311 514 1
312 1 1
312 3 1
312 4 1
312 181 1
312 363 1
312 390 1
312 644 1
312 725 1
312 827 1
313 95 1
313 137 1
313 150 1
313 170 1
313 409 1
313 444 1
313 918 1
313 992 1
314 1 1
314 25 1
314 35 1
314 213 1
314 640 1
314 683 1
314 789 1
314 905 1
315 1 1
315 43 1
315 52 1
315 106 1
316 3 1
316 4 1
316 59 1
316 142 1
317 46 1
317 84 1
317 181 1
317 227 1
317 387 1
317 423 1
317 450 1
318 25 1
318 98 1
318 199 1
318 225 1
318 516 1
319 20 1
319 28 1
319 81 1
319 134 1
319 773 1
320 11 1
320 42 1
320 140 1
320 219 1
321 3 1
321 41 1
321 60 1
321 67 1
321 488 1
321 580 1
321 617 1
321 653 1
321 678 1
321 703 1
322 22 1
322 53 1
322 228 1
322 269 1
322 364 1
322 422 1
322 502 1
322 952 1
323 19 1
323 20 1
323 170 1
323 289 1
323 492 1
323 824 1
323 999 1
324 12 1
324 19 1
324 78 1
324 132 1
324 500 1
324 647 1
324 730 1
324 778 1
324 832 1
325 11 1
325 19 1
325 42 1
325 153 1
325 401 1
325 598 1
325 825 1
326 42 1
326 67 1
326 89 1
326 272 1
326 340 1
326 412 1
326 417 1
326 484 1
326 540 1
326 644 1
326 804 1
327 3 1
327 36 1
327 114 1
327 239 1
327 356 1
327 358 1
327 405 1
327 668 1
327 751 1
328 9 1
328 17 1
328 69 1
328 185 1
328 907 1
328 937 1
329 32 1
329 121 1
329 211 1
329 219 1
329 366 1
330 9 1
330 50 1
330 190 1
330 191 1
330 399 1
330 477 1
330 485 1
330 534 1
330 681 1
330 812 1
330 877 1
331 3 1
331 84 1
331 189 1
331 283 1
331 395 1
331 413 1
331 783 1
332 12 1
332 96 1
332 139 1
332 242 1
332 438 1
332 536 1
332 541 1
332 732 1
332 768 1
333 1 1
333 9 1
333 218 1
333 305 1
334 3 1
334 100 1
334 157 1
334 262 1
334 351 1
334 394 1
334 925 1
335 79 1
335 138 1
335 153 1
335 169 1
335 733 1
336 9 1
336 19 1
336 62 1
336 74 1
336 400 1
336 598 1
336 770 1
337 9 1
337 60 1
337 142 1
337 209 1
337 353 1
337 471 1
337 522 1
337 643 1
337 646 1
337 671 1
337 704 1
337 783 1
338 12 1
338 17 1
338 100 1
338 220 1
338 464 1
338 509 1
338 728 1
338 832 1
338 971 1
339 84 1
339 137 1
339 165 1
339 259 1
339 511 1
339 519 1
339 983 1
340 42 1
340 97 1
340 161 1
340 326 1
340 385 1
340 540 1
341 2 1
341 15 1
341 54 1
341 260 1
342 11 1
342 54 1
342 74 1
342 231 1
342 478 1
342 873 1
343 76 1
343 140 1
343 159 1
343 265 1
343 642 1
343 744 1
344 30 1
344 59 1
344 164 1
344 299 1
344 361 1
344 373 1
344 436 1
344 957 1
345 17 1
345 59 1
345 98 1
345 267 1
345 442 1
345 459 1
345 473 1
345 520 1
345 807 1
346 22 1
346 42 1
346 61 1
346 85 1
346 857 1
347 4 1
347 39 1
347 106 1
347 204 1
347 373 1
347 789 1
347 826 1
347 882 1
348 77 1
348 90 1
348 219 1
348 245 1
348 554 1
349 27 1
349 101 1
349 134 1
349 191 1
349 431 1
349 433 1
349 528 1
349 593 1
349 721 1
349 908 1
350 9 1
350 14 1
350 49 1
350 286 1
351 84 1
351 157 1
351 178 1
351 334 1
351 466 1
351 576 1
351 700 1
351 719 1
352 36 1
352 44 1
352 188 1
352 239 1
352 358 1
352 659 1
353 12 1
353 109 1
353 258 1
353 337 1
353 471 1
353 641 1
353 758 1
353 778 1
354 11 1
354 46 1
354 109 1
354 242 1
354 573 1
354 854 1
354 915 1
355 1 1
355 9 1
355 111 1
355 264 1
355 508 1
355 952 1
356 20 1
356 36 1
356 68 1
356 327 1
356 751 1
356 936 1
357 28 1
357 33 1
357 120 1
357 247 1
357 548 1
357 549 1
357 944 1
357 960 1
358 11 1
358 46 1
358 327 1
358 352 1
358 912 1
359 19 1
359 100 1
359 137 1
359 272 1
359 614 1
359 631 1
359 669 1
359 680 1
359 856 1
360 6 1
360 27 1
360 98 1
360 124 1
360 650 1
360 934 1
361 4 1
361 18 1
361 164 1
361 344 1
361 436 1
361 648 1
361 668 1
362 19 1
362 26 1
362 105 1
362 245 1
362 364 1
362 483 1
362 839 1
362 870 1
362 873 1
362 930 1
362 966 1
363 3 1
363 71 1
363 194 1
363 312 1
363 663 1
363 725 1
363 810 1
364 51 1
364 245 1
364 322 1
364 362 1
364 662 1
364 870 1
364 883 1
364 945 1
365 28 1
365 218 1
365 290 1
365 305 1
365 482 1
365 489 1
365 672 1
365 761 1
366 1 1
366 46 1
366 209 1
366 329 1
367 7 1
367 39 1
367 58 1
367 268 1
367 527 1
367 651 1
367 941 1
368 17 1
368 109 1
368 225 1
368 297 1
368 427 1
368 584 1
368 802 1
368 849 1
369 4 1
369 8 1
369 12 1
369 254 1
370 37 1
370 38 1
370 149 1
370 191 1
370 480 1
370 926 1
371 1 1
371 132 1
371 165 1
371 221 1
371 535 1
371 601 1
371 637 1
371 709 1
371 839 1
372 95 1
372 117 1
372 214 1
372 284 1
372 415 1
372 611 1
372 838 1
373 21 1
373 59 1
373 344 1
373 347 1
373 816 1
374 13 1
374 145 1
374 150 1
374 270 1
374 475 1
374 547 1
375 4 1
375 46 1
375 135 1
375 157 1
375 727 1
375 908 1
376 17 1
376 35 1
376 178 1
376 297 1
376 394 1
376 753 1
376 754 1
376 802 1
377 17 1
377 70 1
377 131 1
377 170 1
378 3 1
378 36 1
378 172 1
378 218 1
378 563 1
378 988 1
379 11 1
379 42 1
379 98 1
379 199 1
379 396 1
379 398 1
379 523 1
379 875 1
380 3 1
380 22 1
380 51 1
380 176 1
380 696 1
380 873 1
380 946 1
381 19 1
381 122 1
381 127 1
381 140 1
381 393 1
381 429 1
381 569 1
381 750 1
381 859 1
381 867 1
381 869 1
381 879 1
381 922 1
381 953 1
382 5 1
382 82 1
382 130 1
382 146 1
382 513 1
382 538 1
382 630 1
383 9 1
383 32 1
383 50 1
383 121 1
383 604 1
383 695 1
383 893 1
384 26 1
384 144 1
384 149 1
384 265 1
385 42 1
385 90 1
385 97 1
385 340 1
385 514 1
385 519 1
385 743 1
385 808 1
386 4 1
386 5 1
386 28 1
386 186 1
386 441 1
386 595 1
387 17 1
387 45 1
387 84 1
387 317 1
387 423 1
387 455 1
387 494 1
387 673 1
388 4 1
388 13 1
388 14 1
388 23 1
388 562 1
388 676 1
388 886 1
389 25 1
389 79 1
389 114 1
389 202 1
389 616 1
389 659 1
390 42 1
390 76 1
390 139 1
390 312 1
391 3 1
391 5 1
391 25 1
391 76 1
391 629 1
391 711 1
392 7 1
392 11 1
392 25 1
392 158 1
393 19 1
393 30 1
393 214 1
393 381 1
393 432 1
393 548 1
393 557 1
393 858 1
393 953 1
393 977 1
394 4 1
394 50 1
394 334 1
394 376 1
394 515 1
394 570 1
395 1 1
395 36 1
395 101 1
395 331 1
395 408 1
395 443 1
395 485 1
395 747 1
396 33 1
396 42 1
396 251 1
396 379 1
396 523 1
396 621 1
396 814 1
396 865 1
397 9 1
397 17 1
397 42 1
397 271 1
397 731 1
397 927 1
398 17 1
398 82 1
398 146 1
398 379 1
399 9 1
399 18 1
399 285 1
399 330 1
399 477 1
399 915 1
400 74 1
400 154 1
400 229 1
400 336 1
400 582 1
400 829 1
401 33 1
401 34 1
401 113 1
401 325 1
402 9 1
402 20 1
402 87 1
402 265 1
402 425 1
402 657 1
402 764 1
403 12 1
403 14 1
403 103 1
403 163 1
403 446 1
403 501 1
403 512 1
403 557 1
403 640 1
403 718 1
404 8 1
404 12 1
404 42 1
404 217 1
404 467 1
404 672 1
405 97 1
405 105 1
405 155 1
405 327 1
405 446 1
405 721 1
405 904 1
406 68 1
406 97 1
406 163 1
406 307 1
406 699 1
406 959 1
407 8 1
407 45 1
407 69 1
407 83 1
407 594 1
407 836 1
408 9 1
408 80 1
408 129 1
408 395 1
408 533 1
409 14 1
409 18 1
409 123 1
409 313 1
409 586 1
409 796 1
409 859 1
409 918 1
409 958 1
410 62 1
410 83 1
410 233 1
410 239 1
410 472 1
411 8 1
411 42 1
411 89 1
411 248 1
411 685 1
411 954 1
411 987 1
412 202 1
412 277 1
412 292 1
412 326 1
413 4 1
413 105 1
413 274 1
413 331 1
413 798 1
413 904 1
414 17 1
414 89 1
414 134 1
414 171 1
414 729 1
414 877 1
415 109 1
415 117 1
415 265 1
415 372 1
415 552 1
415 675 1
415 745 1
415 876 1
416 95 1
416 100 1
416 115 1
416 129 1
416 447 1
417 3 1
417 57 1
417 89 1
417 326 1
418 28 1
418 99 1
418 167 1
418 279 1
418 446 1
418 602 1
418 701 1
418 716 1
419 9 1
419 12 1
419 75 1
419 173 1
419 439 1
419 527 1
419 690 1
420 143 1
420 153 1
420 308 1
420 311 1
420 530 1
420 577 1
420 614 1
420 765 1
420 901 1
421 7 1
421 108 1
421 180 1
421 210 1
421 495 1
421 938 1
422 26 1
422 53 1
422 68 1
422 322 1
422 583 1
422 952 1
423 17 1
423 45 1
423 317 1
423 387 1
423 735 1
424 1 1
424 28 1
424 169 1
424 266 1
424 468 1
425 100 1
425 291 1
425 294 1
425 402 1
425 746 1
426 153 1
426 157 1
426 198 1
426 237 1
427 3 1
427 12 1
427 109 1
427 368 1
427 584 1
427 787 1
427 849 1
428 74 1
428 145 1
428 150 1
428 276 1
429 4 1
429 9 1
429 190 1
429 381 1
430 48 1
430 54 1
430 95 1
430 125 1
430 667 1
431 130 1
431 219 1
431 265 1
431 349 1
432 20 1
432 33 1
432 221 1
432 393 1
432 555 1
432 673 1
432 794 1
432 960 1
433 27 1
433 51 1
433 238 1
433 349 1
433 518 1
433 682 1
433 724 1
433 929 1
434 3 1
434 55 1
434 164 1
434 218 1
435 14 1
435 36 1
435 139 1
435 242 1
435 438 1
435 465 1
435 533 1
435 555 1
435 558 1
435 574 1
435 615 1
435 795 1
435 846 1
435 958 1
436 41 1
436 131 1
436 344 1
436 361 1
436 549 1
436 783 1
436 957 1
437 29 1
437 75 1
437 139 1
437 184 1
438 3 1
438 242 1
438 332 1
438 435 1
438 705 1
438 732 1
439 12 1
439 20 1
439 60 1
439 419 1
440 28 1
440 145 1
440 229 1
440 235 1
441 62 1
441 125 1
441 268 1
441 386 1
441 529 1
441 855 1
441 978 1
442 59 1
442 178 1
442 291 1
442 345 1
442 465 1
442 535 1
442 806 1
443 1 1
443 76 1
443 210 1
443 395 1
444 3 1
444 12 1
444 29 1
444 313 1
444 560 1
444 686 1
444 924 1
445 26 1
445 33 1
445 44 1
445 268 1
445 458 1
445 708 1
445 942 1
446 99 1
446 403 1
446 405 1
446 418 1
446 453 1
446 557 1
446 866 1
447 28 1
447 82 1
447 247 1
447 416 1
448 8 1
448 159 1
448 195 1
448 204 1
449 5 1
449 6 1
449 116 1
449 161 1
449 498 1
449 578 1
449 595 1
449 720 1
449 998 1
450 5 1
450 182 1
450 199 1
450 317 1
450 657 1
451 12 1
451 52 1
451 159 1
451 303 1
451 985 1
452 11 1
452 17 1
452 234 1
452 257 1
452 609 1
452 915 1
453 26 1
453 29 1
453 65 1
453 446 1
453 591 1
453 607 1
453 673 1
454 1 1
454 9 1
454 17 1
454 195 1
454 525 1
454 636 1
454 646 1
454 686 1
454 872 1
455 17 1
455 147 1
455 248 1
455 387 1
455 579 1
455 791 1
456 22 1
456 25 1
456 82 1
456 114 1
456 534 1
457 4 1
457 33 1
457 41 1
457 44 1
457 737 1
458 18 1
458 65 1
458 268 1
458 445 1
458 740 1
459 131 1
459 264 1
459 306 1
459 345 1
460 21 1
460 44 1
460 142 1
460 284 1
460 574 1
460 636 1
460 786 1
461 33 1
461 92 1
461 127 1
461 264 1
461 559 1
461 622 1
461 766 1
462 1 1
462 12 1
462 183 1
462 251 1
463 4 1
463 18 1
463 25 1
463 185 1
463 738 1
464 17 1
464 47 1
464 82 1
464 338 1
464 465 1
464 776 1
464 806 1
465 82 1
465 435 1
465 442 1
465 464 1
465 562 1
465 806 1
466 11 1
466 112 1
466 157 1
466 351 1
466 565 1
466 719 1
467 12 1
467 200 1
467 261 1
467 404 1
467 508 1
468 42 1
468 266 1
468 269 1
468 424 1
468 486 1
468 570 1
468 677 1
468 782 1
468 818 1
469 42 1
469 65 1
469 82 1
469 202 1
469 601 1
469 604 1
470 3 1
470 7 1
470 33 1
470 60 1
471 65 1
471 209 1
471 337 1
471 353 1
471 522 1
471 539 1
472 27 1
472 213 1
472 280 1
472 410 1
473 26 1
473 96 1
473 144 1
473 345 1
474 7 1
474 29 1
474 205 1
474 233 1
474 544 1
475 9 1
475 254 1
475 308 1
475 374 1
475 547 1
475 560 1
475 739 1
476 13 1
476 86 1
476 154 1
476 308 1
476 564 1
476 970 1
477 191 1
477 228 1
477 330 1
477 399 1
477 812 1
478 28 1
478 29 1
478 231 1
478 342 1
478 714 1
478 790 1
478 888 1
479 23 1
479 43 1
479 137 1
479 186 1
479 868 1
480 37 1
480 108 1
480 116 1
480 370 1
481 50 1
481 66 1
481 83 1
481 205 1
481 702 1
481 763 1
481 842 1
481 863 1
482 1 1
482 5 1
482 267 1
482 365 1
482 489 1
483 18 1
483 90 1
483 245 1
483 362 1
483 515 1
483 793 1
483 921 1
483 930 1
484 3 1
484 27 1
484 266 1
484 326 1
484 874 1
485 44 1
485 190 1
485 330 1
485 395 1
485 681 1
485 747 1
486 53 1
486 250 1
486 269 1
486 468 1
486 1000 1
487 1 1
487 30 1
487 75 1
487 146 1
487 975 1
488 60 1
488 106 1
488 227 1
488 321 1
488 737 1
488 895 1
489 5 1
489 11 1
489 365 1
489 482 1
489 854 1
490 27 1
490 81 1
490 100 1
490 266 1
490 543 1
490 547 1
490 630 1
490 988 1
491 50 1
491 60 1
491 199 1
491 278 1
491 842 1
491 972 1
492 146 1
492 170 1
492 289 1
492 323 1
492 756 1
492 824 1
492 948 1
493 11 1
493 43 1
493 101 1
493 146 1
494 5 1
494 147 1
494 267 1
494 387 1
494 495 1
494 521 1
494 594 1
495 9 1
495 29 1
495 421 1
495 494 1
495 965 1
496 36 1
496 94 1
496 137 1
496 154 1
497 113 1
497 159 1
497 164 1
497 207 1
498 5 1
498 17 1
498 122 1
498 449 1
498 799 1
498 928 1
499 1 1
499 10 1
499 102 1
499 265 1
500 5 1
500 78 1
500 243 1
500 324 1
501 12 1
501 58 1
501 73 1
501 403 1
502 12 1
502 241 1
502 278 1
502 322 1
503 36 1
503 172 1
503 177 1
503 225 1
503 691 1
504 4 1
504 12 1
504 77 1
504 296 1
505 28 1
505 72 1
505 171 1
505 275 1
506 25 1
506 89 1
506 98 1
506 256 1
506 626 1
506 635 1
506 775 1
506 817 1
506 965 1
506 982 1
507 3 1
507 33 1
507 229 1
507 259 1
507 611 1
507 906 1
508 36 1
508 65 1
508 355 1
508 467 1
508 539 1
509 4 1
509 12 1
509 89 1
509 338 1
509 663 1
510 9 1
510 68 1
510 75 1
510 199 1
510 531 1
510 699 1
510 820 1
511 3 1
511 117 1
511 249 1
511 339 1
511 655 1
511 898 1
512 6 1
512 49 1
512 103 1
512 403 1
512 557 1
512 640 1
513 42 1
513 86 1
513 108 1
513 382 1
513 843 1
514 147 1
514 202 1
514 311 1
514 385 1
514 519 1
514 553 1
514 566 1
514 657 1
514 791 1
514 800 1
515 50 1
515 90 1
515 394 1
515 483 1
515 544 1
516 40 1
516 113 1
516 225 1
516 318 1
516 518 1
516 566 1
516 785 1
517 53 1
517 58 1
517 120 1
517 136 1
517 538 1
517 773 1
517 929 1
517 961 1
517 999 1
518 95 1
518 236 1
518 433 1
518 516 1
518 724 1
519 97 1
519 339 1
519 385 1
519 514 1
520 6 1
520 9 1
520 34 1
520 345 1
521 18 1
521 19 1
521 147 1
521 494 1
521 821 1
522 46 1
522 86 1
522 337 1
522 471 1
523 9 1
523 98 1
523 379 1
523 396 1
523 545 1
523 552 1
523 745 1
523 814 1
523 992 1
524 19 1
524 105 1
524 163 1
524 281 1
524 742 1
524 937 1
525 4 1
525 123 1
525 256 1
525 454 1
525 777 1
525 796 1
526 36 1
526 44 1
526 46 1
526 223 1
526 727 1
527 65 1
527 268 1
527 367 1
527 419 1
528 30 1
528 85 1
528 272 1
528 349 1
529 116 1
529 117 1
529 215 1
529 441 1
529 572 1
530 6 1
530 153 1
530 163 1
530 420 1
530 572 1
531 9 1
531 34 1
531 271 1
531 510 1
531 986 1
532 3 1
532 11 1
532 17 1
532 69 1
532 600 1
532 865 1
532 922 1
532 984 1
533 9 1
533 259 1
533 408 1
533 435 1
534 5 1
534 83 1
534 330 1
534 456 1
534 686 1
534 784 1
535 165 1
535 178 1
535 371 1
535 442 1
535 700 1
535 752 1
535 933 1
536 57 1
536 242 1
536 287 1
536 332 1
536 603 1
536 637 1
536 709 1
536 978 1
537 41 1
537 57 1
537 97 1
537 131 1
537 585 1
537 755 1
538 20 1
538 146 1
538 382 1
538 517 1
538 715 1
539 65 1
539 98 1
539 471 1
539 508 1
539 860 1
540 25 1
540 161 1
540 326 1
540 340 1
541 3 1
541 18 1
541 281 1
541 332 1
541 731 1
541 921 1
542 25 1
542 50 1
542 169 1
542 197 1
542 820 1
542 911 1
543 73 1
543 100 1
543 266 1
543 490 1
543 884 1
544 18 1
544 29 1
544 474 1
544 515 1
545 9 1
545 149 1
545 289 1
545 523 1
545 907 1
546 82 1
546 92 1
546 100 1
546 137 1
546 558 1
546 808 1
546 810 1
547 145 1
547 374 1
547 475 1
547 490 1
547 967 1
548 33 1
548 247 1
548 357 1
548 393 1
548 953 1
548 960 1
549 10 1
549 65 1
549 357 1
549 436 1
549 654 1
549 771 1
549 957 1
550 28 1
550 72 1
550 120 1
550 294 1
550 565 1
550 612 1
550 698 1
550 712 1
550 866 1
550 979 1
551 1 1
551 28 1
551 78 1
551 273 1
551 825 1
552 57 1
552 265 1
552 415 1
552 523 1
552 586 1
553 75 1
553 94 1
553 152 1
553 514 1
553 749 1
553 851 1
554 57 1
554 90 1
554 203 1
554 348 1
554 579 1
554 628 1
555 20 1
555 234 1
555 432 1
555 435 1
555 574 1
555 665 1
555 862 1
555 880 1
555 900 1
556 17 1
556 21 1
556 99 1
556 101 1
557 393 1
557 403 1
557 446 1
557 512 1
558 82 1
558 100 1
558 435 1
558 546 1
558 671 1
559 4 1
559 261 1
559 285 1
559 461 1
560 19 1
560 22 1
560 444 1
560 475 1
561 89 1
561 134 1
561 171 1
561 265 1
561 738 1
561 852 1
561 936 1
562 4 1
562 82 1
562 388 1
562 465 1
562 613 1
562 676 1
563 172 1
563 282 1
563 291 1
563 378 1
563 651 1
563 676 1
563 849 1
564 177 1
564 240 1
564 308 1
564 476 1
564 687 1
565 72 1
565 179 1
565 466 1
565 550 1
566 100 1
566 147 1
566 514 1
566 516 1
566 705 1
566 753 1
567 26 1
567 88 1
567 147 1
567 244 1
567 780 1
568 68 1
568 163 1
568 217 1
568 300 1
568 973 1
569 9 1
569 138 1
569 140 1
569 381 1
569 667 1
569 867 1
569 869 1
570 130 1
570 222 1
570 394 1
570 468 1
570 630 1
570 743 1
570 880 1
571 4 1
571 58 1
571 250 1
571 264 1
572 5 1
572 235 1
572 529 1
572 530 1
573 100 1
573 161 1
573 274 1
573 354 1
573 877 1
574 284 1
574 435 1
574 460 1
574 555 1
574 636 1
574 677 1
574 679 1
574 900 1
575 33 1
575 46 1
575 218 1
575 229 1
576 14 1
576 76 1
576 157 1
576 351 1
577 28 1
577 60 1
577 253 1
577 420 1
578 4 1
578 116 1
578 201 1
578 449 1
578 595 1
578 763 1
578 969 1
578 998 1
579 36 1
579 147 1
579 455 1
579 554 1
580 18 1
580 124 1
580 260 1
580 321 1
580 774 1
581 86 1
581 98 1
581 107 1
581 225 1
582 99 1
582 154 1
582 169 1
582 400 1
582 742 1
583 60 1
583 105 1
583 177 1
583 422 1
584 3 1
584 28 1
584 368 1
584 427 1
585 22 1
585 57 1
585 82 1
585 537 1
585 779 1
586 14 1
586 265 1
586 409 1
586 552 1
587 17 1
587 48 1
587 163 1
587 228 1
588 52 1
588 144 1
588 198 1
588 267 1
589 13 1
589 79 1
589 84 1
589 224 1
590 68 1
590 121 1
590 150 1
590 205 1
591 19 1
591 29 1
591 205 1
591 453 1
591 961 1
592 57 1
592 125 1
592 202 1
592 288 1
593 5 1
593 19 1
593 101 1
593 349 1
593 770 1
594 16 1
594 309 1
594 407 1
594 494 1
595 244 1
595 386 1
595 449 1
595 578 1
595 736 1
595 948 1
596 69 1
596 205 1
596 233 1
596 306 1
597 12 1
597 46 1
597 57 1
597 169 1
597 724 1
597 976 1
598 62 1
598 84 1
598 325 1
598 336 1
598 730 1
598 968 1
599 1 1
599 7 1
599 11 1
599 69 1
599 701 1
599 757 1
600 4 1
600 11 1
600 17 1
600 532 1
600 770 1
600 853 1
601 89 1
601 245 1
601 371 1
601 469 1
601 981 1
602 33 1
602 291 1
602 293 1
602 418 1
603 30 1
603 60 1
603 271 1
603 536 1
604 28 1
604 49 1
604 383 1
604 469 1
604 645 1
604 695 1
605 9 1
605 82 1
605 100 1
605 207 1
606 43 1
606 93 1
606 139 1
606 235 1
606 625 1
606 642 1
606 707 1
607 14 1
607 22 1
607 67 1
607 453 1
608 4 1
608 28 1
608 175 1
608 205 1
609 29 1
609 65 1
609 257 1
609 452 1
609 623 1
610 4 1
610 17 1
610 89 1
610 114 1
610 713 1
611 229 1
611 259 1
611 372 1
611 507 1
611 961 1
612 59 1
612 177 1
612 294 1
612 550 1
613 37 1
613 57 1
613 203 1
613 562 1
614 11 1
614 42 1
614 359 1
614 420 1
615 4 1
615 45 1
615 50 1
615 435 1
615 967 1
616 25 1
616 122 1
616 245 1
616 389 1
617 3 1
617 5 1
617 42 1
617 321 1
617 653 1
617 871 1
618 93 1
618 140 1
618 209 1
618 297 1
618 835 1
618 894 1
619 3 1
619 11 1
619 99 1
619 177 1
619 625 1
619 846 1
619 903 1
620 25 1
620 87 1
620 145 1
620 185 1
620 757 1
621 1 1
621 25 1
621 57 1
621 396 1
621 721 1
621 840 1
622 219 1
622 264 1
622 277 1
622 461 1
622 750 1
623 4 1
623 51 1
623 74 1
623 609 1
623 861 1
623 899 1
624 33 1
624 43 1
624 57 1
624 121 1
624 639 1
624 779 1
625 165 1
625 303 1
625 606 1
625 619 1
625 781 1
625 956 1
626 98 1
626 199 1
626 265 1
626 506 1
626 635 1
626 842 1
626 985 1
627 82 1
627 171 1
627 259 1
627 276 1
628 8 1
628 11 1
628 87 1
628 554 1
628 788 1
629 76 1
629 84 1
629 210 1
629 391 1
629 838 1
630 216 1
630 382 1
630 490 1
630 570 1
631 36 1
631 53 1
631 141 1
631 359 1
632 58 1
632 113 1
632 196 1
632 308 1
632 816 1
633 6 1
633 14 1
633 66 1
633 81 1
633 702 1
633 818 1
634 15 1
634 44 1
634 226 1
634 291 1
635 3 1
635 18 1
635 506 1
635 626 1
635 817 1
636 21 1
636 454 1
636 460 1
636 574 1
637 11 1
637 145 1
637 371 1
637 536 1
637 707 1
637 741 1
638 100 1
638 154 1
638 210 1
638 243 1
639 21 1
639 134 1
639 300 1
639 624 1
639 910 1
640 163 1
640 314 1
640 403 1
640 512 1
641 51 1
641 53 1
641 58 1
641 353 1
641 929 1
642 235 1
642 290 1
642 343 1
642 606 1
643 42 1
643 59 1
643 230 1
643 337 1
643 758 1
644 123 1
644 169 1
644 312 1
644 326 1
644 701 1
644 782 1
644 796 1
644 958 1
645 4 1
645 13 1
645 155 1
645 604 1
645 959 1
646 26 1
646 87 1
646 337 1
646 454 1
647 75 1
647 95 1
647 205 1
647 324 1
647 778 1
648 4 1
648 5 1
648 153 1
648 361 1
648 765 1
649 41 1
649 100 1
649 131 1
649 193 1
649 724 1
649 819 1
649 847 1
650 25 1
650 59 1
650 124 1
650 360 1
651 58 1
651 291 1
651 367 1
651 563 1
652 11 1
652 12 1
652 20 1
652 44 1
652 746 1
652 947 1
653 18 1
653 19 1
653 321 1
653 617 1
654 4 1
654 209 1
654 225 1
654 549 1
655 9 1
655 18 1
655 23 1
655 511 1
655 841 1
656 3 1
656 6 1
656 39 1
656 214 1
657 201 1
657 402 1
657 450 1
657 514 1
658 57 1
658 74 1
658 193 1
658 265 1
659 11 1
659 178 1
659 352 1
659 389 1
659 872 1
659 907 1
660 14 1
660 95 1
660 124 1
660 130 1
660 743 1
660 841 1
661 18 1
661 130 1
661 284 1
661 293 1
662 51 1
662 79 1
662 138 1
662 364 1
662 697 1
663 21 1
663 246 1
663 363 1
663 509 1
664 19 1
664 142 1
664 295 1
664 302 1
665 73 1
665 182 1
665 220 1
665 555 1
665 880 1
666 20 1
666 30 1
666 44 1
666 118 1
667 27 1
667 90 1
667 430 1
667 569 1
668 36 1
668 79 1
668 327 1
668 361 1
668 699 1
668 805 1
669 4 1
669 19 1
669 77 1
669 359 1
669 788 1
669 856 1
670 5 1
670 9 1
670 111 1
670 113 1
670 942 1
671 77 1
671 119 1
671 337 1
671 558 1
672 12 1
672 36 1
672 365 1
672 404 1
673 20 1
673 387 1
673 432 1
673 453 1
673 817 1
673 960 1
674 26 1
674 30 1
674 74 1
674 156 1
675 12 1
675 97 1
675 198 1
675 415 1
675 876 1
676 82 1
676 388 1
676 562 1
676 563 1
677 9 1
677 157 1
677 468 1
677 574 1
678 106 1
678 273 1
678 275 1
678 321 1
678 712 1
678 767 1
678 887 1
679 86 1
679 186 1
679 196 1
679 574 1
680 20 1
680 39 1
680 272 1
680 359 1
681 6 1
681 15 1
681 330 1
681 485 1
681 933 1
682 75 1
682 238 1
682 264 1
682 433 1
682 811 1
682 820 1
682 911 1
682 932 1
683 75 1
683 213 1
683 309 1
683 314 1
683 687 1
683 905 1
684 9 1
684 45 1
684 169 1
684 302 1
684 815 1
685 28 1
685 89 1
685 139 1
685 411 1
686 3 1
686 444 1
686 454 1
686 534 1
686 784 1
687 33 1
687 67 1
687 564 1
687 683 1
688 9 1
688 68 1
688 204 1
688 243 1
688 830 1
688 903 1
689 4 1
689 6 1
689 27 1
689 293 1
690 2 1
690 20 1
690 71 1
690 419 1
691 86 1
691 172 1
691 235 1
691 503 1
691 858 1
691 950 1
692 12 1
692 15 1
692 29 1
692 226 1
692 838 1
692 962 1
693 26 1
693 189 1
693 268 1
693 306 1
693 714 1
693 790 1
693 797 1
693 798 1
693 868 1
693 977 1
694 8 1
694 18 1
694 202 1
694 288 1
695 28 1
695 241 1
695 383 1
695 604 1
695 708 1
696 9 1
696 62 1
696 277 1
696 380 1
697 14 1
697 93 1
697 108 1
697 662 1
697 843 1
698 12 1
698 21 1
698 59 1
698 550 1
698 979 1
699 36 1
699 406 1
699 510 1
699 668 1
699 805 1
699 822 1
700 121 1
700 178 1
700 351 1
700 535 1
700 858 1
701 1 1
701 418 1
701 599 1
701 644 1
701 757 1
702 50 1
702 66 1
702 481 1
702 633 1
702 962 1
703 19 1
703 50 1
703 51 1
703 321 1
703 860 1
704 3 1
704 55 1
704 84 1
704 337 1
704 955 1
705 50 1
705 157 1
705 438 1
705 566 1
705 896 1
706 23 1
706 58 1
706 136 1
706 262 1
707 77 1
707 130 1
707 606 1
707 637 1
708 261 1
708 296 1
708 445 1
708 695 1
709 1 1
709 132 1
709 371 1
709 536 1
710 3 1
710 41 1
710 113 1
710 243 1
710 935 1
710 991 1
711 56 1
711 63 1
711 76 1
711 391 1
712 257 1
712 275 1
712 550 1
712 678 1
713 17 1
713 28 1
713 248 1
713 610 1
713 728 1
713 864 1
714 28 1
714 29 1
714 478 1
714 693 1
714 790 1
715 15 1
715 42 1
715 116 1
715 538 1
716 154 1
716 167 1
716 177 1
716 418 1
716 925 1
716 949 1
717 18 1
717 44 1
717 214 1
717 284 1
717 939 1
717 967 1
718 4 1
718 68 1
718 261 1
718 403 1
718 726 1
719 11 1
719 157 1
719 351 1
719 466 1
720 18 1
720 150 1
720 161 1
720 449 1
721 147 1
721 349 1
721 405 1
721 621 1
722 17 1
722 25 1
722 59 1
722 97 1
723 14 1
723 20 1
723 50 1
723 249 1
723 744 1
724 433 1
724 518 1
724 597 1
724 649 1
724 819 1
724 970 1
725 3 1
725 19 1
725 312 1
725 363 1
725 879 1
726 18 1
726 129 1
726 273 1
726 718 1
727 22 1
727 165 1
727 375 1
727 526 1
727 794 1
728 3 1
728 220 1
728 338 1
728 713 1
728 735 1
729 57 1
729 202 1
729 288 1
729 414 1
729 785 1
729 901 1
729 963 1
730 18 1
730 126 1
730 324 1
730 598 1
730 832 1
731 18 1
731 19 1
731 397 1
731 541 1
731 921 1
732 14 1
732 242 1
732 332 1
732 438 1
733 46 1
733 169 1
733 300 1
733 335 1
734 4 1
734 11 1
734 17 1
734 87 1
734 791 1
735 17 1
735 289 1
735 423 1
735 728 1
736 24 1
736 26 1
736 244 1
736 595 1
737 33 1
737 106 1
737 457 1
737 488 1
737 895 1
738 107 1
738 185 1
738 463 1
738 561 1
738 943 1
739 3 1
739 294 1
739 304 1
739 475 1
739 955 1
740 3 1
740 18 1
740 65 1
740 458 1
741 11 1
741 37 1
741 282 1
741 637 1
742 8 1
742 11 1
742 524 1
742 582 1
743 130 1
743 385 1
743 570 1
743 660 1
744 59 1
744 76 1
744 343 1
744 723 1
745 12 1
745 73 1
745 415 1
745 523 1
745 884 1
746 5 1
746 294 1
746 425 1
746 652 1
747 36 1
747 99 1
747 395 1
747 485 1
747 748 1
748 99 1
748 234 1
748 267 1
748 747 1
748 828 1
748 892 1
749 75 1
749 230 1
749 289 1
749 553 1
749 760 1
749 916 1
750 3 1
750 205 1
750 381 1
750 622 1
750 922 1
751 3 1
751 36 1
751 327 1
751 356 1
752 20 1
752 36 1
752 140 1
752 535 1
753 78 1
753 163 1
753 376 1
753 566 1
753 801 1
754 47 1
754 161 1
754 303 1
754 376 1
755 9 1
755 21 1
755 131 1
755 537 1
755 972 1
756 3 1
756 289 1
756 492 1
756 916 1
757 145 1
757 599 1
757 620 1
757 701 1
758 59 1
758 274 1
758 353 1
758 643 1
759 198 1
759 227 1
759 236 1
759 275 1
760 11 1
760 21 1
760 22 1
760 749 1
761 10 1
761 78 1
761 280 1
761 365 1
762 4 1
762 5 1
762 25 1
762 99 1
762 793 1
762 834 1
763 185 1
763 298 1
763 481 1
763 578 1
764 57 1
764 164 1
764 252 1
764 402 1
764 779 1
764 881 1
765 153 1
765 278 1
765 420 1
765 648 1
766 191 1
766 218 1
766 268 1
766 461 1
767 3 1
767 9 1
767 273 1
767 678 1
768 2 1
768 28 1
768 234 1
768 332 1
769 26 1
769 41 1
769 44 1
769 68 1
770 191 1
770 336 1
770 593 1
770 600 1
771 11 1
771 25 1
771 44 1
771 549 1
772 14 1
772 172 1
772 181 1
772 203 1
772 776 1
773 28 1
773 219 1
773 319 1
773 517 1
774 4 1
774 18 1
774 51 1
774 580 1
775 98 1
775 199 1
775 298 1
775 506 1
776 17 1
776 123 1
776 464 1
776 772 1
776 777 1
777 19 1
777 70 1
777 525 1
777 776 1
778 233 1
778 324 1
778 353 1
778 647 1
778 901 1
778 968 1
779 57 1
779 585 1
779 624 1
779 764 1
780 36 1
780 182 1
780 241 1
780 567 1
780 951 1
781 66 1
781 165 1
781 303 1
781 625 1
782 27 1
782 162 1
782 468 1
782 644 1
783 123 1
783 331 1
783 337 1
783 436 1
784 11 1
784 17 1
784 534 1
784 686 1
784 896 1
785 113 1
785 202 1
785 516 1
785 729 1
785 906 1
785 970 1
786 44 1
786 91 1
786 142 1
786 460 1
787 12 1
787 28 1
787 109 1
787 427 1
788 4 1
788 286 1
788 628 1
788 669 1
788 856 1
789 4 1
789 113 1
789 314 1
789 347 1
790 28 1
790 478 1
790 693 1
790 714 1
791 17 1
791 455 1
791 514 1
791 734 1
792 26 1
792 33 1
792 193 1
792 284 1
792 826 1
793 90 1
793 267 1
793 483 1
793 762 1
793 874 1
794 33 1
794 165 1
794 432 1
794 727 1
795 40 1
795 71 1
795 162 1
795 435 1
795 896 1
796 123 1
796 409 1
796 525 1
796 644 1
796 958 1
797 26 1
797 53 1
797 141 1
797 693 1
797 868 1
798 84 1
798 137 1
798 413 1
798 693 1
799 5 1
799 11 1
799 22 1
799 498 1
800 65 1
800 107 1
800 202 1
800 514 1
801 51 1
801 78 1
801 86 1
801 753 1
802 17 1
802 297 1
802 368 1
802 376 1
803 36 1
803 75 1
803 139 1
803 301 1
804 10 1
804 11 1
804 140 1
804 326 1
805 11 1
805 51 1
805 668 1
805 699 1
806 51 1
806 442 1
806 464 1
806 465 1
807 108 1
807 153 1
807 309 1
807 345 1
808 3 1
808 97 1
808 385 1
808 546 1
809 11 1
809 33 1
809 51 1
809 109 1
809 885 1
810 92 1
810 137 1
810 363 1
810 546 1
810 848 1
811 80 1
811 115 1
811 264 1
811 682 1
811 932 1
812 12 1
812 198 1
812 330 1
812 477 1
812 877 1
813 1 1
813 5 1
813 9 1
813 10 1
814 84 1
814 101 1
814 396 1
814 523 1
814 823 1
814 837 1
814 931 1
815 12 1
815 45 1
815 50 1
815 684 1
816 21 1
816 196 1
816 373 1
816 632 1
817 114 1
817 506 1
817 635 1
817 673 1
817 876 1
817 920 1
818 3 1
818 266 1
818 468 1
818 633 1
819 131 1
819 193 1
819 649 1
819 724 1
820 9 1
820 510 1
820 542 1
820 682 1
820 911 1
821 19 1
821 146 1
821 155 1
821 521 1
821 995 1
822 44 1
822 80 1
822 129 1
822 699 1
822 949 1
822 964 1
823 18 1
823 28 1
823 146 1
823 814 1
824 19 1
824 90 1
824 323 1
824 492 1
824 936 1
825 1 1
825 42 1
825 325 1
825 551 1
826 3 1
826 310 1
826 347 1
826 792 1
826 882 1
827 1 1
827 3 1
827 233 1
827 312 1
827 961 1
828 37 1
828 68 1
828 234 1
828 748 1
829 30 1
829 74 1
829 229 1
829 400 1
830 9 1
830 298 1
830 302 1
830 688 1
831 42 1
831 116 1
831 196 1
831 258 1
832 12 1
832 324 1
832 338 1
832 730 1
833 4 1
833 6 1
833 12 1
833 308 1
833 875 1
833 891 1
834 5 1
834 9 1
834 154 1
834 762 1
835 63 1
835 76 1
835 297 1
835 618 1
835 894 1
836 50 1
836 68 1
836 234 1
836 407 1
836 860 1
837 9 1
837 71 1
837 267 1
837 814 1
838 136 1
838 372 1
838 629 1
838 692 1
839 19 1
839 245 1
839 362 1
839 371 1
840 11 1
840 28 1
840 154 1
840 621 1
841 78 1
841 95 1
841 655 1
841 660 1
842 282 1
842 481 1
842 491 1
842 626 1
842 863 1
843 108 1
843 180 1
843 513 1
843 697 1
844 9 1
844 75 1
844 145 1
844 185 1
844 886 1
845 42 1
845 51 1
845 158 1
845 171 1
846 25 1
846 83 1
846 435 1
846 619 1
847 12 1
847 100 1
847 169 1
847 649 1
847 947 1
848 92 1
848 188 1
848 269 1
848 810 1
849 219 1
849 368 1
849 427 1
849 563 1
850 4 1
850 12 1
850 36 1
850 151 1
851 98 1
851 114 1
851 157 1
851 553 1
852 44 1
852 106 1
852 196 1
852 561 1
853 10 1
853 17 1
853 114 1
853 600 1
854 5 1
854 219 1
854 354 1
854 489 1
855 30 1
855 46 1
855 62 1
855 441 1
856 44 1
856 359 1
856 669 1
856 788 1
857 22 1
857 61 1
857 85 1
857 346 1
858 178 1
858 393 1
858 691 1
858 700 1
858 953 1
859 45 1
859 109 1
859 381 1
859 409 1
860 50 1
860 539 1
860 703 1
860 836 1
861 60 1
861 73 1
861 293 1
861 623 1
862 28 1
862 149 1
862 272 1
862 555 1
863 21 1
863 290 1
863 481 1
863 842 1
864 3 1
864 17 1
864 44 1
864 713 1
865 241 1
865 251 1
865 396 1
865 532 1
865 984 1
866 101 1
866 257 1
866 446 1
866 550 1
867 9 1
867 196 1
867 381 1
867 569 1
867 869 1
868 141 1
868 479 1
868 693 1
868 797 1
869 33 1
869 381 1
869 569 1
869 867 1
870 50 1
870 89 1
870 362 1
870 364 1
871 3 1
871 11 1
871 55 1
871 617 1
872 19 1
872 205 1
872 454 1
872 659 1
873 64 1
873 342 1
873 362 1
873 380 1
874 20 1
874 215 1
874 484 1
874 793 1
875 42 1
875 102 1
875 379 1
875 833 1
876 198 1
876 415 1
876 675 1
876 817 1
876 927 1
877 330 1
877 414 1
877 573 1
877 812 1
878 8 1
878 86 1
878 161 1
878 195 1
879 19 1
879 199 1
879 381 1
879 725 1
880 130 1
880 555 1
880 570 1
880 665 1
881 10 1
881 72 1
881 251 1
881 764 1
882 74 1
882 229 1
882 347 1
882 826 1
883 114 1
883 151 1
883 186 1
883 364 1
883 997 1
884 67 1
884 73 1
884 543 1
884 745 1
885 11 1
885 33 1
885 109 1
885 809 1
886 59 1
886 185 1
886 388 1
886 844 1
887 28 1
887 89 1
887 289 1
887 678 1
887 971 1
888 28 1
888 50 1
888 261 1
888 478 1
889 26 1
889 42 1
889 170 1
889 289 1
889 916 1
890 84 1
890 97 1
890 155 1
890 227 1
890 913 1
891 4 1
891 28 1
891 282 1
891 833 1
892 4 1
892 27 1
892 234 1
892 748 1
893 26 1
893 121 1
893 131 1
893 383 1
894 63 1
894 65 1
894 618 1
894 835 1
895 25 1
895 33 1
895 488 1
895 737 1
896 121 1
896 705 1
896 784 1
896 795 1
897 22 1
897 96 1
897 100 1
897 188 1
897 996 1
898 11 1
898 45 1
898 249 1
898 511 1
899 9 1
899 21 1
899 184 1
899 623 1
900 234 1
900 306 1
900 555 1
900 574 1
901 269 1
901 420 1
901 729 1
901 778 1
901 968 1
901 986 1
902 5 1
902 11 1
902 67 1
902 282 1
903 11 1
903 304 1
903 619 1
903 688 1
904 5 1
904 105 1
904 405 1
904 413 1
905 51 1
905 213 1
905 314 1
905 683 1
906 3 1
906 95 1
906 507 1
906 785 1
907 53 1
907 328 1
907 545 1
907 659 1
908 175 1
908 221 1
908 349 1
908 375 1
909 3 1
909 18 1
909 67 1
909 213 1
910 12 1
910 142 1
910 275 1
910 639 1
911 9 1
911 542 1
911 682 1
911 820 1
912 3 1
912 9 1
912 122 1
912 358 1
913 10 1
913 95 1
913 299 1
913 890 1
914 4 1
914 9 1
914 19 1
914 81 1
914 994 1
915 9 1
915 354 1
915 399 1
915 452 1
916 289 1
916 749 1
916 756 1
916 889 1
917 30 1
917 117 1
917 187 1
917 282 1
918 67 1
918 213 1
918 313 1
918 409 1
919 11 1
919 32 1
919 35 1
919 175 1
920 114 1
920 167 1
920 201 1
920 817 1
920 973 1
920 989 1
921 134 1
921 483 1
921 541 1
921 731 1
922 3 1
922 381 1
922 532 1
922 750 1
923 28 1
923 50 1
923 135 1
923 189 1
924 7 1
924 11 1
924 28 1
924 444 1
925 154 1
925 167 1
925 334 1
925 716 1
926 22 1
926 32 1
926 186 1
926 370 1
927 42 1
927 243 1
927 397 1
927 876 1
928 5 1
928 50 1
928 204 1
928 498 1
929 53 1
929 433 1
929 517 1
929 641 1
930 25 1
930 114 1
930 362 1
930 483 1
931 12 1
931 193 1
931 254 1
931 814 1
932 100 1
932 264 1
932 682 1
932 811 1
933 15 1
933 43 1
933 535 1
933 681 1
934 29 1
934 98 1
934 273 1
934 360 1
934 983 1
935 10 1
935 57 1
935 78 1
935 710 1
936 100 1
936 356 1
936 561 1
936 824 1
937 51 1
937 69 1
937 328 1
937 524 1
938 9 1
938 68 1
938 217 1
938 421 1
939 7 1
939 14 1
939 75 1
939 717 1
940 11 1
940 18 1
940 142 1
940 275 1
941 19 1
941 25 1
941 84 1
941 367 1
942 9 1
942 26 1
942 445 1
942 670 1
942 996 1
943 25 1
943 50 1
943 72 1
943 738 1
944 4 1
944 150 1
944 298 1
944 357 1
945 18 1
945 51 1
945 284 1
945 364 1
946 43 1
946 68 1
946 176 1
946 380 1
947 12 1
947 282 1
947 652 1
947 847 1
948 2 1
948 244 1
948 492 1
948 595 1
949 84 1
949 123 1
949 716 1
949 822 1
950 42 1
950 196 1
950 215 1
950 691 1
951 4 1
951 61 1
951 241 1
951 780 1
952 22 1
952 322 1
952 355 1
952 422 1
953 381 1
953 393 1
953 548 1
953 858 1
954 89 1
954 158 1
954 259 1
954 411 1
955 3 1
955 145 1
955 704 1
955 739 1
956 26 1
956 261 1
956 285 1
956 625 1
957 149 1
957 344 1
957 436 1
957 549 1
958 409 1
958 435 1
958 644 1
958 796 1
959 97 1
959 125 1
959 406 1
959 645 1
960 357 1
960 432 1
960 548 1
960 673 1
961 517 1
961 591 1
961 611 1
961 827 1
962 12 1
962 66 1
962 692 1
962 702 1
963 94 1
963 124 1
963 156 1
963 729 1
964 110 1
964 144 1
964 299 1
964 822 1
965 90 1
965 158 1
965 495 1
965 506 1
966 88 1
966 105 1
966 161 1
966 362 1
967 75 1
967 547 1
967 615 1
967 717 1
968 4 1
968 598 1
968 778 1
968 901 1
969 57 1
969 135 1
969 289 1
969 578 1
970 28 1
970 476 1
970 724 1
970 785 1
971 4 1
971 89 1
971 338 1
971 887 1
972 93 1
972 218 1
972 491 1
972 755 1
973 57 1
973 76 1
973 568 1
973 920 1
973 975 1
973 989 1
974 92 1
974 149 1
974 238 1
974 264 1
975 75 1
975 98 1
975 487 1
975 973 1
975 990 1
976 3 1
976 57 1
976 270 1
976 597 1
977 15 1
977 153 1
977 393 1
977 693 1
978 36 1
978 86 1
978 441 1
978 536 1
979 12 1
979 59 1
979 550 1
979 698 1
980 9 1
980 90 1
980 149 1
980 237 1
981 3 1
981 11 1
981 245 1
981 601 1
982 11 1
982 17 1
982 98 1
982 506 1
983 19 1
983 64 1
983 339 1
983 934 1
984 241 1
984 251 1
984 532 1
984 865 1
985 17 1
985 98 1
985 451 1
985 626 1
986 9 1
986 25 1
986 531 1
986 901 1
987 89 1
987 252 1
987 281 1
987 411 1
988 3 1
988 9 1
988 378 1
988 490 1
989 114 1
989 201 1
989 920 1
989 973 1
990 98 1
990 205 1
990 284 1
990 975 1
991 9 1
991 51 1
991 298 1
991 710 1
992 9 1
992 99 1
992 313 1
992 523 1
993 20 1
993 95 1
993 113 1
993 170 1
994 4 1
994 81 1
994 186 1
994 914 1
995 11 1
995 132 1
995 146 1
995 821 1
996 26 1
996 224 1
996 897 1
996 942 1
997 57 1
997 186 1
997 218 1
997 883 1
998 60 1
998 82 1
998 449 1
998 578 1
999 138 1
999 170 1
999 323 1
999 517 1
1000 61 1
1000 132 1
1000 250 1
1000 486 1
