%%MatrixMarket matrix coordinate integer general
1 5 1
1 6 1
1 7 1
1 10 1
1 11 1
1 14 1
1 16 1
1 19 1
1 22 1
1 34 1
1 38 1
1 41 1
1 45 1
1 50 1
1 54 1
1 67 1
1 73 1
1 77 1
1 90 1
1 105 1
1 107 1
1 110 1
1 123 1
1 130 1
1 136 1
1 143 1
1 146 1
1 150 1
1 151 1
1 153 1
1 177 1
1 181 1
1 184 1
1 189 1
1 208 1
1 212 1
1 213 1
1 229 1
1 234 1
1 247 1
1 248 1
1 258 1
1 283 1
1 285 1
1 296 1
1 325 1
1 331 1
1 388 1
1 399 1
1 413 1
1 426 1
1 434 1
1 436 1
1 446 1
1 448 1
1 452 1
1 453 1
1 471 1
1 480 1
1 516 1
1 526 1
1 538 1
1 548 1
1 556 1
1 564 1
1 607 1
1 619 1
1 621 1
1 623 1
1 628 1
1 741 1
1 754 1
1 758 1
1 760 1
1 772 1
1 782 1
1 815 1
1 830 1
1 837 1
1 842 1
1 873 1
1 886 1
1 895 1
1 907 1
1 920 1
1 936 1
1 941 1
1 944 1
1 1036 1
1 1081 1
1 1154 1
1 1163 1
1 1187 1
1 1196 1
1 1224 1
1 1232 1
1 1243 1
1 1266 1
1 1286 1
1 1295 1
1 1297 1
1 1343 1
1 1357 1
1 1362 1
1 1376 1
1 1435 1
1 1455 1
1 1477 1
1 1520 1
1 1544 1
1 1551 1
1 1610 1
1 1619 1
1 1620 1
1 1622 1
1 1662 1
1 1668 1
1 1707 1
1 1719 1
1 1724 1
1 1727 1
1 1828 1
1 1839 1
1 1850 1
1 1854 1
1 1875 1
1 1903 1
1 1909 1
1 1917 1
1 1978 1
1 1992 1
1 2029 1
1 2073 1
1 2078 1
1 2132 1
1 2138 1
1 2147 1
1 2210 1
1 2239 1
1 2287 1
1 2298 1
1 2299 1
1 2353 1
1 2355 1
1 2375 1
1 2387 1
1 2390 1
1 2423 1
1 2492 1
1 2586 1
1 2594 1
1 2599 1
1 2651 1
1 2706 1
1 2710 1
1 2784 1
1 2801 1
1 2812 1
1 2823 1
1 2825 1
1 2830 1
1 2888 1
1 2894 1
1 2932 1
1 2991 1
1 3009 1
1 3015 1
1 3027 1
1 3042 1
1 3155 1
1 3157 1
1 3172 1
1 3212 1
1 3220 1
1 3223 1
1 3238 1
1 3283 1
1 3309 1
1 3330 1
1 3339 1
1 3380 1
1 3398 1
1 3405 1
1 3495 1
1 3513 1
1 3556 1
1 3588 1
1 3725 1
1 3744 1
1 3750 1
1 3751 1
1 3789 1
1 3802 1
1 3837 1
1 3884 1
1 3887 1
1 3909 1
1 3926 1
1 3938 1
1 3955 1
1 3994 1
1 4002 1
1 4003 1
1 4021 1
1 4029 1
1 4142 1
1 4152 1
1 4176 1
1 4223 1
1 4279 1
1 4297 1
1 4301 1
1 4315 1
1 4345 1
1 4460 1
1 4502 1
1 4518 1
1 4567 1
1 4570 1
1 4642 1
1 4675 1
1 4687 1
1 4691 1
1 4720 1
1 4756 1
1 4764 1
1 4776 1
1 4780 1
1 4873 1
1 4967 1
1 4999 1
1 5034 1
1 5218 1
1 5243 1
1 5252 1
1 5259 1
1 5305 1
1 5323 1
1 5418 1
1 5427 1
1 5447 1
1 5460 1
1 5534 1
1 5551 1
1 5574 1
1 5580 1
1 5586 1
1 5589 1
1 5602 1
1 5641 1
1 5716 1
1 5766 1
1 5802 1
1 5828 1
1 5940 1
1 6015 1
1 6021 1
1 6093 1
1 6106 1
1 6200 1
1 6211 1
1 6227 1
1 6247 1
1 6254 1
1 6325 1
1 6395 1
1 6486 1
1 6513 1
1 6564 1
1 6571 1
1 6599 1
1 6611 1
1 6663 1
1 6682 1
1 6692 1
1 6722 1
1 6744 1
1 6745 1
1 6776 1
1 6843 1
1 6845 1
1 6872 1
1 6914 1
1 6923 1
1 6932 1
1 7005 1
1 7087 1
1 7130 1
1 7168 1
1 7251 1
1 7262 1
1 7314 1
1 7338 1
1 7348 1
1 7360 1
1 7367 1
1 7445 1
1 7459 1
1 7494 1
1 7549 1
1 7579 1
1 7728 1
1 7888 1
1 7890 1
1 7900 1
1 7963 1
1 8073 1
1 8083 1
1 8298 1
1 8335 1
1 8338 1
1 8361 1
1 8439 1
1 8440 1
1 8475 1
1 8673 1
1 8690 1
1 8705 1
1 8739 1
1 8782 1
1 8783 1
1 8808 1
1 8888 1
1 9037 1
1 9042 1
1 9112 1
1 9232 1
1 9252 1
1 9303 1
1 9311 1
1 9443 1
1 9530 1
1 9582 1
1 9584 1
1 9606 1
1 9638 1
1 9726 1
1 9737 1
1 9751 1
1 9796 1
1 9863 1
1 9905 1
1 9977 1
1 9981 1
1 9985 1
2 5 1
2 6 1
2 7 1
2 8 1
2 10 1
2 11 1
2 12 1
2 13 1
2 14 1
2 17 1
2 18 1
2 24 1
2 25 1
2 27 1
2 30 1
2 31 1
2 32 1
2 33 1
2 35 1
2 36 1
2 39 1
2 40 1
2 43 1
2 44 1
2 45 1
2 53 1
2 55 1
2 60 1
2 65 1
2 66 1
2 76 1
2 84 1
2 85 1
2 88 1
2 96 1
2 126 1
2 128 1
2 135 1
2 136 1
2 152 1
2 165 1
2 166 1
2 171 1
2 174 1
2 184 1
2 186 1
2 188 1
2 203 1
2 208 1
2 227 1
2 244 1
2 256 1
2 266 1
2 271 1
2 273 1
2 285 1
2 286 1
2 288 1
2 293 1
2 302 1
2 339 1
2 348 1
2 360 1
2 363 1
2 368 1
2 396 1
2 401 1
2 406 1
2 422 1
2 427 1
2 429 1
2 437 1
2 451 1
2 456 1
2 457 1
2 467 1
2 478 1
2 486 1
2 493 1
2 494 1
2 509 1
2 553 1
2 585 1
2 601 1
2 629 1
2 638 1
2 641 1
2 650 1
2 661 1
2 678 1
2 688 1
2 705 1
2 717 1
2 720 1
2 733 1
2 737 1
2 739 1
2 747 1
2 780 1
2 788 1
2 815 1
2 820 1
2 828 1
2 836 1
2 861 1
2 878 1
2 884 1
2 918 1
2 922 1
2 937 1
2 948 1
2 964 1
2 1012 1
2 1032 1
2 1044 1
2 1059 1
2 1065 1
2 1067 1
2 1075 1
2 1079 1
2 1112 1
2 1136 1
2 1138 1
2 1155 1
2 1191 1
2 1205 1
2 1209 1
2 1217 1
2 1231 1
2 1240 1
2 1257 1
2 1265 1
2 1303 1
2 1312 1
2 1317 1
2 1319 1
2 1341 1
2 1439 1
2 1461 1
2 1479 1
2 1486 1
2 1487 1
2 1507 1
2 1511 1
2 1545 1
2 1641 1
2 1677 1
2 1711 1
2 1740 1
2 1781 1
2 1811 1
2 1835 1
2 1880 1
2 1883 1
2 1905 1
2 1916 1
2 1919 1
2 1936 1
2 1954 1
2 1991 1
2 2050 1
2 2061 1
2 2104 1
2 2110 1
2 2123 1
2 2140 1
2 2141 1
2 2143 1
2 2161 1
2 2162 1
2 2171 1
2 2181 1
2 2186 1
2 2193 1
2 2219 1
2 2234 1
2 2271 1
2 2286 1
2 2339 1
2 2365 1
2 2366 1
2 2390 1
2 2411 1
2 2413 1
2 2451 1
2 2467 1
2 2499 1
2 2513 1
2 2529 1
2 2537 1
2 2563 1
2 2571 1
2 2581 1
2 2589 1
2 2636 1
2 2699 1
2 2700 1
2 2714 1
2 2731 1
2 2737 1
2 2759 1
2 2769 1
2 2775 1
2 2804 1
2 2809 1
2 2833 1
2 2870 1
2 2912 1
2 2981 1
2 3014 1
2 3032 1
2 3042 1
2 3063 1
2 3067 1
2 3070 1
2 3079 1
2 3083 1
2 3140 1
2 3142 1
2 3178 1
2 3224 1
2 3271 1
2 3275 1
2 3317 1
2 3371 1
2 3413 1
2 3461 1
2 3498 1
2 3528 1
2 3547 1
2 3614 1
2 3666 1
2 3677 1
2 3682 1
2 3716 1
2 3763 1
2 3781 1
2 3857 1
2 3895 1
2 3915 1
2 3930 1
2 3931 1
2 3963 1
2 3965 1
2 3983 1
2 4067 1
2 4093 1
2 4101 1
2 4106 1
2 4210 1
2 4229 1
2 4251 1
2 4277 1
2 4304 1
2 4322 1
2 4363 1
2 4364 1
2 4409 1
2 4431 1
2 4433 1
2 4461 1
2 4482 1
2 4578 1
2 4592 1
2 4618 1
2 4633 1
2 4650 1
2 4653 1
2 4681 1
2 4765 1
2 4773 1
2 4781 1
2 4824 1
2 4837 1
2 4890 1
2 4896 1
2 4911 1
2 4940 1
2 4962 1
2 5016 1
2 5025 1
2 5031 1
2 5059 1
2 5068 1
2 5090 1
2 5132 1
2 5158 1
2 5253 1
2 5258 1
2 5286 1
2 5303 1
2 5304 1
2 5321 1
2 5324 1
2 5364 1
2 5417 1
2 5450 1
2 5492 1
2 5547 1
2 5557 1
2 5606 1
2 5618 1
2 5631 1
2 5646 1
2 5681 1
2 5699 1
2 5737 1
2 5772 1
2 5855 1
2 5871 1
2 5877 1
2 5928 1
2 5953 1
2 5970 1
2 6042 1
2 6079 1
2 6094 1
2 6105 1
2 6111 1
2 6120 1
2 6150 1
2 6163 1
2 6175 1
2 6216 1
2 6242 1
2 6284 1
2 6289 1
2 6383 1
2 6396 1
2 6401 1
2 6425 1
2 6436 1
2 6458 1
2 6524 1
2 6607 1
2 6620 1
2 6669 1
2 6695 1
2 6770 1
2 6773 1
2 6795 1
2 6850 1
2 6854 1
2 6876 1
2 6895 1
2 6896 1
2 6971 1
2 6973 1
2 6975 1
2 7081 1
2 7128 1
2 7212 1
2 7283 1
2 7315 1
2 7330 1
2 7333 1
2 7379 1
2 7386 1
2 7424 1
2 7430 1
2 7438 1
2 7446 1
2 7449 1
2 7455 1
2 7470 1
2 7471 1
2 7475 1
2 7547 1
2 7664 1
2 7667 1
2 7685 1
2 7704 1
2 7774 1
2 7775 1
2 7840 1
2 7842 1
2 7910 1
2 7924 1
2 8026 1
2 8029 1
2 8094 1
2 8126 1
2 8137 1
2 8153 1
2 8210 1
2 8218 1
2 8256 1
2 8311 1
2 8315 1
2 8321 1
2 8322 1
2 8338 1
2 8364 1
2 8438 1
2 8460 1
2 8512 1
2 8608 1
2 8653 1
2 8673 1
2 8704 1
2 8768 1
2 8773 1
2 8807 1
2 8826 1
2 8900 1
2 9004 1
2 9131 1
2 9161 1
2 9186 1
2 9464 1
2 9496 1
2 9507 1
2 9557 1
2 9577 1
2 9589 1
2 9600 1
2 9607 1
2 9608 1
2 9613 1
2 9635 1
2 9769 1
2 9871 1
2 9877 1
2 9922 1
2 9938 1
2 9940 1
2 9960 1
3 5 1
3 7 1
3 8 1
3 13 1
3 24 1
3 51 1
3 69 1
3 78 1
3 112 1
3 161 1
3 173 1
3 175 1
3 183 1
3 194 1
3 250 1
3 369 1
3 397 1
3 422 1
3 439 1
3 481 1
3 488 1
3 513 1
3 691 1
3 720 1
3 784 1
3 824 1
3 869 1
3 907 1
3 909 1
3 1072 1
3 1083 1
3 1136 1
3 1288 1
3 1428 1
3 1467 1
3 1629 1
3 1699 1
3 1867 1
3 1908 1
3 1956 1
3 1970 1
3 2083 1
3 2152 1
3 2203 1
3 2518 1
3 2673 1
3 2892 1
3 3064 1
3 3073 1
3 3314 1
3 3318 1
3 3332 1
3 3841 1
3 3973 1
3 4048 1
3 4075 1
3 4095 1
3 4103 1
3 4299 1
3 4325 1
3 4504 1
3 4625 1
3 4697 1
3 5250 1
3 5697 1
3 5780 1
3 5972 1
3 5982 1
3 6751 1
3 6831 1
3 6905 1
3 7274 1
3 7421 1
3 7613 1
3 7634 1
3 7828 1
3 7869 1
3 8352 1
3 8362 1
3 8604 1
3 9062 1
3 9206 1
3 9508 1
4 5 1
4 6 1
4 8 1
4 9 1
4 12 1
4 15 1
4 17 1
4 19 1
4 24 1
4 25 1
4 26 1
4 27 1
4 28 1
4 38 1
4 39 1
4 40 1
4 46 1
4 52 1
4 55 1
4 56 1
4 62 1
4 63 1
4 68 1
4 72 1
4 76 1
4 79 1
4 80 1
4 81 1
4 86 1
4 95 1
4 97 1
4 100 1
4 102 1
4 106 1
4 109 1
4 121 1
4 127 1
4 142 1
4 143 1
4 144 1
4 149 1
4 165 1
4 177 1
4 186 1
4 192 1
4 220 1
4 235 1
4 254 1
4 257 1
4 260 1
4 267 1
4 269 1
4 272 1
4 280 1
4 296 1
4 309 1
4 314 1
4 316 1
4 320 1
4 327 1
4 328 1
4 342 1
4 359 1
4 371 1
4 372 1
4 393 1
4 411 1
4 431 1
4 458 1
4 460 1
4 467 1
4 482 1
4 485 1
4 529 1
4 537 1
4 596 1
4 604 1
4 632 1
4 646 1
4 655 1
4 662 1
4 737 1
4 766 1
4 770 1
4 792 1
4 796 1
4 816 1
4 823 1
4 826 1
4 838 1
4 852 1
4 876 1
4 891 1
4 913 1
4 953 1
4 962 1
4 982 1
4 994 1
4 1013 1
4 1050 1
4 1064 1
4 1065 1
4 1075 1
4 1098 1
4 1102 1
4 1105 1
4 1106 1
4 1126 1
4 1149 1
4 1169 1
4 1183 1
4 1188 1
4 1198 1
4 1201 1
4 1211 1
4 1214 1
4 1216 1
4 1240 1
4 1245 1
4 1248 1
4 1267 1
4 1273 1
4 1278 1
4 1280 1
4 1291 1
4 1327 1
4 1419 1
4 1426 1
4 1474 1
4 1501 1
4 1525 1
4 1531 1
4 1534 1
4 1551 1
4 1572 1
4 1574 1
4 1590 1
4 1597 1
4 1603 1
4 1621 1
4 1649 1
4 1652 1
4 1653 1
4 1681 1
4 1787 1
4 1806 1
4 1855 1
4 1872 1
4 1874 1
4 1935 1
4 1940 1
4 1965 1
4 2001 1
4 2004 1
4 2011 1
4 2021 1
4 2081 1
4 2091 1
4 2169 1
4 2183 1
4 2277 1
4 2326 1
4 2331 1
4 2334 1
4 2338 1
4 2362 1
4 2380 1
4 2421 1
4 2503 1
4 2577 1
4 2609 1
4 2610 1
4 2629 1
4 2661 1
4 2677 1
4 2697 1
4 2723 1
4 2735 1
4 2742 1
4 2743 1
4 2761 1
4 2793 1
4 2827 1
4 2830 1
4 2892 1
4 2934 1
4 2937 1
4 2976 1
4 2986 1
4 3004 1
4 3006 1
4 3008 1
4 3041 1
4 3172 1
4 3197 1
4 3207 1
4 3212 1
4 3250 1
4 3252 1
4 3314 1
4 3376 1
4 3397 1
4 3519 1
4 3574 1
4 3575 1
4 3659 1
4 3675 1
4 3701 1
4 3702 1
4 3826 1
4 3847 1
4 3869 1
4 3942 1
4 3943 1
4 4004 1
4 4036 1
4 4050 1
4 4100 1
4 4149 1
4 4152 1
4 4156 1
4 4163 1
4 4192 1
4 4300 1
4 4323 1
4 4345 1
4 4436 1
4 4455 1
4 4463 1
4 4593 1
4 4640 1
4 4646 1
4 4688 1
4 4797 1
4 4855 1
4 4881 1
4 4923 1
4 4979 1
4 5013 1
4 5042 1
4 5075 1
4 5146 1
4 5171 1
4 5184 1
4 5189 1
4 5250 1
4 5289 1
4 5326 1
4 5342 1
4 5361 1
4 5364 1
4 5399 1
4 5413 1
4 5427 1
4 5499 1
4 5552 1
4 5554 1
4 5580 1
4 5583 1
4 5632 1
4 5666 1
4 5690 1
4 5718 1
4 5770 1
4 5822 1
4 5823 1
4 5829 1
4 5993 1
4 5996 1
4 6085 1
4 6220 1
4 6429 1
4 6436 1
4 6448 1
4 6451 1
4 6685 1
4 6694 1
4 6735 1
4 6823 1
4 7016 1
4 7024 1
4 7143 1
4 7233 1
4 7306 1
4 7307 1
4 7370 1
4 7393 1
4 7534 1
4 7588 1
4 7858 1
4 7888 1
4 7923 1
4 7982 1
4 8008 1
4 8048 1
4 8095 1
4 8518 1
4 8523 1
4 8563 1
4 8849 1
4 8955 1
4 8991 1
4 8992 1
4 9008 1
4 9026 1
4 9056 1
4 9087 1
4 9096 1
4 9126 1
4 9183 1
4 9248 1
4 9279 1
4 9324 1
4 9387 1
4 9427 1
4 9467 1
4 9468 1
4 9496 1
4 9500 1
4 9510 1
4 9569 1
4 9657 1
4 9747 1
4 9793 1
4 9794 1
4 9815 1
4 9816 1
4 9880 1
4 9906 1
4 9912 1
5 1 1
5 2 1
5 3 1
5 4 1
5 6 1
5 7 1
5 8 1
5 9 1
5 10 1
5 11 1
5 12 1
5 14 1
5 15 1
5 16 1
5 20 1
5 21 1
5 25 1
5 28 1
5 34 1
5 37 1
5 43 1
5 44 1
5 46 1
5 53 1
5 56 1
5 57 1
5 65 1
5 83 1
5 91 1
5 92 1
5 111 1
5 113 1
5 138 1
5 153 1
5 197 1
5 209 1
5 211 1
5 223 1
5 245 1
5 263 1
5 268 1
5 297 1
5 313 1
5 323 1
5 337 1
5 343 1
5 399 1
5 404 1
5 411 1
5 424 1
5 453 1
5 473 1
5 521 1
5 523 1
5 540 1
5 544 1
5 584 1
5 587 1
5 631 1
5 643 1
5 669 1
5 756 1
5 782 1
5 802 1
5 832 1
5 871 1
5 891 1
5 927 1
5 938 1
5 946 1
5 947 1
5 959 1
5 967 1
5 1000 1
5 1037 1
5 1046 1
5 1063 1
5 1091 1
5 1123 1
5 1153 1
5 1186 1
5 1223 1
5 1250 1
5 1309 1
5 1327 1
5 1358 1
5 1390 1
5 1391 1
5 1451 1
5 1502 1
5 1521 1
5 1537 1
5 1538 1
5 1572 1
5 1589 1
5 1656 1
5 1676 1
5 1689 1
5 1739 1
5 1749 1
5 1777 1
5 1780 1
5 1782 1
5 1810 1
5 1817 1
5 1909 1
5 2023 1
5 2049 1
5 2101 1
5 2115 1
5 2174 1
5 2209 1
5 2279 1
5 2335 1
5 2412 1
5 2428 1
5 2455 1
5 2511 1
5 2595 1
5 2607 1
5 2608 1
5 2644 1
5 2650 1
5 2700 1
5 2719 1
5 2762 1
5 2850 1
5 2858 1
5 3004 1
5 3014 1
5 3030 1
5 3143 1
5 3171 1
5 3226 1
5 3239 1
5 3299 1
5 3319 1
5 3398 1
5 3712 1
5 3735 1
5 3786 1
5 3820 1
5 3894 1
5 3934 1
5 4104 1
5 4117 1
5 4120 1
5 4197 1
5 4299 1
5 4314 1
5 4338 1
5 4443 1
5 4456 1
5 4474 1
5 4684 1
5 4689 1
5 4848 1
5 4950 1
5 5027 1
5 5234 1
5 5348 1
5 5722 1
5 5733 1
5 5758 1
5 5778 1
5 5821 1
5 5925 1
5 6009 1
5 6067 1
5 6190 1
5 6191 1
5 6216 1
5 6218 1
5 6224 1
5 6553 1
5 6560 1
5 6629 1
5 6689 1
5 6970 1
5 6996 1
5 7028 1
5 7039 1
5 7047 1
5 7140 1
5 7142 1
5 7149 1
5 7153 1
5 7271 1
5 7365 1
5 7507 1
5 7589 1
5 7622 1
5 7630 1
5 7771 1
5 7809 1
5 7820 1
5 7918 1
5 8208 1
5 8241 1
5 8496 1
5 8644 1
5 8733 1
5 8882 1
5 9031 1
5 9063 1
5 9348 1
5 9357 1
5 9367 1
5 9397 1
5 9505 1
5 9566 1
5 9606 1
5 9642 1
5 9838 1
5 9870 1
5 9895 1
5 9908 1
6 1 1
6 2 1
6 4 1
6 5 1
6 9 1
6 10 1
6 11 1
6 15 1
6 16 1
6 17 1
6 19 1
6 20 1
6 22 1
6 26 1
6 32 1
6 37 1
6 55 1
6 72 1
6 111 1
6 130 1
6 148 1
6 156 1
6 158 1
6 176 1
6 241 1
6 293 1
6 295 1
6 317 1
6 350 1
6 357 1
6 376 1
6 424 1
6 460 1
6 486 1
6 550 1
6 604 1
6 791 1
6 899 1
6 924 1
6 936 1
6 941 1
6 976 1
6 1326 1
6 1467 1
6 1560 1
6 1562 1
6 1594 1
6 1914 1
6 1959 1
6 2039 1
6 2102 1
6 2297 1
6 2486 1
6 2659 1
6 2835 1
6 3008 1
6 3144 1
6 3574 1
6 3855 1
6 3890 1
6 4167 1
6 4216 1
6 4334 1
6 4397 1
6 4565 1
6 4705 1
6 4741 1
6 4787 1
6 4828 1
6 5088 1
6 5111 1
6 5678 1
6 5819 1
6 6042 1
6 6829 1
6 7016 1
6 7029 1
6 7033 1
6 7053 1
6 7471 1
6 7501 1
6 7655 1
6 7663 1
6 7743 1
6 8165 1
6 8193 1
6 8426 1
6 8879 1
6 9001 1
6 9404 1
6 9439 1
6 9560 1
7 1 1
7 2 1
7 3 1
7 5 1
7 14 1
7 18 1
7 24 1
7 39 1
7 71 1
7 81 1
7 93 1
7 122 1
7 123 1
7 217 1
7 244 1
7 271 1
7 450 1
7 451 1
7 487 1
7 676 1
7 770 1
7 903 1
7 1096 1
7 1184 1
7 2187 1
7 2397 1
7 2767 1
7 2989 1
7 3064 1
7 3635 1
7 4601 1
7 4951 1
7 5132 1
7 5369 1
7 6843 1
7 7301 1
7 7524 1
7 7671 1
7 8747 1
7 9850 1
8 2 1
8 3 1
8 4 1
8 5 1
8 18 1
8 38 1
8 56 1
8 58 1
8 72 1
8 88 1
8 297 1
8 368 1
8 376 1
8 409 1
8 433 1
8 538 1
8 561 1
8 873 1
8 931 1
8 981 1
8 1446 1
8 2225 1
8 2307 1
8 2514 1
8 2903 1
8 3983 1
8 4060 1
8 4163 1
8 4660 1
8 6503 1
8 6566 1
8 6822 1
8 8534 1
9 4 1
9 5 1
9 6 1
9 17 1
9 19 1
9 22 1
9 28 1
9 42 1
9 43 1
9 47 1
9 48 1
9 49 1
9 53 1
9 54 1
9 61 1
9 70 1
9 74 1
9 87 1
9 88 1
9 89 1
9 91 1
9 101 1
9 105 1
9 115 1
9 124 1
9 129 1
9 144 1
9 155 1
9 162 1
9 172 1
9 193 1
9 196 1
9 199 1
9 232 1
9 233 1
9 235 1
9 248 1
9 250 1
9 287 1
9 292 1
9 299 1
9 301 1
9 314 1
9 315 1
9 321 1
9 329 1
9 346 1
9 347 1
9 350 1
9 353 1
9 355 1
9 370 1
9 383 1
9 419 1
9 442 1
9 445 1
9 457 1
9 491 1
9 498 1
9 506 1
9 507 1
9 518 1
9 538 1
9 543 1
9 567 1
9 568 1
9 586 1
9 602 1
9 604 1
9 612 1
9 615 1
9 641 1
9 669 1
9 674 1
9 683 1
9 713 1
9 715 1
9 722 1
9 728 1
9 752 1
9 785 1
9 809 1
9 835 1
9 884 1
9 911 1
9 916 1
9 931 1
9 943 1
9 976 1
9 1019 1
9 1031 1
9 1052 1
9 1066 1
9 1113 1
9 1159 1
9 1192 1
9 1218 1
9 1253 1
9 1268 1
9 1269 1
9 1270 1
9 1283 1
9 1293 1
9 1307 1
9 1326 1
9 1345 1
9 1352 1
9 1364 1
9 1432 1
9 1440 1
9 1447 1
9 1457 1
9 1459 1
9 1464 1
9 1486 1
9 1500 1
9 1504 1
9 1520 1
9 1532 1
9 1543 1
9 1559 1
9 1563 1
9 1593 1
9 1606 1
9 1627 1
9 1629 1
9 1648 1
9 1653 1
9 1711 1
9 1734 1
9 1780 1
9 1825 1
9 1826 1
9 1836 1
9 1848 1
9 1858 1
9 1875 1
9 1882 1
9 1893 1
9 1902 1
9 1938 1
9 1964 1
9 1982 1
9 1994 1
9 2003 1
9 2076 1
9 2082 1
9 2099 1
9 2102 1
9 2147 1
9 2148 1
9 2149 1
9 2160 1
9 2173 1
9 2176 1
9 2193 1
9 2200 1
9 2209 1
9 2245 1
9 2267 1
9 2286 1
9 2295 1
9 2331 1
9 2449 1
9 2462 1
9 2466 1
9 2470 1
9 2485 1
9 2486 1
9 2490 1
9 2555 1
9 2571 1
9 2596 1
9 2601 1
9 2610 1
9 2650 1
9 2666 1
9 2691 1
9 2716 1
9 2731 1
9 2736 1
9 2758 1
9 2765 1
9 2770 1
9 2773 1
9 2788 1
9 2791 1
9 2843 1
9 2856 1
9 2864 1
9 2868 1
9 2876 1
9 2882 1
9 2966 1
9 2972 1
9 3009 1
9 3025 1
9 3033 1
9 3072 1
9 3085 1
9 3113 1
9 3116 1
9 3126 1
9 3143 1
9 3175 1
9 3184 1
9 3200 1
9 3210 1
9 3213 1
9 3224 1
9 3227 1
9 3252 1
9 3290 1
9 3292 1
9 3308 1
9 3335 1
9 3345 1
9 3351 1
9 3367 1
9 3368 1
9 3370 1
9 3382 1
9 3419 1
9 3436 1
9 3441 1
9 3494 1
9 3505 1
9 3506 1
9 3512 1
9 3532 1
9 3579 1
9 3580 1
9 3599 1
9 3628 1
9 3632 1
9 3663 1
9 3709 1
9 3716 1
9 3723 1
9 3729 1
9 3743 1
9 3774 1
9 3780 1
9 3866 1
9 3912 1
9 3935 1
9 3957 1
9 3974 1
9 4062 1
9 4068 1
9 4117 1
9 4132 1
9 4146 1
9 4153 1
9 4173 1
9 4240 1
9 4257 1
9 4277 1
9 4319 1
9 4381 1
9 4401 1
9 4429 1
9 4432 1
9 4469 1
9 4507 1
9 4531 1
9 4556 1
9 4559 1
9 4563 1
9 4566 1
9 4602 1
9 4632 1
9 4664 1
9 4719 1
9 4766 1
9 4890 1
9 4894 1
9 4909 1
9 4916 1
9 4939 1
9 5007 1
9 5058 1
9 5090 1
9 5099 1
9 5112 1
9 5130 1
9 5131 1
9 5161 1
9 5192 1
9 5210 1
9 5232 1
9 5238 1
9 5263 1
9 5270 1
9 5280 1
9 5288 1
9 5393 1
9 5406 1
9 5410 1
9 5418 1
9 5472 1
9 5495 1
9 5529 1
9 5554 1
9 5562 1
9 5600 1
9 5634 1
9 5654 1
9 5805 1
9 5811 1
9 5833 1
9 5854 1
9 5867 1
9 5906 1
9 5909 1
9 6039 1
9 6068 1
9 6085 1
9 6170 1
9 6197 1
9 6244 1
9 6283 1
9 6287 1
9 6300 1
9 6303 1
9 6435 1
9 6456 1
9 6473 1
9 6495 1
9 6496 1
9 6533 1
9 6592 1
9 6601 1
9 6619 1
9 6632 1
9 6648 1
9 6740 1
9 6829 1
9 6891 1
9 6908 1
9 6926 1
9 6936 1
9 7103 1
9 7115 1
9 7121 1
9 7152 1
9 7247 1
9 7285 1
9 7308 1
9 7325 1
9 7354 1
9 7383 1
9 7388 1
9 7409 1
9 7436 1
9 7451 1
9 7452 1
9 7528 1
9 7539 1
9 7558 1
9 7568 1
9 7635 1
9 7697 1
9 7729 1
9 7767 1
9 7773 1
9 7792 1
9 7832 1
9 7959 1
9 8002 1
9 8015 1
9 8022 1
9 8055 1
9 8102 1
9 8218 1
9 8250 1
9 8260 1
9 8266 1
9 8319 1
9 8373 1
9 8395 1
9 8416 1
9 8421 1
9 8469 1
9 8471 1
9 8503 1
9 8507 1
9 8531 1
9 8577 1
9 8605 1
9 8638 1
9 8650 1
9 8670 1
9 8681 1
9 8722 1
9 8795 1
9 8859 1
9 8860 1
9 8945 1
9 8981 1
9 9005 1
9 9093 1
9 9223 1
9 9251 1
9 9274 1
9 9414 1
9 9417 1
9 9485 1
9 9610 1
9 9634 1
9 9635 1
9 9653 1
9 9674 1
9 9740 1
9 9774 1
9 9796 1
9 9860 1
9 9891 1
9 9897 1
10 1 1
10 2 1
10 5 1
10 6 1
10 13 1
10 20 1
10 21 1
10 27 1
10 33 1
10 34 1
10 59 1
10 65 1
10 73 1
10 79 1
10 92 1
10 95 1
10 100 1
10 105 1
10 162 1
10 179 1
10 185 1
10 188 1
10 197 1
10 207 1
10 216 1
10 219 1
10 239 1
10 250 1
10 267 1
10 277 1
10 287 1
10 321 1
10 323 1
10 417 1
10 427 1
10 438 1
10 477 1
10 478 1
10 498 1
10 510 1
10 545 1
10 558 1
10 570 1
10 571 1
10 620 1
10 621 1
10 626 1
10 682 1
10 684 1
10 709 1
10 736 1
10 759 1
10 807 1
10 845 1
10 848 1
10 866 1
10 899 1
10 911 1
10 930 1
10 955 1
10 961 1
10 966 1
10 978 1
10 984 1
10 1021 1
10 1035 1
10 1036 1
10 1047 1
10 1056 1
10 1082 1
10 1138 1
10 1162 1
10 1175 1
10 1208 1
10 1261 1
10 1272 1
10 1306 1
10 1325 1
10 1363 1
10 1385 1
10 1435 1
10 1444 1
10 1470 1
10 1485 1
10 1491 1
10 1531 1
10 1564 1
10 1616 1
10 1640 1
10 1692 1
10 1748 1
10 1765 1
10 1775 1
10 1804 1
10 1823 1
10 1874 1
10 1894 1
10 2015 1
10 2022 1
10 2024 1
10 2035 1
10 2114 1
10 2133 1
10 2155 1
10 2162 1
10 2186 1
10 2243 1
10 2276 1
10 2324 1
10 2508 1
10 2550 1
10 2559 1
10 2576 1
10 2611 1
10 2619 1
10 2649 1
10 2654 1
10 2727 1
10 2745 1
10 2750 1
10 2771 1
10 2786 1
10 2789 1
10 2818 1
10 2862 1
10 2911 1
10 3053 1
10 3141 1
10 3156 1
10 3232 1
10 3301 1
10 3319 1
10 3352 1
10 3359 1
10 3422 1
10 3491 1
10 3542 1
10 3549 1
10 3550 1
10 3591 1
10 3614 1
10 3732 1
10 3736 1
10 3741 1
10 3764 1
10 3769 1
10 3840 1
10 3918 1
10 3922 1
10 3972 1
10 4022 1
10 4055 1
10 4073 1
10 4112 1
10 4122 1
10 4131 1
10 4141 1
10 4310 1
10 4330 1
10 4434 1
10 4471 1
10 4586 1
10 4693 1
10 4711 1
10 4741 1
10 4869 1
10 4909 1
10 4919 1
10 4921 1
10 4932 1
10 5006 1
10 5022 1
10 5107 1
10 5108 1
10 5282 1
10 5316 1
10 5327 1
10 5390 1
10 5401 1
10 5543 1
10 5682 1
10 5697 1
10 5709 1
10 5726 1
10 5785 1
10 5895 1
10 5944 1
10 6033 1
10 6202 1
10 6210 1
10 6239 1
10 6425 1
10 6461 1
10 6565 1
10 6620 1
10 6670 1
10 6727 1
10 6943 1
10 6977 1
10 6987 1
10 7019 1
10 7098 1
10 7109 1
10 7121 1
10 7224 1
10 7282 1
10 7292 1
10 7377 1
10 7444 1
10 7517 1
10 7519 1
10 7589 1
10 7652 1
10 7862 1
10 7919 1
10 8049 1
10 8067 1
10 8108 1
10 8166 1
10 8219 1
10 8274 1
10 8322 1
10 8358 1
10 8384 1
10 8454 1
10 8498 1
10 8572 1
10 8600 1
10 8649 1
10 8781 1
10 8896 1
10 8897 1
10 8900 1
10 8938 1
10 9034 1
10 9036 1
10 9048 1
10 9077 1
10 9222 1
10 9277 1
10 9335 1
10 9344 1
10 9502 1
10 9661 1
10 9676 1
10 9689 1
10 9739 1
10 9744 1
10 9761 1
10 9766 1
10 9938 1
11 1 1
11 2 1
11 5 1
11 6 1
11 12 1
11 18 1
11 23 1
11 34 1
11 36 1
11 37 1
11 39 1
11 41 1
11 45 1
11 48 1
11 50 1
11 57 1
11 60 1
11 66 1
11 67 1
11 68 1
11 71 1
11 77 1
11 83 1
11 88 1
11 93 1
11 104 1
11 110 1
11 111 1
11 125 1
11 128 1
11 145 1
11 146 1
11 149 1
11 156 1
11 162 1
11 166 1
11 167 1
11 168 1
11 171 1
11 177 1
11 183 1
11 191 1
11 192 1
11 222 1
11 260 1
11 267 1
11 278 1
11 282 1
11 287 1
11 290 1
11 311 1
11 326 1
11 333 1
11 338 1
11 353 1
11 365 1
11 367 1
11 375 1
11 378 1
11 433 1
11 463 1
11 479 1
11 481 1
11 492 1
11 497 1
11 504 1
11 522 1
11 532 1
11 541 1
11 544 1
11 556 1
11 562 1
11 577 1
11 590 1
11 593 1
11 598 1
11 639 1
11 642 1
11 645 1
11 658 1
11 673 1
11 688 1
11 703 1
11 715 1
11 728 1
11 737 1
11 745 1
11 748 1
11 761 1
11 777 1
11 797 1
11 798 1
11 822 1
11 826 1
11 828 1
11 852 1
11 853 1
11 855 1
11 858 1
11 867 1
11 871 1
11 880 1
11 885 1
11 896 1
11 908 1
11 912 1
11 925 1
11 927 1
11 934 1
11 963 1
11 1028 1
11 1040 1
11 1043 1
11 1068 1
11 1074 1
11 1092 1
11 1095 1
11 1096 1
11 1098 1
11 1141 1
11 1145 1
11 1241 1
11 1247 1
11 1279 1
11 1321 1
11 1322 1
11 1323 1
11 1355 1
11 1372 1
11 1383 1
11 1387 1
11 1391 1
11 1396 1
11 1398 1
11 1432 1
11 1437 1
11 1472 1
11 1484 1
11 1506 1
11 1536 1
11 1584 1
11 1591 1
11 1592 1
11 1618 1
11 1625 1
11 1631 1
11 1633 1
11 1655 1
11 1670 1
11 1717 1
11 1728 1
11 1732 1
11 1738 1
11 1758 1
11 1778 1
11 1790 1
11 1823 1
11 1875 1
11 1879 1
11 1911 1
11 1929 1
11 1996 1
11 2005 1
11 2037 1
11 2063 1
11 2087 1
11 2091 1
11 2103 1
11 2155 1
11 2213 1
11 2243 1
11 2257 1
11 2262 1
11 2263 1
11 2282 1
11 2283 1
11 2332 1
11 2344 1
11 2401 1
11 2437 1
11 2447 1
11 2465 1
11 2509 1
11 2555 1
11 2562 1
11 2563 1
11 2612 1
11 2665 1
11 2669 1
11 2705 1
11 2732 1
11 2779 1
11 2787 1
11 2792 1
11 2819 1
11 2826 1
11 2829 1
11 2874 1
11 2878 1
11 2889 1
11 2896 1
11 2915 1
11 2939 1
11 3068 1
11 3074 1
11 3151 1
11 3165 1
11 3168 1
11 3190 1
11 3262 1
11 3300 1
11 3311 1
11 3338 1
11 3402 1
11 3421 1
11 3437 1
11 3446 1
11 3474 1
11 3482 1
11 3495 1
11 3509 1
11 3582 1
11 3605 1
11 3660 1
11 3687 1
11 3718 1
11 3758 1
11 3802 1
11 3890 1
11 3906 1
11 3940 1
11 3988 1
11 4091 1
11 4109 1
11 4125 1
11 4135 1
11 4189 1
11 4252 1
11 4269 1
11 4286 1
11 4317 1
11 4351 1
11 4362 1
11 4383 1
11 4405 1
11 4415 1
11 4479 1
11 4492 1
11 4543 1
11 4689 1
11 4702 1
11 4704 1
11 4760 1
11 4784 1
11 4791 1
11 4793 1
11 4803 1
11 4819 1
11 4851 1
11 4893 1
11 4900 1
11 4918 1
11 4927 1
11 4938 1
11 5062 1
11 5064 1
11 5122 1
11 5190 1
11 5259 1
11 5264 1
11 5269 1
11 5306 1
11 5317 1
11 5328 1
11 5364 1
11 5382 1
11 5384 1
11 5396 1
11 5423 1
11 5468 1
11 5527 1
11 5644 1
11 5652 1
11 5679 1
11 5723 1
11 5777 1
11 5784 1
11 5788 1
11 5838 1
11 5944 1
11 5985 1
11 6018 1
11 6060 1
11 6087 1
11 6139 1
11 6180 1
11 6214 1
11 6226 1
11 6227 1
11 6258 1
11 6306 1
11 6316 1
11 6365 1
11 6398 1
11 6479 1
11 6495 1
11 6509 1
11 6554 1
11 6587 1
11 6617 1
11 6631 1
11 6728 1
11 6733 1
11 6758 1
11 6792 1
11 6821 1
11 6825 1
11 6846 1
11 6855 1
11 6858 1
11 7012 1
11 7022 1
11 7029 1
11 7164 1
11 7170 1
11 7215 1
11 7244 1
11 7262 1
11 7318 1
11 7343 1
11 7384 1
11 7416 1
11 7438 1
11 7451 1
11 7459 1
11 7519 1
11 7545 1
11 7689 1
11 7693 1
11 7830 1
11 7861 1
11 7896 1
11 7898 1
11 7910 1
11 7950 1
11 8134 1
11 8178 1
11 8306 1
11 8356 1
11 8365 1
11 8596 1
11 8658 1
11 8816 1
11 8819 1
11 8865 1
11 8904 1
11 8919 1
11 8990 1
11 9049 1
11 9159 1
11 9171 1
11 9172 1
11 9226 1
11 9236 1
11 9237 1
11 9268 1
11 9307 1
11 9333 1
11 9393 1
11 9401 1
11 9466 1
11 9538 1
11 9570 1
11 9663 1
11 9748 1
11 9756 1
11 9865 1
11 9896 1
12 2 1
12 4 1
12 5 1
12 11 1
12 13 1
12 40 1
12 102 1
12 103 1
12 128 1
12 138 1
12 168 1
12 214 1
12 222 1
12 311 1
12 316 1
12 365 1
12 371 1
12 392 1
12 393 1
12 437 1
12 473 1
12 489 1
12 523 1
12 619 1
12 630 1
12 686 1
12 690 1
12 745 1
12 777 1
12 802 1
12 816 1
12 849 1
12 947 1
12 984 1
12 1057 1
12 1087 1
12 1110 1
12 1237 1
12 1254 1
12 1320 1
12 1340 1
12 1403 1
12 1424 1
12 1425 1
12 1511 1
12 1632 1
12 1794 1
12 1810 1
12 1836 1
12 1975 1
12 2044 1
12 2283 1
12 2287 1
12 2435 1
12 2580 1
12 2726 1
12 3026 1
12 3259 1
12 3272 1
12 3350 1
12 3383 1
12 3541 1
12 3552 1
12 3560 1
12 3575 1
12 3603 1
12 4000 1
12 4032 1
12 4054 1
12 4158 1
12 4538 1
12 4573 1
12 4687 1
12 5116 1
12 5228 1
12 5268 1
12 5404 1
12 5739 1
12 5763 1
12 5965 1
12 6027 1
12 6342 1
12 6374 1
12 6683 1
12 6685 1
12 6691 1
12 6961 1
12 6999 1
12 7467 1
12 7631 1
12 7903 1
12 8121 1
12 8153 1
12 8270 1
12 8360 1
12 8430 1
12 9124 1
12 9309 1
12 9409 1
12 9644 1
13 2 1
13 3 1
13 10 1
13 12 1
13 21 1
13 26 1
13 59 1
13 63 1
13 94 1
13 171 1
13 191 1
13 217 1
13 263 1
13 273 1
13 362 1
13 397 1
13 408 1
13 486 1
13 528 1
13 777 1
13 802 1
13 870 1
13 879 1
13 884 1
13 909 1
13 1260 1
13 1401 1
13 1943 1
13 2009 1
13 2507 1
13 2780 1
13 2917 1
13 3001 1
13 3478 1
13 3553 1
13 3560 1
13 3646 1
13 4131 1
13 4937 1
13 5607 1
13 5669 1
13 5831 1
13 6684 1
13 7042 1
13 7167 1
13 8449 1
13 8544 1
13 8738 1
13 9052 1
13 9444 1
13 9720 1
13 9764 1
13 9949 1
13 9964 1
14 1 1
14 2 1
14 5 1
14 7 1
14 16 1
14 23 1
14 28 1
14 58 1
14 78 1
14 86 1
14 87 1
14 117 1
14 136 1
14 209 1
14 265 1
14 307 1
14 371 1
14 424 1
14 454 1
14 456 1
14 553 1
14 635 1
14 793 1
14 870 1
14 906 1
14 1029 1
14 1039 1
14 1099 1
14 1404 1
14 1405 1
14 1413 1
14 1452 1
14 1474 1
14 1740 1
14 1933 1
14 1947 1
14 2054 1
14 2577 1
14 2812 1
14 3204 1
14 4085 1
14 4086 1
14 4210 1
14 4320 1
14 4398 1
14 4428 1
14 4682 1
14 4739 1
14 4932 1
14 5220 1
14 5767 1
14 5827 1
14 5893 1
14 5933 1
14 5960 1
14 5965 1
14 6273 1
14 6355 1
14 6683 1
14 7234 1
14 7339 1
14 7584 1
14 7643 1
14 8274 1
14 8347 1
14 8476 1
14 8537 1
14 8723 1
14 8838 1
14 9004 1
14 9055 1
14 9399 1
14 9977 1
15 4 1
15 5 1
15 6 1
15 22 1
15 75 1
15 179 1
15 286 1
15 569 1
15 592 1
15 746 1
15 788 1
15 831 1
15 855 1
15 1279 1
15 1494 1
15 1594 1
15 2084 1
15 2331 1
15 4069 1
15 4348 1
15 5050 1
15 5198 1
15 5445 1
15 6047 1
15 6194 1
15 6994 1
15 7381 1
15 7445 1
15 9192 1
16 1 1
16 5 1
16 6 1
16 14 1
16 41 1
16 71 1
16 87 1
16 122 1
16 271 1
16 526 1
16 1017 1
16 1062 1
16 1153 1
16 1365 1
16 1728 1
16 1754 1
16 1959 1
16 1983 1
16 2492 1
16 2955 1
16 3570 1
16 4756 1
16 4866 1
16 5244 1
16 5247 1
16 5535 1
16 6067 1
16 7355 1
16 8298 1
17 2 1
17 4 1
17 6 1
17 9 1
17 20 1
17 23 1
17 25 1
17 26 1
17 29 1
17 30 1
17 31 1
17 42 1
17 49 1
17 57 1
17 61 1
17 69 1
17 74 1
17 86 1
17 124 1
17 156 1
17 167 1
17 170 1
17 187 1
17 190 1
17 203 1
17 215 1
17 222 1
17 228 1
17 233 1
17 314 1
17 320 1
17 357 1
17 388 1
17 390 1
17 404 1
17 453 1
17 455 1
17 512 1
17 514 1
17 517 1
17 521 1
17 522 1
17 567 1
17 576 1
17 588 1
17 599 1
17 604 1
17 634 1
17 640 1
17 652 1
17 654 1
17 656 1
17 657 1
17 671 1
17 693 1
17 700 1
17 705 1
17 728 1
17 729 1
17 791 1
17 871 1
17 879 1
17 889 1
17 915 1
17 930 1
17 949 1
17 970 1
17 975 1
17 1076 1
17 1105 1
17 1129 1
17 1158 1
17 1169 1
17 1211 1
17 1251 1
17 1260 1
17 1280 1
17 1314 1
17 1317 1
17 1366 1
17 1373 1
17 1374 1
17 1392 1
17 1420 1
17 1421 1
17 1425 1
17 1496 1
17 1510 1
17 1521 1
17 1525 1
17 1579 1
17 1581 1
17 1660 1
17 1673 1
17 1690 1
17 1693 1
17 1717 1
17 1724 1
17 1733 1
17 1734 1
17 1766 1
17 1830 1
17 1835 1
17 1893 1
17 1943 1
17 1976 1
17 1999 1
17 2007 1
17 2031 1
17 2040 1
17 2047 1
17 2150 1
17 2161 1
17 2180 1
17 2350 1
17 2369 1
17 2440 1
17 2446 1
17 2486 1
17 2495 1
17 2527 1
17 2694 1
17 2721 1
17 2753 1
17 2803 1
17 2964 1
17 3023 1
17 3040 1
17 3072 1
17 3087 1
17 3120 1
17 3150 1
17 3166 1
17 3220 1
17 3233 1
17 3273 1
17 3298 1
17 3320 1
17 3467 1
17 3500 1
17 3566 1
17 3783 1
17 3800 1
17 3861 1
17 3889 1
17 3936 1
17 3950 1
17 3963 1
17 4000 1
17 4028 1
17 4070 1
17 4157 1
17 4287 1
17 4387 1
17 4430 1
17 4435 1
17 4462 1
17 4496 1
17 4501 1
17 4640 1
17 4656 1
17 4661 1
17 4932 1
17 4959 1
17 5015 1
17 5018 1
17 5023 1
17 5041 1
17 5102 1
17 5110 1
17 5118 1
17 5128 1
17 5159 1
17 5195 1
17 5269 1
17 5322 1
17 5354 1
17 5382 1
17 5402 1
17 5465 1
17 5561 1
17 5700 1
17 5701 1
17 5760 1
17 5921 1
17 5977 1
17 5995 1
17 6032 1
17 6034 1
17 6091 1
17 6219 1
17 6273 1
17 6352 1
17 6500 1
17 6510 1
17 6511 1
17 6563 1
17 6612 1
17 6644 1
17 6664 1
17 6675 1
17 6691 1
17 6766 1
17 6831 1
17 6840 1
17 6859 1
17 6862 1
17 6909 1
17 6932 1
17 7068 1
17 7092 1
17 7138 1
17 7145 1
17 7148 1
17 7189 1
17 7191 1
17 7204 1
17 7219 1
17 7245 1
17 7265 1
17 7406 1
17 7425 1
17 7466 1
17 7477 1
17 7570 1
17 7607 1
17 7626 1
17 7726 1
17 7735 1
17 7776 1
17 7833 1
17 7871 1
17 7892 1
17 7925 1
17 8141 1
17 8235 1
17 8392 1
17 8586 1
17 8624 1
17 8715 1
17 8717 1
17 8761 1
17 8809 1
17 8817 1
17 8944 1
17 8994 1
17 9012 1
17 9187 1
17 9213 1
17 9503 1
17 9570 1
17 9571 1
17 9637 1
17 9651 1
17 9747 1
18 2 1
18 7 1
18 8 1
18 11 1
18 21 1
18 29 1
18 30 1
18 36 1
18 38 1
18 45 1
18 47 1
18 49 1
18 52 1
18 60 1
18 81 1
18 82 1
18 92 1
18 97 1
18 98 1
18 110 1
18 114 1
18 115 1
18 120 1
18 121 1
18 134 1
18 138 1
18 148 1
18 150 1
18 160 1
18 169 1
18 193 1
18 195 1
18 214 1
18 218 1
18 222 1
18 236 1
18 261 1
18 272 1
18 275 1
18 288 1
18 304 1
18 308 1
18 310 1
18 316 1
18 318 1
18 330 1
18 343 1
18 351 1
18 352 1
18 354 1
18 361 1
18 392 1
18 401 1
18 406 1
18 416 1
18 418 1
18 425 1
18 427 1
18 459 1
18 465 1
18 483 1
18 484 1
18 485 1
18 494 1
18 514 1
18 519 1
18 546 1
18 578 1
18 599 1
18 629 1
18 667 1
18 682 1
18 689 1
18 699 1
18 737 1
18 742 1
18 755 1
18 767 1
18 775 1
18 779 1
18 809 1
18 814 1
18 835 1
18 852 1
18 867 1
18 875 1
18 877 1
18 881 1
18 887 1
18 904 1
18 952 1
18 980 1
18 995 1
18 999 1
18 1061 1
18 1080 1
18 1124 1
18 1144 1
18 1150 1
18 1202 1
18 1243 1
18 1244 1
18 1252 1
18 1276 1
18 1288 1
18 1293 1
18 1316 1
18 1320 1
18 1352 1
18 1361 1
18 1368 1
18 1379 1
18 1382 1
18 1388 1
18 1431 1
18 1438 1
18 1441 1
18 1442 1
18 1443 1
18 1472 1
18 1488 1
18 1490 1
18 1499 1
18 1500 1
18 1526 1
18 1530 1
18 1548 1
18 1557 1
18 1564 1
18 1625 1
18 1672 1
18 1705 1
18 1797 1
18 1877 1
18 1895 1
18 1927 1
18 1929 1
18 1942 1
18 1966 1
18 1997 1
18 2000 1
18 2033 1
18 2037 1
18 2043 1
18 2072 1
18 2074 1
18 2095 1
18 2143 1
18 2149 1
18 2227 1
18 2233 1
18 2246 1
18 2254 1
18 2337 1
18 2357 1
18 2412 1
18 2473 1
18 2542 1
18 2548 1
18 2554 1
18 2561 1
18 2603 1
18 2613 1
18 2648 1
18 2653 1
18 2657 1
18 2690 1
18 2701 1
18 2724 1
18 2735 1
18 2798 1
18 2883 1
18 2890 1
18 2914 1
18 2921 1
18 2997 1
18 3031 1
18 3099 1
18 3172 1
18 3192 1
18 3219 1
18 3222 1
18 3242 1
18 3321 1
18 3325 1
18 3339 1
18 3364 1
18 3367 1
18 3385 1
18 3417 1
18 3463 1
18 3490 1
18 3572 1
18 3725 1
18 3738 1
18 3739 1
18 3782 1
18 3787 1
18 3813 1
18 3841 1
18 3939 1
18 3953 1
18 4013 1
18 4047 1
18 4055 1
18 4249 1
18 4269 1
18 4294 1
18 4407 1
18 4421 1
18 4453 1
18 4534 1
18 4541 1
18 4561 1
18 4619 1
18 4626 1
18 4636 1
18 4655 1
18 4658 1
18 4778 1
18 4781 1
18 4782 1
18 4799 1
18 4814 1
18 4835 1
18 4939 1
18 5009 1
18 5011 1
18 5017 1
18 5056 1
18 5089 1
18 5123 1
18 5155 1
18 5189 1
18 5205 1
18 5286 1
18 5296 1
18 5303 1
18 5307 1
18 5325 1
18 5378 1
18 5423 1
18 5427 1
18 5429 1
18 5516 1
18 5559 1
18 5563 1
18 5565 1
18 5582 1
18 5619 1
18 5704 1
18 5800 1
18 5808 1
18 5993 1
18 6024 1
18 6065 1
18 6207 1
18 6224 1
18 6274 1
18 6275 1
18 6282 1
18 6322 1
18 6367 1
18 6406 1
18 6442 1
18 6577 1
18 6583 1
18 6648 1
18 6659 1
18 6695 1
18 6748 1
18 6753 1
18 6778 1
18 6799 1
18 6820 1
18 6945 1
18 6948 1
18 6972 1
18 7004 1
18 7036 1
18 7085 1
18 7163 1
18 7167 1
18 7210 1
18 7264 1
18 7291 1
18 7458 1
18 7548 1
18 7551 1
18 7585 1
18 7648 1
18 7670 1
18 7752 1
18 7756 1
18 7784 1
18 7792 1
18 7813 1
18 7915 1
18 7977 1
18 7997 1
18 8000 1
18 8039 1
18 8056 1
18 8097 1
18 8109 1
18 8124 1
18 8138 1
18 8366 1
18 8385 1
18 8386 1
18 8428 1
18 8510 1
18 8549 1
18 8560 1
18 8687 1
18 8858 1
18 8934 1
18 8961 1
18 8963 1
18 8966 1
18 9038 1
18 9042 1
18 9044 1
18 9262 1
18 9322 1
18 9356 1
18 9415 1
18 9460 1
18 9509 1
18 9581 1
18 9691 1
18 9735 1
18 9739 1
18 9758 1
18 9955 1
19 1 1
19 4 1
19 6 1
19 9 1
19 23 1
19 27 1
19 30 1
19 33 1
19 51 1
19 58 1
19 74 1
19 79 1
19 94 1
19 95 1
19 108 1
19 120 1
19 146 1
19 160 1
19 212 1
19 215 1
19 220 1
19 228 1
19 261 1
19 272 1
19 289 1
19 324 1
19 347 1
19 424 1
19 427 1
19 435 1
19 478 1
19 493 1
19 576 1
19 633 1
19 664 1
19 696 1
19 851 1
19 864 1
19 882 1
19 886 1
19 910 1
19 950 1
19 956 1
19 1015 1
19 1117 1
19 1133 1
19 1147 1
19 1161 1
19 1193 1
19 1220 1
19 1248 1
19 1262 1
19 1281 1
19 1290 1
19 1379 1
19 1441 1
19 1473 1
19 1512 1
19 1519 1
19 1631 1
19 1640 1
19 1652 1
19 1808 1
19 1844 1
19 1849 1
19 1857 1
19 1902 1
19 2001 1
19 2036 1
19 2104 1
19 2209 1
19 2210 1
19 2257 1
19 2294 1
19 2332 1
19 2356 1
19 2421 1
19 2483 1
19 2525 1
19 2550 1
19 2582 1
19 2875 1
19 2908 1
19 2944 1
19 3153 1
19 3297 1
19 3353 1
19 3363 1
19 3596 1
19 3642 1
19 3740 1
19 3864 1
19 4053 1
19 4183 1
19 4405 1
19 4481 1
19 4606 1
19 4692 1
19 4698 1
19 4733 1
19 4786 1
19 5029 1
19 5035 1
19 5054 1
19 5209 1
19 5378 1
19 5856 1
19 5946 1
19 6001 1
19 6085 1
19 6292 1
19 6529 1
19 6643 1
19 6681 1
19 6684 1
19 7150 1
19 7306 1
19 7330 1
19 7389 1
19 7436 1
19 7468 1
19 7580 1
19 7632 1
19 7747 1
19 7873 1
19 7908 1
19 8294 1
19 8307 1
19 8371 1
19 8400 1
19 8466 1
19 8653 1
19 8677 1
19 8893 1
19 9199 1
19 9221 1
19 9260 1
19 9344 1
19 9428 1
19 9457 1
19 9581 1
19 9719 1
19 9884 1
19 9989 1
20 5 1
20 6 1
20 10 1
20 17 1
20 32 1
20 44 1
20 100 1
20 142 1
20 211 1
20 241 1
20 277 1
20 285 1
20 477 1
20 490 1
20 591 1
20 663 1
20 697 1
20 810 1
20 813 1
20 889 1
20 905 1
20 990 1
20 1018 1
20 1115 1
20 1172 1
20 1567 1
20 1658 1
20 1838 1
20 1891 1
20 2023 1
20 2079 1
20 2228 1
20 2570 1
20 2601 1
20 2608 1
20 2936 1
20 3117 1
20 3181 1
20 3276 1
20 3620 1
20 3697 1
20 3848 1
20 3879 1
20 4175 1
20 4393 1
20 4477 1
20 4495 1
20 4648 1
20 4649 1
20 4674 1
20 4679 1
20 4924 1
20 5363 1
20 5786 1
20 6098 1
20 6366 1
20 6372 1
20 6537 1
20 6819 1
20 7132 1
20 7173 1
20 7324 1
20 7627 1
20 7638 1
20 7921 1
20 8154 1
20 8406 1
20 8492 1
20 8570 1
20 8624 1
20 8669 1
20 8775 1
20 8776 1
20 9395 1
20 9797 1
20 9832 1
21 5 1
21 10 1
21 13 1
21 18 1
21 29 1
21 37 1
21 54 1
21 68 1
21 115 1
21 154 1
21 189 1
21 224 1
21 252 1
21 263 1
21 282 1
21 292 1
21 310 1
21 431 1
21 474 1
21 519 1
21 692 1
21 844 1
21 917 1
21 926 1
21 935 1
21 966 1
21 987 1
21 1026 1
21 1159 1
21 1219 1
21 1537 1
21 1570 1
21 1689 1
21 1785 1
21 1791 1
21 1871 1
21 1910 1
21 2124 1
21 2241 1
21 2435 1
21 2508 1
21 2884 1
21 2943 1
21 3164 1
21 3177 1
21 3186 1
21 3333 1
21 3390 1
21 3489 1
21 3609 1
21 3797 1
21 3801 1
21 3900 1
21 4151 1
21 4197 1
21 4206 1
21 4298 1
21 4458 1
21 5002 1
21 5026 1
21 5376 1
21 5379 1
21 5546 1
21 5636 1
21 6259 1
21 6423 1
21 6491 1
21 6868 1
21 7575 1
21 8521 1
21 8662 1
22 1 1
22 6 1
22 9 1
22 15 1
22 29 1
22 211 1
22 219 1
22 246 1
22 251 1
22 346 1
22 379 1
22 619 1
22 689 1
22 1302 1
22 1311 1
22 1678 1
22 1816 1
22 2058 1
22 2193 1
22 2218 1
22 2363 1
22 2689 1
22 2736 1
22 2798 1
22 2948 1
22 3711 1
22 3770 1
22 4666 1
22 7659 1
22 8089 1
22 9341 1
22 9360 1
22 9452 1
23 11 1
23 14 1
23 17 1
23 19 1
23 36 1
23 360 1
23 439 1
23 547 1
23 549 1
23 715 1
23 2924 1
23 3278 1
23 4236 1
23 4320 1
23 7877 1
23 8392 1
24 2 1
24 3 1
24 4 1
24 7 1
24 44 1
24 53 1
24 617 1
24 668 1
24 1049 1
24 1911 1
24 1956 1
24 2061 1
24 2204 1
24 3011 1
24 3847 1
24 5269 1
24 7417 1
24 9385 1
25 2 1
25 4 1
25 5 1
25 17 1
25 31 1
25 33 1
25 41 1
25 50 1
25 51 1
25 58 1
25 59 1
25 65 1
25 78 1
25 80 1
25 90 1
25 103 1
25 106 1
25 107 1
25 112 1
25 113 1
25 126 1
25 131 1
25 132 1
25 139 1
25 141 1
25 154 1
25 182 1
25 183 1
25 187 1
25 198 1
25 200 1
25 218 1
25 240 1
25 253 1
25 263 1
25 269 1
25 305 1
25 308 1
25 309 1
25 339 1
25 345 1
25 362 1
25 364 1
25 366 1
25 408 1
25 414 1
25 419 1
25 466 1
25 479 1
25 484 1
25 515 1
25 521 1
25 525 1
25 536 1
25 551 1
25 559 1
25 583 1
25 592 1
25 622 1
25 625 1
25 651 1
25 656 1
25 713 1
25 724 1
25 725 1
25 732 1
25 734 1
25 759 1
25 762 1
25 781 1
25 794 1
25 795 1
25 801 1
25 809 1
25 814 1
25 815 1
25 825 1
25 846 1
25 868 1
25 904 1
25 923 1
25 938 1
25 1024 1
25 1050 1
25 1063 1
25 1107 1
25 1177 1
25 1256 1
25 1257 1
25 1290 1
25 1296 1
25 1307 1
25 1308 1
25 1449 1
25 1456 1
25 1495 1
25 1496 1
25 1502 1
25 1518 1
25 1522 1
25 1532 1
25 1622 1
25 1632 1
25 1682 1
25 1683 1
25 1702 1
25 1703 1
25 1704 1
25 1731 1
25 1733 1
25 1771 1
25 1811 1
25 1827 1
25 1854 1
25 1904 1
25 1919 1
25 1925 1
25 1987 1
25 2075 1
25 2110 1
25 2145 1
25 2172 1
25 2185 1
25 2222 1
25 2235 1
25 2236 1
25 2238 1
25 2248 1
25 2258 1
25 2279 1
25 2284 1
25 2297 1
25 2301 1
25 2319 1
25 2371 1
25 2374 1
25 2423 1
25 2483 1
25 2532 1
25 2537 1
25 2547 1
25 2564 1
25 2629 1
25 2666 1
25 2767 1
25 2845 1
25 2846 1
25 2862 1
25 2864 1
25 2895 1
25 2904 1
25 2907 1
25 2941 1
25 2966 1
25 3005 1
25 3019 1
25 3039 1
25 3075 1
25 3086 1
25 3093 1
25 3135 1
25 3144 1
25 3147 1
25 3153 1
25 3189 1
25 3215 1
25 3288 1
25 3304 1
25 3338 1
25 3371 1
25 3406 1
25 3414 1
25 3415 1
25 3518 1
25 3527 1
25 3535 1
25 3561 1
25 3582 1
25 3631 1
25 3681 1
25 3731 1
25 3734 1
25 3744 1
25 3757 1
25 3766 1
25 3785 1
25 3816 1
25 3822 1
25 3851 1
25 3853 1
25 3928 1
25 3985 1
25 4002 1
25 4009 1
25 4080 1
25 4097 1
25 4132 1
25 4137 1
25 4172 1
25 4250 1
25 4281 1
25 4308 1
25 4349 1
25 4378 1
25 4379 1
25 4430 1
25 4459 1
25 4472 1
25 4497 1
25 4508 1
25 4520 1
25 4567 1
25 4582 1
25 4606 1
25 4629 1
25 4654 1
25 4669 1
25 4673 1
25 4697 1
25 4727 1
25 4738 1
25 4800 1
25 4804 1
25 4839 1
25 4840 1
25 4902 1
25 4945 1
25 4964 1
25 4993 1
25 4996 1
25 5044 1
25 5080 1
25 5091 1
25 5187 1
25 5196 1
25 5286 1
25 5292 1
25 5301 1
25 5399 1
25 5425 1
25 5496 1
25 5511 1
25 5539 1
25 5622 1
25 5625 1
25 5627 1
25 5672 1
25 5689 1
25 5706 1
25 5748 1
25 5755 1
25 5825 1
25 6004 1
25 6019 1
25 6046 1
25 6072 1
25 6100 1
25 6102 1
25 6111 1
25 6135 1
25 6190 1
25 6256 1
25 6283 1
25 6333 1
25 6357 1
25 6621 1
25 6656 1
25 6740 1
25 6749 1
25 6787 1
25 6809 1
25 6870 1
25 6903 1
25 6907 1
25 6960 1
25 7033 1
25 7068 1
25 7144 1
25 7146 1
25 7164 1
25 7257 1
25 7271 1
25 7329 1
25 7407 1
25 7415 1
25 7546 1
25 7564 1
25 7565 1
25 7582 1
25 7585 1
25 7675 1
25 7785 1
25 7796 1
25 7829 1
25 7834 1
25 7844 1
25 7938 1
25 7955 1
25 7960 1
25 8085 1
25 8112 1
25 8118 1
25 8163 1
25 8223 1
25 8229 1
25 8280 1
25 8294 1
25 8393 1
25 8503 1
25 8515 1
25 8528 1
25 8548 1
25 8556 1
25 8559 1
25 8576 1
25 8633 1
25 8645 1
25 8665 1
25 8727 1
25 8892 1
25 8910 1
25 8914 1
25 8917 1
25 8930 1
25 8969 1
25 9064 1
25 9085 1
25 9087 1
25 9164 1
25 9217 1
25 9337 1
25 9363 1
25 9421 1
25 9527 1
25 9601 1
25 9619 1
25 9643 1
25 9956 1
25 9962 1
25 9967 1
26 4 1
26 6 1
26 13 1
26 17 1
26 31 1
26 35 1
26 40 1
26 109 1
26 116 1
26 140 1
26 148 1
26 235 1
26 344 1
26 440 1
26 530 1
26 567 1
26 576 1
26 608 1
26 609 1
26 647 1
26 719 1
26 805 1
26 941 1
26 1012 1
26 1048 1
26 1164 1
26 1168 1
26 1195 1
26 1249 1
26 1359 1
26 1456 1
26 1482 1
26 1484 1
26 1858 1
26 1872 1
26 2107 1
26 2440 1
26 2653 1
26 2897 1
26 2917 1
26 2936 1
26 3017 1
26 3328 1
26 3358 1
26 3488 1
26 3727 1
26 3791 1
26 3892 1
26 3982 1
26 3986 1
26 4568 1
26 4821 1
26 4859 1
26 5095 1
26 5175 1
26 5360 1
26 5817 1
26 5984 1
26 6180 1
26 6516 1
26 6721 1
26 6859 1
26 7015 1
26 7173 1
26 7363 1
26 7555 1
26 7610 1
26 7722 1
26 7831 1
26 8002 1
26 8449 1
26 8729 1
26 8881 1
26 8903 1
26 8968 1
26 9381 1
26 9808 1
27 2 1
27 4 1
27 10 1
27 19 1
27 35 1
27 64 1
27 66 1
27 139 1
27 143 1
27 192 1
27 207 1
27 226 1
27 234 1
27 254 1
27 275 1
27 280 1
27 289 1
27 338 1
27 397 1
27 421 1
27 446 1
27 469 1
27 505 1
27 572 1
27 703 1
27 751 1
27 840 1
27 845 1
27 888 1
27 935 1
27 973 1
27 1046 1
27 1071 1
27 1085 1
27 1123 1
27 1359 1
27 1385 1
27 1400 1
27 1463 1
27 1638 1
27 1676 1
27 1775 1
27 1802 1
27 2313 1
27 2327 1
27 2406 1
27 2572 1
27 2594 1
27 2747 1
27 2768 1
27 2790 1
27 3024 1
27 3080 1
27 3132 1
27 3302 1
27 3644 1
27 3654 1
27 3761 1
27 3893 1
27 3915 1
27 4004 1
27 4071 1
27 4098 1
27 4179 1
27 4333 1
27 4340 1
27 4598 1
27 4718 1
27 4855 1
27 4933 1
27 4934 1
27 4959 1
27 4979 1
27 5066 1
27 5147 1
27 5154 1
27 5256 1
27 5320 1
27 5678 1
27 5715 1
27 5717 1
27 5788 1
27 5901 1
27 6178 1
27 6258 1
27 6350 1
27 6418 1
27 6506 1
27 6943 1
27 7178 1
27 7376 1
27 7715 1
27 8012 1
27 8248 1
27 8334 1
27 8376 1
27 8482 1
27 8550 1
27 8596 1
27 8599 1
27 8815 1
27 8929 1
27 8976 1
27 9071 1
27 9276 1
27 9341 1
27 9597 1
27 9998 1
28 4 1
28 5 1
28 9 1
28 14 1
28 43 1
28 46 1
28 48 1
28 52 1
28 62 1
28 64 1
28 83 1
28 117 1
28 155 1
28 203 1
28 223 1
28 230 1
28 256 1
28 337 1
28 341 1
28 379 1
28 410 1
28 412 1
28 433 1
28 449 1
28 466 1
28 488 1
28 569 1
28 599 1
28 630 1
28 683 1
28 771 1
28 811 1
28 818 1
28 925 1
28 1020 1
28 1024 1
28 1309 1
28 1405 1
28 1407 1
28 1428 1
28 1538 1
28 1568 1
28 1590 1
28 1650 1
28 1669 1
28 1713 1
28 1893 1
28 1898 1
28 1914 1
28 1947 1
28 2008 1
28 2171 1
28 2179 1
28 2291 1
28 2702 1
28 2720 1
28 2748 1
28 2922 1
28 2932 1
28 2985 1
28 3056 1
28 3132 1
28 3152 1
28 3317 1
28 3467 1
28 3499 1
28 3509 1
28 3701 1
28 3794 1
28 4000 1
28 4111 1
28 4190 1
28 4284 1
28 4540 1
28 4665 1
28 4668 1
28 4810 1
28 4833 1
28 4917 1
28 4937 1
28 4947 1
28 5086 1
28 5285 1
28 5288 1
28 5312 1
28 5502 1
28 5594 1
28 5747 1
28 5833 1
28 5889 1
28 5931 1
28 6014 1
28 6308 1
28 6327 1
28 6441 1
28 6567 1
28 6904 1
28 6987 1
28 7073 1
28 7102 1
28 7245 1
28 7263 1
28 7399 1
28 7412 1
28 7442 1
28 7496 1
28 7630 1
28 7640 1
28 7676 1
28 8417 1
28 8567 1
28 8683 1
28 9399 1
28 9779 1
28 9867 1
28 9972 1
28 9991 1
29 17 1
29 18 1
29 21 1
29 22 1
29 47 1
29 57 1
29 68 1
29 104 1
29 115 1
29 163 1
29 205 1
29 251 1
29 381 1
29 466 1
29 549 1
29 587 1
29 660 1
29 768 1
29 822 1
29 1029 1
29 1111 1
29 1246 1
29 1369 1
29 1427 1
29 1621 1
29 1916 1
29 2072 1
29 2407 1
29 2483 1
29 2555 1
29 4169 1
29 4322 1
29 4384 1
29 4476 1
29 5055 1
29 5913 1
29 6203 1
29 6256 1
29 6257 1
29 6375 1
29 7355 1
29 7468 1
29 8162 1
29 8235 1
29 8456 1
29 8683 1
29 8958 1
29 9482 1
29 9846 1
30 2 1
30 17 1
30 18 1
30 19 1
30 32 1
30 42 1
30 61 1
30 82 1
30 94 1
30 101 1
30 120 1
30 121 1
30 152 1
30 190 1
30 221 1
30 228 1
30 229 1
30 259 1
30 276 1
30 279 1
30 298 1
30 304 1
30 351 1
30 417 1
30 492 1
30 679 1
30 694 1
30 775 1
30 824 1
30 830 1
30 965 1
30 1021 1
30 1149 1
30 1164 1
30 1237 1
30 1253 1
30 1328 1
30 1367 1
30 1478 1
30 1479 1
30 1499 1
30 1688 1
30 1717 1
30 1784 1
30 1830 1
30 2175 1
30 2365 1
30 2449 1
30 2487 1
30 2497 1
30 2518 1
30 2523 1
30 2544 1
30 2636 1
30 2709 1
30 3231 1
30 3604 1
30 4244 1
30 4743 1
30 4907 1
30 5000 1
30 5089 1
30 5797 1
30 6083 1
30 6724 1
30 6993 1
30 7113 1
30 7777 1
30 8063 1
30 8234 1
30 9035 1
30 9277 1
30 9594 1
31 2 1
31 17 1
31 25 1
31 26 1
31 35 1
31 42 1
31 87 1
31 164 1
31 288 1
31 336 1
31 435 1
31 518 1
31 738 1
31 913 1
31 1048 1
31 1107 1
31 1242 1
31 1554 1
31 1858 1
31 1991 1
31 2201 1
31 2305 1
31 3219 1
31 4084 1
31 4224 1
31 4821 1
31 5571 1
31 8501 1
31 9789 1
32 2 1
32 6 1
32 20 1
32 30 1
32 82 1
32 85 1
32 319 1
32 490 1
32 638 1
32 764 1
32 1102 1
32 1360 1
32 1641 1
32 1700 1
32 2150 1
32 2981 1
32 3559 1
32 4385 1
32 4948 1
32 5964 1
32 6480 1
32 6811 1
32 6956 1
32 7269 1
32 8839 1
33 2 1
33 10 1
33 19 1
33 25 1
33 51 1
33 60 1
33 66 1
33 79 1
33 85 1
33 108 1
33 154 1
33 158 1
33 176 1
33 227 1
33 231 1
33 243 1
33 261 1
33 281 1
33 339 1
33 348 1
33 356 1
33 377 1
33 384 1
33 455 1
33 461 1
33 475 1
33 490 1
33 505 1
33 584 1
33 589 1
33 613 1
33 632 1
33 639 1
33 642 1
33 656 1
33 664 1
33 671 1
33 683 1
33 724 1
33 794 1
33 804 1
33 932 1
33 943 1
33 1071 1
33 1095 1
33 1123 1
33 1175 1
33 1199 1
33 1246 1
33 1274 1
33 1389 1
33 1475 1
33 1508 1
33 1598 1
33 1630 1
33 1768 1
33 1798 1
33 1829 1
33 1844 1
33 1886 1
33 1899 1
33 1935 1
33 2010 1
33 2030 1
33 2056 1
33 2104 1
33 2156 1
33 2194 1
33 2289 1
33 2343 1
33 2352 1
33 2448 1
33 2578 1
33 2610 1
33 2658 1
33 2681 1
33 2886 1
33 2947 1
33 2969 1
33 2985 1
33 3019 1
33 3056 1
33 3074 1
33 3186 1
33 3286 1
33 3320 1
33 3324 1
33 3511 1
33 3525 1
33 3547 1
33 3559 1
33 3579 1
33 3623 1
33 3634 1
33 3691 1
33 3699 1
33 3707 1
33 3732 1
33 3779 1
33 3825 1
33 3880 1
33 3896 1
33 3948 1
33 4017 1
33 4069 1
33 4193 1
33 4227 1
33 4297 1
33 4308 1
33 4328 1
33 4406 1
33 4468 1
33 4483 1
33 4488 1
33 4490 1
33 4527 1
33 4557 1
33 4698 1
33 4750 1
33 4753 1
33 4794 1
33 5033 1
33 5068 1
33 5109 1
33 5133 1
33 5227 1
33 5262 1
33 5392 1
33 5416 1
33 5483 1
33 5501 1
33 5528 1
33 5605 1
33 5625 1
33 5657 1
33 5710 1
33 5737 1
33 5795 1
33 5819 1
33 5934 1
33 5947 1
33 5990 1
33 6039 1
33 6076 1
33 6135 1
33 6229 1
33 6335 1
33 6336 1
33 6446 1
33 6701 1
33 6796 1
33 6822 1
33 6864 1
33 6865 1
33 6880 1
33 6882 1
33 6887 1
33 6903 1
33 7107 1
33 7333 1
33 7419 1
33 7647 1
33 7742 1
33 7828 1
33 7955 1
33 7975 1
33 8129 1
33 8176 1
33 8267 1
33 8342 1
33 8671 1
33 8687 1
33 8888 1
33 8916 1
33 8970 1
33 9086 1
33 9111 1
33 9276 1
33 9331 1
33 9352 1
33 9361 1
33 9457 1
33 9631 1
33 9711 1
33 9839 1
33 9844 1
33 9861 1
33 9868 1
34 1 1
34 5 1
34 10 1
34 11 1
34 143 1
34 185 1
34 321 1
34 413 1
34 416 1
34 432 1
34 481 1
34 503 1
34 537 1
34 570 1
34 797 1
34 957 1
34 960 1
34 1053 1
34 1189 1
34 1357 1
34 1433 1
34 1480 1
34 1899 1
34 2159 1
34 2197 1
34 2259 1
34 2336 1
34 2344 1
34 2557 1
34 2619 1
34 2854 1
34 2954 1
34 3117 1
34 3430 1
34 3835 1
34 3874 1
34 3990 1
34 4369 1
34 4554 1
34 4816 1
34 4872 1
34 5010 1
34 5306 1
34 5451 1
34 5851 1
34 5868 1
34 5988 1
34 6198 1
34 6771 1
34 6889 1
34 6904 1
34 6912 1
34 7101 1
34 7114 1
34 7224 1
34 7270 1
34 7343 1
34 7365 1
34 7370 1
34 7377 1
34 7488 1
34 7541 1
34 7726 1
34 7789 1
34 8056 1
34 8205 1
34 8672 1
34 9513 1
34 9676 1
35 2 1
35 26 1
35 27 1
35 31 1
35 64 1
35 129 1
35 131 1
35 171 1
35 173 1
35 312 1
35 399 1
35 440 1
35 653 1
35 673 1
35 843 1
35 921 1
35 972 1
35 1242 1
35 1312 1
35 1330 1
35 1371 1
35 1412 1
35 1474 1
35 1528 1
35 1737 1
35 1880 1
35 1994 1
35 2393 1
35 2426 1
35 2472 1
35 2584 1
35 2593 1
35 3290 1
35 3497 1
35 3648 1
35 4219 1
35 4220 1
35 4553 1
35 5525 1
35 5561 1
35 5926 1
35 6062 1
35 6119 1
35 6548 1
35 7044 1
35 7190 1
35 7814 1
35 8012 1
35 8405 1
35 8601 1
35 8770 1
35 9493 1
36 2 1
36 11 1
36 18 1
36 23 1
36 52 1
36 62 1
36 126 1
36 207 1
36 212 1
36 327 1
36 329 1
36 333 1
36 354 1
36 360 1
36 384 1
36 414 1
36 430 1
36 548 1
36 715 1
36 796 1
36 833 1
36 834 1
36 847 1
36 867 1
36 1035 1
36 1060 1
36 1069 1
36 1131 1
36 1165 1
36 1179 1
36 1445 1
36 1515 1
36 1691 1
36 1855 1
36 1922 1
36 2584 1
36 2639 1
36 2807 1
36 2836 1
36 2998 1
36 3321 1
36 3475 1
36 3617 1
36 3824 1
36 4199 1
36 4343 1
36 4454 1
36 4523 1
36 4573 1
36 4834 1
36 4886 1
36 4912 1
36 5353 1
36 5498 1
36 5512 1
36 5527 1
36 5663 1
36 5782 1
36 6095 1
36 6260 1
36 6307 1
36 6374 1
36 6436 1
36 6941 1
36 7447 1
36 7515 1
36 7548 1
36 8187 1
36 8266 1
36 8283 1
36 8429 1
36 8549 1
36 8856 1
36 9059 1
36 9101 1
36 9108 1
36 9488 1
36 9605 1
37 5 1
37 6 1
37 11 1
37 21 1
37 111 1
37 224 1
37 357 1
37 611 1
37 1177 1
37 1758 1
37 1969 1
37 3288 1
37 4415 1
37 4460 1
37 4885 1
37 8879 1
38 1 1
38 4 1
38 8 1
38 18 1
38 48 1
38 90 1
38 91 1
38 98 1
38 103 1
38 116 1
38 129 1
38 165 1
38 233 1
38 237 1
38 256 1
38 260 1
38 275 1
38 302 1
38 353 1
38 375 1
38 468 1
38 491 1
38 546 1
38 605 1
38 633 1
38 741 1
38 749 1
38 803 1
38 866 1
38 897 1
38 904 1
38 939 1
38 1000 1
38 1081 1
38 1127 1
38 1143 1
38 1174 1
38 1211 1
38 1224 1
38 1229 1
38 1370 1
38 1384 1
38 1513 1
38 1534 1
38 1663 1
38 1684 1
38 1797 1
38 2063 1
38 2066 1
38 2144 1
38 2420 1
38 2538 1
38 2582 1
38 2757 1
38 2817 1
38 2872 1
38 2969 1
38 2994 1
38 3036 1
38 3160 1
38 3281 1
38 3372 1
38 3447 1
38 3579 1
38 3754 1
38 3972 1
38 4171 1
38 4270 1
38 4317 1
38 4341 1
38 4361 1
38 4372 1
38 4521 1
38 4525 1
38 4588 1
38 4659 1
38 4866 1
38 4924 1
38 4952 1
38 5530 1
38 5676 1
38 5816 1
38 6265 1
38 6372 1
38 6451 1
38 6605 1
38 6776 1
38 6886 1
38 7099 1
38 7122 1
38 7159 1
38 7198 1
38 7413 1
38 8538 1
38 8876 1
38 8895 1
38 9273 1
38 9316 1
39 2 1
39 4 1
39 7 1
39 11 1
39 55 1
39 75 1
39 156 1
39 305 1
39 319 1
39 363 1
39 444 1
39 504 1
39 568 1
39 581 1
39 594 1
39 625 1
39 630 1
39 636 1
39 707 1
39 794 1
39 836 1
39 1195 1
39 1628 1
39 2213 1
39 2784 1
39 2865 1
39 2923 1
39 3085 1
39 3260 1
39 3914 1
39 4702 1
39 4852 1
39 4929 1
39 5253 1
39 5578 1
39 5699 1
39 6028 1
39 6226 1
39 6462 1
39 6655 1
39 6896 1
39 7322 1
39 7396 1
40 2 1
40 4 1
40 12 1
40 26 1
40 56 1
40 86 1
40 96 1
40 102 1
40 151 1
40 418 1
40 452 1
40 456 1
40 528 1
40 2006 1
40 3568 1
40 3854 1
40 5391 1
40 5896 1
40 6132 1
40 8233 1
40 9016 1
40 9220 1
41 1 1
41 11 1
41 16 1
41 25 1
41 50 1
41 67 1
41 70 1
41 97 1
41 98 1
41 109 1
41 119 1
41 123 1
41 128 1
41 132 1
41 134 1
41 145 1
41 157 1
41 169 1
41 172 1
41 174 1
41 181 1
41 198 1
41 205 1
41 241 1
41 262 1
41 276 1
41 294 1
41 309 1
41 344 1
41 362 1
41 390 1
41 402 1
41 405 1
41 426 1
41 494 1
41 508 1
41 542 1
41 560 1
41 586 1
41 592 1
41 649 1
41 693 1
41 694 1
41 700 1
41 743 1
41 755 1
41 762 1
41 775 1
41 782 1
41 806 1
41 813 1
41 814 1
41 846 1
41 875 1
41 876 1
41 892 1
41 983 1
41 1009 1
41 1017 1
41 1058 1
41 1077 1
41 1118 1
41 1125 1
41 1131 1
41 1163 1
41 1324 1
41 1354 1
41 1390 1
41 1402 1
41 1453 1
41 1505 1
41 1536 1
41 1538 1
41 1580 1
41 1595 1
41 1612 1
41 1665 1
41 1668 1
41 1716 1
41 1721 1
41 1727 1
41 1728 1
41 1729 1
41 1754 1
41 1755 1
41 1781 1
41 1795 1
41 1812 1
41 1818 1
41 1820 1
41 1828 1
41 1846 1
41 1851 1
41 1921 1
41 1937 1
41 1953 1
41 1971 1
41 1997 1
41 2010 1
41 2039 1
41 2066 1
41 2077 1
41 2106 1
41 2158 1
41 2190 1
41 2250 1
41 2251 1
41 2254 1
41 2321 1
41 2397 1
41 2401 1
41 2445 1
41 2466 1
41 2474 1
41 2510 1
41 2642 1
41 2664 1
41 2745 1
41 2816 1
41 2820 1
41 2926 1
41 2940 1
41 2999 1
41 3126 1
41 3131 1
41 3214 1
41 3229 1
41 3392 1
41 3395 1
41 3502 1
41 3535 1
41 3538 1
41 3583 1
41 3627 1
41 3922 1
41 3938 1
41 4102 1
41 4145 1
41 4386 1
41 4397 1
41 4469 1
41 4514 1
41 4519 1
41 4542 1
41 4585 1
41 4595 1
41 4627 1
41 4630 1
41 4747 1
41 4801 1
41 4843 1
41 4884 1
41 5054 1
41 5113 1
41 5138 1
41 5219 1
41 5243 1
41 5271 1
41 5275 1
41 5315 1
41 5319 1
41 5432 1
41 5530 1
41 5616 1
41 5647 1
41 5656 1
41 5772 1
41 5962 1
41 5974 1
41 6033 1
41 6115 1
41 6120 1
41 6133 1
41 6239 1
41 6241 1
41 6385 1
41 6390 1
41 6413 1
41 6466 1
41 6506 1
41 6512 1
41 6593 1
41 6630 1
41 6635 1
41 6640 1
41 6910 1
41 6939 1
41 6951 1
41 7094 1
41 7127 1
41 7207 1
41 7451 1
41 7536 1
41 7545 1
41 7554 1
41 7646 1
41 7678 1
41 7781 1
41 7953 1
41 7957 1
41 7962 1
41 7985 1
41 8040 1
41 8152 1
41 8273 1
41 8458 1
41 8541 1
41 8565 1
41 8702 1
41 8816 1
41 8889 1
41 8911 1
41 9020 1
41 9041 1
41 9189 1
41 9398 1
41 9548 1
41 9648 1
41 9649 1
41 9701 1
41 9754 1
41 9775 1
41 9929 1
41 9975 1
41 9979 1
42 9 1
42 17 1
42 30 1
42 31 1
42 61 1
42 84 1
42 101 1
42 129 1
42 137 1
42 144 1
42 159 1
42 164 1
42 178 1
42 186 1
42 193 1
42 196 1
42 210 1
42 245 1
42 249 1
42 251 1
42 252 1
42 300 1
42 301 1
42 332 1
42 342 1
42 349 1
42 368 1
42 372 1
42 385 1
42 392 1
42 407 1
42 426 1
42 511 1
42 612 1
42 655 1
42 687 1
42 753 1
42 774 1
42 818 1
42 954 1
42 1134 1
42 1137 1
42 1310 1
42 1338 1
42 1498 1
42 1536 1
42 1543 1
42 1668 1
42 1674 1
42 1742 1
42 1896 1
42 2018 1
42 2087 1
42 2217 1
42 2416 1
42 2544 1
42 2575 1
42 2579 1
42 2664 1
42 2712 1
42 2717 1
42 2740 1
42 2824 1
42 2918 1
42 2927 1
42 2977 1
42 2994 1
42 3306 1
42 3649 1
42 3761 1
42 3788 1
42 3868 1
42 4123 1
42 4130 1
42 4133 1
42 4346 1
42 4381 1
42 4435 1
42 4476 1
42 4592 1
42 4810 1
42 4858 1
42 4864 1
42 4894 1
42 4903 1
42 5441 1
42 5967 1
42 6050 1
42 6255 1
42 6469 1
42 6542 1
42 6552 1
42 6717 1
42 6876 1
42 6980 1
42 7010 1
42 7197 1
42 7523 1
42 7660 1
42 7697 1
42 7814 1
42 7930 1
42 8175 1
42 8199 1
42 9070 1
42 9142 1
42 9145 1
42 9649 1
42 9783 1
42 9933 1
43 2 1
43 5 1
43 9 1
43 28 1
43 49 1
43 64 1
43 73 1
43 74 1
43 99 1
43 201 1
43 203 1
43 204 1
43 269 1
43 313 1
43 383 1
43 422 1
43 447 1
43 455 1
43 509 1
43 618 1
43 633 1
43 706 1
43 733 1
43 773 1
43 842 1
43 873 1
43 893 1
43 906 1
43 959 1
43 961 1
43 971 1
43 1208 1
43 1268 1
43 1304 1
43 1393 1
43 1517 1
43 1650 1
43 1684 1
43 1710 1
43 1799 1
43 1985 1
43 2293 1
43 2599 1
43 2605 1
43 3076 1
43 3267 1
43 3436 1
43 3453 1
43 3491 1
43 3501 1
43 3551 1
43 3645 1
43 3695 1
43 3714 1
43 4068 1
43 4073 1
43 4139 1
43 4439 1
43 4608 1
43 4677 1
43 4725 1
43 4738 1
43 4759 1
43 4782 1
43 4810 1
43 5508 1
43 5526 1
43 5593 1
43 6013 1
43 6233 1
43 6311 1
43 6740 1
43 6762 1
43 7008 1
43 7053 1
43 7102 1
43 7131 1
43 7871 1
43 7876 1
43 8402 1
43 8495 1
43 8662 1
43 9001 1
43 9019 1
43 9123 1
43 9374 1
43 9657 1
43 9661 1
44 2 1
44 5 1
44 20 1
44 24 1
44 46 1
44 63 1
44 70 1
44 76 1
44 89 1
44 270 1
44 448 1
44 611 1
44 702 1
44 870 1
44 1135 1
44 1321 1
44 1339 1
44 1966 1
44 2317 1
44 3154 1
44 3459 1
44 3779 1
44 4250 1
44 4402 1
44 4477 1
44 4521 1
44 5238 1
44 5408 1
44 5960 1
44 6569 1
44 7080 1
44 7229 1
44 8321 1
44 9074 1
44 9094 1
45 1 1
45 2 1
45 11 1
45 18 1
45 47 1
45 119 1
45 152 1
45 184 1
45 229 1
45 283 1
45 526 1
45 607 1
45 614 1
45 624 1
45 820 1
45 920 1
45 1199 1
45 1607 1
45 1618 1
45 1789 1
45 2131 1
45 2411 1
45 2514 1
45 2737 1
45 3071 1
45 3079 1
45 3092 1
45 3139 1
45 3237 1
45 3494 1
45 4692 1
45 5497 1
45 5637 1
45 5850 1
45 5910 1
45 7123 1
45 7495 1
45 7639 1
45 7977 1
45 8459 1
46 4 1
46 5 1
46 28 1
46 44 1
46 63 1
46 99 1
46 113 1
46 137 1
46 148 1
46 159 1
46 210 1
46 226 1
46 293 1
46 314 1
46 466 1
46 616 1
46 643 1
46 719 1
46 982 1
46 1042 1
46 1117 1
46 1149 1
46 1152 1
46 1226 1
46 1281 1
46 1760 1
46 2177 1
46 2720 1
46 2935 1
46 3043 1
46 3210 1
46 3231 1
46 3408 1
46 3426 1
46 3710 1
46 3991 1
46 4280 1
46 4342 1
46 4509 1
46 5408 1
46 5994 1
46 6045 1
46 6054 1
46 6511 1
46 6799 1
46 7362 1
46 7438 1
46 7465 1
46 8324 1
46 8441 1
46 8710 1
46 8869 1
46 9420 1
47 9 1
47 18 1
47 29 1
47 45 1
47 250 1
47 355 1
47 390 1
47 1836 1
47 2280 1
47 3227 1
47 3287 1
47 5462 1
47 5875 1
48 9 1
48 11 1
48 28 1
48 38 1
48 89 1
48 92 1
48 116 1
48 140 1
48 149 1
48 155 1
48 195 1
48 355 1
48 370 1
48 375 1
48 450 1
48 569 1
48 602 1
48 740 1
48 785 1
48 855 1
48 1417 1
48 1524 1
48 1824 1
48 1906 1
48 2420 1
48 2454 1
48 4109 1
48 4363 1
48 4801 1
48 5180 1
48 5777 1
48 6040 1
48 6061 1
48 6893 1
48 6993 1
48 7684 1
49 9 1
49 17 1
49 18 1
49 43 1
49 73 1
49 81 1
49 89 1
49 97 1
49 127 1
49 133 1
49 137 1
49 158 1
49 159 1
49 168 1
49 175 1
49 189 1
49 204 1
49 215 1
49 216 1
49 230 1
49 262 1
49 264 1
49 265 1
49 292 1
49 395 1
49 413 1
49 483 1
49 499 1
49 507 1
49 513 1
49 544 1
49 567 1
49 608 1
49 610 1
49 613 1
49 640 1
49 672 1
49 697 1
49 733 1
49 859 1
49 865 1
49 892 1
49 914 1
49 938 1
49 960 1
49 985 1
49 1056 1
49 1084 1
49 1105 1
49 1146 1
49 1213 1
49 1261 1
49 1280 1
49 1317 1
49 1385 1
49 1404 1
49 1457 1
49 1503 1
49 1553 1
49 1578 1
49 1627 1
49 1708 1
49 1802 1
49 1920 1
49 1924 1
49 2067 1
49 2086 1
49 2112 1
49 2151 1
49 2167 1
49 2196 1
49 2231 1
49 2273 1
49 2276 1
49 2323 1
49 2360 1
49 2422 1
49 2437 1
49 2588 1
49 2603 1
49 2610 1
49 2627 1
49 2637 1
49 2710 1
49 2738 1
49 2746 1
49 2757 1
49 2782 1
49 2813 1
49 2897 1
49 2960 1
49 3079 1
49 3094 1
49 3099 1
49 3187 1
49 3369 1
49 3413 1
49 3593 1
49 3627 1
49 3720 1
49 3741 1
49 3756 1
49 3772 1
49 3838 1
49 3849 1
49 3951 1
49 3997 1
49 4114 1
49 4136 1
49 4212 1
49 4218 1
49 4253 1
49 4389 1
49 4396 1
49 4414 1
49 4570 1
49 4612 1
49 4695 1
49 4728 1
49 4758 1
49 4961 1
49 4976 1
49 5230 1
49 5446 1
49 5461 1
49 5473 1
49 5523 1
49 5593 1
49 5635 1
49 5776 1
49 5814 1
49 5836 1
49 5890 1
49 5894 1
49 5917 1
49 6124 1
49 6178 1
49 6243 1
49 6278 1
49 6314 1
49 6521 1
49 6551 1
49 6723 1
49 6931 1
49 7004 1
49 7150 1
49 7493 1
49 7552 1
49 7664 1
49 7773 1
49 8000 1
49 8091 1
49 8313 1
49 8391 1
49 8430 1
49 8507 1
49 8657 1
49 8674 1
49 8785 1
49 8895 1
49 8915 1
49 9124 1
49 9136 1
49 9292 1
49 9301 1
49 9519 1
49 9699 1
49 9850 1
50 1 1
50 11 1
50 25 1
50 41 1
50 67 1
50 77 1
50 94 1
50 118 1
50 132 1
50 146 1
50 184 1
50 209 1
50 217 1
50 246 1
50 247 1
50 256 1
50 303 1
50 322 1
50 335 1
50 383 1
50 403 1
50 428 1
50 436 1
50 447 1
50 489 1
50 495 1
50 501 1
50 504 1
50 610 1
50 837 1
50 889 1
50 902 1
50 946 1
50 1039 1
50 1231 1
50 1285 1
50 1324 1
50 1401 1
50 1405 1
50 1437 1
50 1637 1
50 1651 1
50 1655 1
50 1689 1
50 1697 1
50 1969 1
50 2010 1
50 2085 1
50 2123 1
50 2163 1
50 2223 1
50 2501 1
50 2705 1
50 2759 1
50 2863 1
50 2973 1
50 3068 1
50 3094 1
50 3205 1
50 3257 1
50 3324 1
50 3391 1
50 3518 1
50 3531 1
50 3569 1
50 3616 1
50 3631 1
50 3686 1
50 3942 1
50 4285 1
50 4350 1
50 4370 1
50 4379 1
50 4380 1
50 4603 1
50 4623 1
50 4715 1
50 4800 1
50 4887 1
50 4965 1
50 5051 1
50 5239 1
50 5328 1
50 5772 1
50 5919 1
50 6009 1
50 6019 1
50 6086 1
50 6243 1
50 6340 1
50 6411 1
50 6642 1
50 6671 1
50 6910 1
50 6936 1
50 7011 1
50 7045 1
50 7139 1
50 7259 1
50 7265 1
50 7270 1
50 7604 1
50 7949 1
50 8003 1
50 8105 1
50 8149 1
50 8382 1
50 8404 1
50 8455 1
50 8532 1
50 8689 1
50 8735 1
50 8867 1
50 9127 1
50 9417 1
50 9537 1
50 9576 1
50 9645 1
50 9690 1
50 9804 1
51 3 1
51 19 1
51 25 1
51 33 1
51 71 1
51 127 1
51 138 1
51 139 1
51 281 1
51 339 1
51 356 1
51 386 1
51 576 1
51 675 1
51 886 1
51 908 1
51 1015 1
51 1158 1
51 1163 1
51 1381 1
51 1394 1
51 1429 1
51 1709 1
51 1725 1
51 1859 1
51 1901 1
51 1932 1
51 2020 1
51 2156 1
51 2194 1
51 2202 1
51 2235 1
51 2330 1
51 2338 1
51 2431 1
51 2471 1
51 2483 1
51 2567 1
51 2655 1
51 2670 1
51 2713 1
51 2718 1
51 2770 1
51 2784 1
51 2942 1
51 3056 1
51 3148 1
51 3184 1
51 3253 1
51 3424 1
51 3452 1
51 3513 1
51 3546 1
51 3650 1
51 3848 1
51 3957 1
51 4124 1
51 4142 1
51 4408 1
51 4578 1
51 4595 1
51 4613 1
51 4685 1
51 5310 1
51 5331 1
51 5352 1
51 5556 1
51 5890 1
51 5903 1
51 5980 1
51 6076 1
51 6101 1
51 6244 1
51 6462 1
51 6597 1
51 6709 1
51 6813 1
51 6868 1
51 6913 1
51 7095 1
51 7579 1
51 7601 1
51 7633 1
51 7854 1
51 7958 1
51 7980 1
51 8016 1
51 8118 1
51 8190 1
51 8275 1
51 8600 1
51 8626 1
51 8715 1
51 9533 1
51 9624 1
51 9667 1
51 9871 1
51 9916 1
52 4 1
52 18 1
52 28 1
52 36 1
52 62 1
52 93 1
52 169 1
52 199 1
52 239 1
52 302 1
52 738 1
52 847 1
52 872 1
52 921 1
52 1016 1
52 1052 1
52 1178 1
52 1197 1
52 1275 1
52 1438 1
52 1565 1
52 1712 1
52 2057 1
52 2119 1
52 2491 1
52 2702 1
52 2748 1
52 2976 1
52 3292 1
52 3379 1
52 3475 1
52 3593 1
52 3724 1
52 3763 1
52 3863 1
52 3896 1
52 3953 1
52 5502 1
52 6530 1
52 6684 1
52 6848 1
52 7373 1
52 7378 1
52 7533 1
52 7609 1
52 7688 1
52 7746 1
52 8475 1
52 9495 1
52 9633 1
53 2 1
53 5 1
53 9 1
53 24 1
53 54 1
53 69 1
53 84 1
53 124 1
53 251 1
53 375 1
53 377 1
53 563 1
53 617 1
53 668 1
53 730 1
53 780 1
53 832 1
53 1464 1
53 1653 1
53 1968 1
53 2202 1
53 2206 1
53 2265 1
53 2529 1
53 2583 1
53 2900 1
53 3615 1
53 3800 1
53 3908 1
53 4366 1
53 5202 1
53 5263 1
53 5822 1
53 6287 1
53 6784 1
53 7124 1
53 7709 1
53 8731 1
53 8777 1
53 8844 1
53 8902 1
53 9326 1
53 9447 1
53 9785 1
54 1 1
54 9 1
54 21 1
54 53 1
54 59 1
54 70 1
54 72 1
54 90 1
54 124 1
54 151 1
54 176 1
54 218 1
54 457 1
54 468 1
54 527 1
54 609 1
54 710 1
54 726 1
54 951 1
54 980 1
54 1006 1
54 1066 1
54 1109 1
54 1180 1
54 1420 1
54 1860 1
54 2002 1
54 2077 1
54 2129 1
54 2278 1
54 2288 1
54 3227 1
54 3270 1
54 3597 1
54 3619 1
54 3877 1
54 3885 1
54 3985 1
54 4016 1
54 4204 1
54 4296 1
54 4429 1
54 5232 1
54 5472 1
54 6899 1
54 6977 1
54 7338 1
54 8328 1
54 8730 1
54 8897 1
54 9149 1
54 9349 1
55 2 1
55 4 1
55 6 1
55 39 1
55 75 1
55 76 1
55 165 1
55 173 1
55 290 1
55 350 1
55 370 1
55 403 1
55 459 1
55 527 1
55 1098 1
55 1108 1
55 1144 1
55 1277 1
55 1358 1
55 1548 1
55 1760 1
55 1955 1
55 2078 1
55 3145 1
55 3850 1
55 4062 1
55 4203 1
55 5629 1
55 6120 1
55 6606 1
55 6650 1
55 7750 1
56 4 1
56 5 1
56 8 1
56 40 1
56 117 1
56 2677 1
56 5399 1
57 5 1
57 11 1
57 17 1
57 29 1
57 69 1
57 167 1
57 194 1
57 233 1
57 341 1
57 430 1
57 544 1
57 577 1
57 589 1
57 634 1
57 871 1
57 932 1
57 1004 1
57 1040 1
57 1098 1
57 1185 1
57 1235 1
57 1246 1
57 1323 1
57 1594 1
57 1791 1
57 1792 1
57 1813 1
57 1870 1
57 1923 1
57 2016 1
57 2192 1
57 2332 1
57 2369 1
57 2479 1
57 2801 1
57 2860 1
57 2908 1
57 3030 1
57 3070 1
57 3340 1
57 3472 1
57 3576 1
57 3689 1
57 3860 1
57 4275 1
57 4791 1
57 4921 1
57 4992 1
57 5213 1
57 5255 1
57 5307 1
57 5417 1
57 5421 1
57 5842 1
57 5878 1
57 6140 1
57 6343 1
57 6351 1
57 6593 1
57 6616 1
57 6764 1
57 7024 1
57 7574 1
57 7995 1
57 8369 1
57 8638 1
57 8784 1
57 8804 1
57 8998 1
57 9013 1
57 9159 1
57 9187 1
57 9250 1
57 9955 1
58 8 1
58 14 1
58 19 1
58 25 1
58 78 1
58 259 1
58 265 1
58 367 1
58 433 1
58 522 1
58 533 1
58 679 1
58 718 1
58 853 1
58 859 1
58 942 1
58 1074 1
58 1094 1
58 1188 1
58 1392 1
58 1396 1
58 1624 1
58 1925 1
58 2687 1
58 2831 1
58 2834 1
58 2878 1
58 3469 1
58 3616 1
58 4617 1
58 4660 1
58 4902 1
58 4989 1
58 5326 1
58 5341 1
58 5563 1
58 6525 1
58 6526 1
58 7088 1
58 7298 1
58 7354 1
58 7514 1
58 7712 1
58 7823 1
58 8231 1
58 8383 1
58 8786 1
58 8835 1
58 8844 1
58 9474 1
59 10 1
59 13 1
59 25 1
59 54 1
59 75 1
59 95 1
59 114 1
59 139 1
59 194 1
59 217 1
59 242 1
59 295 1
59 318 1
59 434 1
59 575 1
59 586 1
59 665 1
59 736 1
59 822 1
59 823 1
59 863 1
59 996 1
59 1059 1
59 1167 1
59 1181 1
59 1256 1
59 1394 1
59 1516 1
59 1529 1
59 1583 1
59 1661 1
59 1805 1
59 2136 1
59 2168 1
59 2191 1
59 2196 1
59 2208 1
59 2310 1
59 2322 1
59 2544 1
59 2616 1
59 2618 1
59 2657 1
59 2775 1
59 2780 1
59 2837 1
59 3284 1
59 3402 1
59 3545 1
59 3839 1
59 4185 1
59 4346 1
59 4664 1
59 4849 1
59 5025 1
59 5051 1
59 5222 1
59 5543 1
59 5566 1
59 5698 1
59 5753 1
59 5899 1
59 5914 1
59 6434 1
59 6689 1
59 6819 1
59 6827 1
59 7521 1
59 7705 1
59 7902 1
59 7939 1
59 7964 1
59 8003 1
59 8044 1
59 8637 1
59 8982 1
59 8984 1
60 2 1
60 11 1
60 18 1
60 33 1
60 119 1
60 125 1
60 179 1
60 198 1
60 220 1
60 243 1
60 270 1
60 286 1
60 312 1
60 361 1
60 522 1
60 654 1
60 684 1
60 718 1
60 776 1
60 804 1
60 807 1
60 993 1
60 1052 1
60 1078 1
60 1093 1
60 1116 1
60 1249 1
60 1263 1
60 1344 1
60 1634 1
60 1768 1
60 1861 1
60 1911 1
60 1951 1
60 1967 1
60 2055 1
60 2157 1
60 2199 1
60 2229 1
60 2289 1
60 2303 1
60 2327 1
60 2448 1
60 2598 1
60 2660 1
60 2756 1
60 2901 1
60 2905 1
60 3005 1
60 3142 1
60 3177 1
60 3198 1
60 3285 1
60 3389 1
60 3645 1
60 3666 1
60 3698 1
60 3722 1
60 3917 1
60 4014 1
60 4079 1
60 4087 1
60 4146 1
60 4150 1
60 4197 1
60 4254 1
60 4274 1
60 4391 1
60 4475 1
60 4862 1
60 5173 1
60 5521 1
60 5659 1
60 6012 1
60 6096 1
60 6594 1
60 6701 1
60 6761 1
60 6915 1
60 7032 1
60 7117 1
60 7171 1
60 7228 1
60 7240 1
60 7266 1
60 7651 1
60 7757 1
60 7784 1
60 7806 1
60 7859 1
60 7941 1
60 9137 1
60 9882 1
61 9 1
61 17 1
61 30 1
61 42 1
61 82 1
61 91 1
61 101 1
61 125 1
61 175 1
61 277 1
61 294 1
61 545 1
61 547 1
61 583 1
61 706 1
61 744 1
61 773 1
61 911 1
61 1010 1
61 1175 1
61 1387 1
61 1599 1
61 1609 1
61 2168 1
61 2287 1
61 2382 1
61 2573 1
61 2834 1
61 3051 1
61 3514 1
61 3675 1
61 3933 1
61 4120 1
61 4147 1
61 5305 1
61 5493 1
61 5577 1
61 5791 1
61 5899 1
61 6562 1
61 6674 1
61 6809 1
61 7612 1
61 8686 1
61 9190 1
62 4 1
62 28 1
62 36 1
62 52 1
62 83 1
62 118 1
62 135 1
62 230 1
62 307 1
62 327 1
62 389 1
62 393 1
62 1029 1
62 1407 1
62 1712 1
62 1828 1
62 2279 1
62 2306 1
62 2628 1
62 2639 1
62 2686 1
62 2690 1
62 2812 1
62 3027 1
62 3183 1
62 3284 1
62 3441 1
62 4018 1
62 4159 1
62 4545 1
62 4639 1
62 4829 1
62 5428 1
62 5976 1
62 6130 1
62 6625 1
62 6718 1
62 6987 1
62 7316 1
62 8142 1
62 8145 1
62 8174 1
62 8598 1
63 4 1
63 13 1
63 44 1
63 46 1
63 99 1
63 235 1
63 309 1
63 688 1
63 859 1
63 1624 1
63 2132 1
63 2317 1
63 3019 1
63 3624 1
63 4250 1
63 4444 1
63 5250 1
63 5861 1
63 7135 1
63 8163 1
63 8181 1
63 8579 1
63 8705 1
63 9204 1
64 27 1
64 28 1
64 35 1
64 43 1
64 141 1
64 172 1
64 398 1
64 421 1
64 572 1
64 653 1
64 1151 1
64 1190 1
64 1711 1
64 2604 1
64 2675 1
64 3551 1
64 3893 1
64 7662 1
64 7831 1
65 2 1
65 5 1
65 10 1
65 25 1
65 85 1
65 105 1
65 113 1
65 116 1
65 133 1
65 206 1
65 216 1
65 221 1
65 247 1
65 616 1
65 685 1
65 691 1
65 714 1
65 784 1
65 789 1
65 900 1
65 946 1
65 1022 1
65 1282 1
65 1347 1
65 1970 1
65 2020 1
65 2068 1
65 2292 1
65 2402 1
65 2680 1
65 2741 1
65 2754 1
65 2769 1
65 2858 1
65 2880 1
65 3679 1
65 3769 1
65 3786 1
65 3793 1
65 3900 1
65 4001 1
65 4122 1
65 4216 1
65 4378 1
65 4415 1
65 4498 1
65 4511 1
65 4664 1
65 4939 1
65 5219 1
65 5764 1
65 5825 1
65 5924 1
65 5972 1
65 6591 1
65 6655 1
65 6835 1
65 6892 1
65 7300 1
65 8105 1
65 8668 1
65 8790 1
65 9128 1
65 9623 1
65 9820 1
65 9834 1
65 9967 1
66 2 1
66 11 1
66 27 1
66 33 1
66 93 1
66 178 1
66 243 1
66 274 1
66 280 1
66 340 1
66 345 1
66 369 1
66 421 1
66 505 1
66 559 1
66 596 1
66 786 1
66 804 1
66 856 1
66 860 1
66 896 1
66 960 1
66 988 1
66 1028 1
66 1041 1
66 1064 1
66 1160 1
66 1261 1
66 1372 1
66 1397 1
66 1398 1
66 1447 1
66 1487 1
66 1646 1
66 1685 1
66 1707 1
66 1851 1
66 1866 1
66 2302 1
66 2346 1
66 2349 1
66 2363 1
66 2373 1
66 2378 1
66 2480 1
66 2532 1
66 2698 1
66 3031 1
66 3365 1
66 3635 1
66 3801 1
66 3919 1
66 3935 1
66 4012 1
66 4024 1
66 4028 1
66 4235 1
66 4417 1
66 5220 1
66 5614 1
66 6069 1
66 6404 1
66 6426 1
66 7113 1
66 7136 1
66 7315 1
66 7339 1
66 7384 1
66 7745 1
66 7790 1
66 7975 1
66 8235 1
66 8357 1
66 8786 1
66 9103 1
66 9138 1
66 9227 1
66 9286 1
66 9490 1
66 9542 1
66 9698 1
66 9732 1
66 9838 1
66 9915 1
66 9917 1
67 1 1
67 11 1
67 41 1
67 50 1
67 77 1
67 136 1
67 322 1
67 331 1
67 458 1
67 577 1
67 651 1
67 680 1
67 740 1
67 798 1
67 858 1
67 1303 1
67 1495 1
67 1656 1
67 2458 1
67 2495 1
67 2513 1
67 2566 1
67 3473 1
67 3643 1
67 3940 1
67 4047 1
67 4285 1
67 4307 1
67 4699 1
67 4965 1
67 5606 1
67 5767 1
67 6037 1
67 6858 1
67 7263 1
67 7284 1
67 7545 1
67 8107 1
67 8321 1
67 8548 1
67 9544 1
67 9619 1
67 9664 1
67 9879 1
68 4 1
68 11 1
68 21 1
68 29 1
68 80 1
68 104 1
68 253 1
68 255 1
68 268 1
68 331 1
68 712 1
68 1183 1
68 1277 1
68 1620 1
68 1711 1
68 1767 1
68 1879 1
68 1940 1
68 2214 1
68 2552 1
68 2840 1
68 3158 1
68 3471 1
68 3585 1
68 3926 1
68 4418 1
68 4774 1
68 5147 1
68 5366 1
68 5491 1
68 6734 1
68 6910 1
69 3 1
69 17 1
69 53 1
69 57 1
69 80 1
69 167 1
69 194 1
69 341 1
69 396 1
69 410 1
69 458 1
69 573 1
69 582 1
69 595 1
69 600 1
69 708 1
69 714 1
69 742 1
69 1002 1
69 1043 1
69 1055 1
69 1084 1
69 1110 1
69 1122 1
69 1130 1
69 1185 1
69 1210 1
69 1212 1
69 1282 1
69 1315 1
69 1373 1
69 1380 1
69 1859 1
69 1868 1
69 2428 1
69 2470 1
69 2885 1
69 3576 1
69 3594 1
69 4334 1
69 4386 1
69 4977 1
69 4997 1
69 5031 1
69 5214 1
69 5267 1
69 5324 1
69 5493 1
69 5589 1
69 5608 1
69 5755 1
69 5882 1
69 6177 1
69 7178 1
69 7282 1
69 9431 1
70 9 1
70 41 1
70 44 1
70 54 1
70 118 1
70 586 1
70 641 1
70 1125 1
70 1248 1
70 1420 1
70 1431 1
70 1687 1
70 2794 1
70 4594 1
70 5238 1
70 9587 1
71 7 1
71 11 1
71 16 1
71 51 1
71 149 1
71 151 1
71 675 1
71 676 1
71 2393 1
71 2955 1
71 5331 1
71 5343 1
71 5641 1
71 6247 1
71 7134 1
72 4 1
72 6 1
72 8 1
72 54 1
72 257 1
72 362 1
72 1809 1
72 1914 1
72 1931 1
72 2723 1
72 3425 1
72 5469 1
72 7552 1
72 9753 1
73 1 1
73 10 1
73 43 1
73 49 1
73 84 1
73 107 1
73 123 1
73 127 1
73 131 1
73 133 1
73 137 1
73 178 1
73 197 1
73 221 1
73 258 1
73 283 1
73 300 1
73 325 1
73 358 1
73 500 1
73 535 1
73 600 1
73 618 1
73 637 1
73 695 1
73 738 1
73 803 1
73 820 1
73 860 1
73 883 1
73 893 1
73 905 1
73 940 1
73 958 1
73 1041 1
73 1100 1
73 1124 1
73 1275 1
73 1281 1
73 1404 1
73 1419 1
73 1455 1
73 1501 1
73 1695 1
73 1707 1
73 1723 1
73 1758 1
73 1832 1
73 1873 1
73 2105 1
73 2147 1
73 2214 1
73 2255 1
73 2302 1
73 2318 1
73 2356 1
73 2450 1
73 2534 1
73 2575 1
73 2631 1
73 2656 1
73 2688 1
73 2742 1
73 2965 1
73 2970 1
73 2977 1
73 3051 1
73 3061 1
73 3098 1
73 3232 1
73 3309 1
73 3310 1
73 3440 1
73 3551 1
73 3929 1
73 4038 1
73 4228 1
73 4318 1
73 4392 1
73 4569 1
73 4747 1
73 4854 1
73 4863 1
73 4926 1
73 5284 1
73 5295 1
73 5340 1
73 5474 1
73 5489 1
73 5572 1
73 5751 1
73 5781 1
73 5888 1
73 6119 1
73 6423 1
73 6543 1
73 6747 1
73 6832 1
73 7067 1
73 7075 1
73 7133 1
73 7150 1
73 7248 1
73 7289 1
73 7335 1
73 7340 1
73 7447 1
73 7540 1
73 7551 1
73 7585 1
73 7736 1
73 7781 1
73 7840 1
73 7890 1
73 8060 1
73 8133 1
73 8226 1
73 8337 1
73 8483 1
73 8547 1
73 8852 1
73 8901 1
73 8917 1
73 8983 1
73 9146 1
73 9178 1
73 9206 1
73 9822 1
73 9839 1
74 9 1
74 17 1
74 19 1
74 43 1
74 100 1
74 142 1
74 150 1
74 163 1
74 170 1
74 204 1
74 205 1
74 255 1
74 298 1
74 303 1
74 312 1
74 369 1
74 382 1
74 406 1
74 455 1
74 471 1
74 472 1
74 598 1
74 601 1
74 618 1
74 650 1
74 659 1
74 812 1
74 838 1
74 873 1
74 892 1
74 898 1
74 1007 1
74 1099 1
74 1112 1
74 1254 1
74 1255 1
74 1331 1
74 1363 1
74 1387 1
74 1395 1
74 1724 1
74 1725 1
74 1986 1
74 1989 1
74 2044 1
74 2137 1
74 2241 1
74 2392 1
74 2538 1
74 2625 1
74 2662 1
74 2696 1
74 2764 1
74 2832 1
74 3409 1
74 3416 1
74 3455 1
74 3502 1
74 3590 1
74 3644 1
74 3920 1
74 4040 1
74 4258 1
74 4421 1
74 4802 1
74 4822 1
74 4936 1
74 4972 1
74 5000 1
74 5018 1
74 5019 1
74 5048 1
74 5088 1
74 5166 1
74 5209 1
74 5221 1
74 5235 1
74 5439 1
74 5712 1
74 6078 1
74 6316 1
74 6323 1
74 6327 1
74 6330 1
74 6418 1
74 6521 1
74 6623 1
74 6704 1
74 6711 1
74 6737 1
74 6779 1
74 7078 1
74 7103 1
74 7325 1
74 7332 1
74 7393 1
74 7767 1
74 7948 1
74 7950 1
74 7983 1
74 8024 1
74 8205 1
74 8605 1
74 8841 1
74 8937 1
74 9437 1
74 9569 1
74 9878 1
75 15 1
75 39 1
75 55 1
75 59 1
75 179 1
75 185 1
75 242 1
75 266 1
75 403 1
75 444 1
75 529 1
75 536 1
75 568 1
75 636 1
75 695 1
75 735 1
75 760 1
75 894 1
75 996 1
75 1059 1
75 1127 1
75 1206 1
75 2089 1
75 2190 1
75 2218 1
75 2257 1
75 2359 1
75 2477 1
75 2624 1
75 2871 1
75 3096 1
75 3258 1
75 3259 1
75 3354 1
75 3976 1
75 4045 1
75 4060 1
75 4249 1
75 4599 1
75 4637 1
75 4809 1
75 5017 1
75 5129 1
75 5269 1
75 5348 1
75 5395 1
75 5760 1
75 5792 1
75 6029 1
75 6118 1
75 6154 1
75 6229 1
75 6499 1
75 7445 1
75 7557 1
75 7939 1
75 8024 1
75 8244 1
75 8354 1
75 8423 1
75 9656 1
75 9926 1
76 2 1
76 4 1
76 44 1
76 55 1
76 357 1
76 527 1
76 878 1
76 1094 1
76 1339 1
76 1612 1
76 1682 1
76 1752 1
76 1770 1
76 1854 1
76 1862 1
76 1883 1
76 1975 1
76 3248 1
76 3844 1
76 4181 1
76 4391 1
76 5094 1
76 5114 1
76 5211 1
76 6355 1
76 6407 1
76 6844 1
76 7333 1
76 7688 1
76 8228 1
76 8973 1
76 9484 1
77 1 1
77 11 1
77 50 1
77 67 1
77 96 1
77 132 1
77 183 1
77 575 1
77 917 1
77 1433 1
77 1440 1
77 1637 1
77 1732 1
77 1991 1
77 2298 1
77 2458 1
77 2481 1
77 2491 1
77 2728 1
77 3052 1
77 3084 1
77 3302 1
77 3787 1
77 4155 1
77 4529 1
77 5222 1
77 5243 1
77 6247 1
77 7058 1
77 7788 1
77 7963 1
77 8140 1
77 8253 1
77 9030 1
78 3 1
78 14 1
78 25 1
78 58 1
78 112 1
78 117 1
78 126 1
78 187 1
78 228 1
78 247 1
78 259 1
78 374 1
78 389 1
78 450 1
78 457 1
78 540 1
78 597 1
78 603 1
78 660 1
78 1119 1
78 1189 1
78 1323 1
78 1706 1
78 1930 1
78 2236 1
78 2574 1
78 3235 1
78 3263 1
78 3789 1
78 3829 1
78 4165 1
78 4642 1
78 4876 1
78 7208 1
78 7360 1
78 8376 1
78 9448 1
78 9636 1
79 4 1
79 10 1
79 19 1
79 33 1
79 239 1
79 347 1
79 393 1
79 519 1
79 581 1
79 826 1
79 1212 1
79 1623 1
79 2309 1
79 2400 1
79 5810 1
79 9829 1
80 4 1
80 25 1
80 68 1
80 69 1
80 104 1
80 240 1
80 625 1
80 723 1
80 857 1
80 1177 1
80 1700 1
80 1948 1
80 2808 1
80 2840 1
80 3114 1
80 3816 1
80 5165 1
80 5280 1
80 7269 1
80 9039 1
81 4 1
81 7 1
81 18 1
81 49 1
81 102 1
81 106 1
81 135 1
81 193 1
81 196 1
81 204 1
81 208 1
81 218 1
81 220 1
81 253 1
81 265 1
81 278 1
81 289 1
81 328 1
81 359 1
81 374 1
81 415 1
81 467 1
81 482 1
81 511 1
81 532 1
81 534 1
81 553 1
81 570 1
81 590 1
81 629 1
81 644 1
81 701 1
81 710 1
81 711 1
81 781 1
81 832 1
81 957 1
81 1031 1
81 1111 1
81 1200 1
81 1225 1
81 1273 1
81 1301 1
81 1364 1
81 1497 1
81 1501 1
81 1509 1
81 1608 1
81 1621 1
81 1729 1
81 1769 1
81 1783 1
81 1803 1
81 1839 1
81 1863 1
81 1887 1
81 1892 1
81 1901 1
81 1974 1
81 1981 1
81 2046 1
81 2065 1
81 2183 1
81 2254 1
81 2259 1
81 2351 1
81 2472 1
81 2589 1
81 2591 1
81 2758 1
81 2796 1
81 2800 1
81 2817 1
81 2871 1
81 2950 1
81 3061 1
81 3235 1
81 3268 1
81 3313 1
81 3376 1
81 3388 1
81 3409 1
81 3415 1
81 3465 1
81 3480 1
81 3544 1
81 3642 1
81 3789 1
81 3834 1
81 3894 1
81 4011 1
81 4092 1
81 4154 1
81 4182 1
81 4233 1
81 4343 1
81 4442 1
81 4481 1
81 4547 1
81 4704 1
81 4714 1
81 4733 1
81 4963 1
81 5103 1
81 5272 1
81 5460 1
81 5541 1
81 5585 1
81 5601 1
81 5628 1
81 5691 1
81 6023 1
81 6126 1
81 6144 1
81 6153 1
81 6470 1
81 6531 1
81 6861 1
81 6883 1
81 6925 1
81 7116 1
81 7327 1
81 7380 1
81 7457 1
81 7543 1
81 7567 1
81 7600 1
81 7621 1
81 7622 1
81 7647 1
81 7661 1
81 7705 1
81 7759 1
81 8062 1
81 8083 1
81 8089 1
81 8168 1
81 8191 1
81 8196 1
81 8222 1
81 8328 1
81 8351 1
81 8355 1
81 8414 1
81 8472 1
81 8675 1
81 8734 1
81 8747 1
81 8762 1
81 9121 1
81 9306 1
81 9411 1
81 9607 1
81 9629 1
81 9664 1
81 9709 1
81 9856 1
82 18 1
82 30 1
82 32 1
82 61 1
82 175 1
82 244 1
82 352 1
82 356 1
82 415 1
82 525 1
82 562 1
82 624 1
82 673 1
82 712 1
82 843 1
82 885 1
82 970 1
82 1083 1
82 1259 1
82 2329 1
82 2370 1
82 2471 1
82 2554 1
82 3563 1
82 3880 1
82 3937 1
82 4112 1
82 4407 1
82 4505 1
82 5155 1
82 6909 1
82 7181 1
82 7639 1
82 7784 1
82 7796 1
82 8756 1
82 9284 1
82 9893 1
83 5 1
83 11 1
83 28 1
83 62 1
83 118 1
83 245 1
83 523 1
83 687 1
83 1013 1
83 1181 1
83 1519 1
83 1554 1
83 2263 1
83 2381 1
83 3401 1
83 4152 1
83 4471 1
83 4635 1
83 5011 1
83 5288 1
83 6289 1
83 6411 1
83 6439 1
83 6646 1
83 6744 1
83 6847 1
83 6976 1
83 7306 1
83 7358 1
83 7654 1
83 8082 1
83 8415 1
83 8841 1
83 8889 1
83 9566 1
84 2 1
84 42 1
84 53 1
84 73 1
84 182 1
84 258 1
84 349 1
84 514 1
84 523 1
84 566 1
84 648 1
84 708 1
84 2165 1
84 2206 1
84 2824 1
84 3340 1
84 3353 1
84 3800 1
84 3912 1
84 4311 1
84 5012 1
84 5013 1
84 5557 1
84 5614 1
84 5713 1
84 6182 1
84 6415 1
84 6450 1
84 7346 1
84 8053 1
84 8157 1
84 8212 1
85 2 1
85 32 1
85 33 1
85 65 1
85 119 1
85 154 1
85 164 1
85 231 1
85 396 1
85 406 1
85 448 1
85 464 1
85 531 1
85 552 1
85 693 1
85 717 1
85 744 1
85 749 1
85 869 1
85 981 1
85 1065 1
85 1157 1
85 1170 1
85 1234 1
85 1389 1
85 1428 1
85 1481 1
85 1597 1
85 1655 1
85 2100 1
85 2215 1
85 2373 1
85 2680 1
85 3025 1
85 3439 1
85 3587 1
85 3937 1
85 4357 1
85 4437 1
85 4458 1
85 4867 1
85 4950 1
85 5016 1
85 5439 1
85 5564 1
85 5588 1
85 5618 1
85 5633 1
85 6590 1
85 6865 1
85 6976 1
85 7595 1
85 7854 1
85 8433 1
85 9128 1
85 9161 1
85 9901 1
86 4 1
86 14 1
86 17 1
86 40 1
86 209 1
86 2763 1
86 2952 1
86 5552 1
86 6013 1
86 6550 1
87 9 1
87 14 1
87 16 1
87 31 1
87 1102 1
87 2835 1
87 3169 1
87 3836 1
87 5179 1
87 5478 1
87 6357 1
87 6756 1
87 6857 1
87 9616 1
88 2 1
88 8 1
88 9 1
88 11 1
88 597 1
88 642 1
88 1136 1
88 4660 1
89 9 1
89 44 1
89 48 1
89 49 1
89 96 1
89 107 1
89 108 1
89 114 1
89 122 1
89 140 1
89 147 1
89 161 1
89 168 1
89 176 1
89 230 1
89 239 1
89 268 1
89 284 1
89 291 1
89 323 1
89 365 1
89 412 1
89 416 1
89 555 1
89 627 1
89 800 1
89 819 1
89 863 1
89 913 1
89 965 1
89 967 1
89 1086 1
89 1105 1
89 1121 1
89 1122 1
89 1135 1
89 1166 1
89 1203 1
89 1221 1
89 1247 1
89 1264 1
89 1284 1
89 1314 1
89 1321 1
89 1342 1
89 1343 1
89 1354 1
89 1415 1
89 1459 1
89 1535 1
89 1539 1
89 1561 1
89 1566 1
89 1757 1
89 1835 1
89 1876 1
89 1928 1
89 1938 1
89 1954 1
89 2081 1
89 2153 1
89 2178 1
89 2198 1
89 2207 1
89 2217 1
89 2281 1
89 2367 1
89 2385 1
89 2408 1
89 2501 1
89 2549 1
89 2590 1
89 2677 1
89 2683 1
89 2695 1
89 2738 1
89 3047 1
89 3130 1
89 3149 1
89 3158 1
89 3238 1
89 3244 1
89 3274 1
89 3283 1
89 3313 1
89 3364 1
89 3393 1
89 3516 1
89 3590 1
89 3750 1
89 3824 1
89 3834 1
89 3849 1
89 3871 1
89 3879 1
89 3917 1
89 3966 1
89 3968 1
89 4061 1
89 4100 1
89 4180 1
89 4250 1
89 4273 1
89 4276 1
89 4296 1
89 4305 1
89 4434 1
89 4451 1
89 4647 1
89 4695 1
89 4709 1
89 4726 1
89 4735 1
89 4757 1
89 4901 1
89 5003 1
89 5007 1
89 5174 1
89 5199 1
89 5262 1
89 5669 1
89 5745 1
89 5835 1
89 6234 1
89 6252 1
89 6358 1
89 6641 1
89 6720 1
89 6746 1
89 6756 1
89 6892 1
89 7054 1
89 7198 1
89 7223 1
89 7422 1
89 7856 1
89 7873 1
89 7882 1
89 7926 1
89 7939 1
89 8013 1
89 8054 1
89 8062 1
89 8085 1
89 8301 1
89 8761 1
89 8762 1
89 8799 1
89 9020 1
89 9156 1
89 9203 1
89 9356 1
89 9390 1
89 9400 1
89 9406 1
89 9418 1
89 9666 1
89 9835 1
89 9848 1
90 1 1
90 25 1
90 38 1
90 54 1
90 108 1
90 141 1
90 198 1
90 264 1
90 269 1
90 294 1
90 443 1
90 468 1
90 758 1
90 1357 1
90 1379 1
90 1422 1
90 1449 1
90 1627 1
90 2280 1
90 2564 1
90 2967 1
90 3178 1
90 3269 1
90 3966 1
90 4007 1
90 4459 1
90 5148 1
90 5285 1
90 6077 1
90 6251 1
90 7509 1
90 7624 1
90 7629 1
90 8382 1
90 8989 1
90 9290 1
91 5 1
91 9 1
91 38 1
91 61 1
91 121 1
91 125 1
91 130 1
91 155 1
91 180 1
91 195 1
91 210 1
91 232 1
91 249 1
91 299 1
91 338 1
91 453 1
91 465 1
91 491 1
91 511 1
91 556 1
91 670 1
91 698 1
91 727 1
91 774 1
91 812 1
91 845 1
91 862 1
91 883 1
91 931 1
91 1007 1
91 1025 1
91 1026 1
91 1134 1
91 1142 1
91 1218 1
91 1220 1
91 1226 1
91 1269 1
91 1390 1
91 1506 1
91 1567 1
91 1585 1
91 1647 1
91 1746 1
91 1808 1
91 1813 1
91 1841 1
91 1858 1
91 1928 1
91 1990 1
91 2003 1
91 2290 1
91 2292 1
91 2546 1
91 2558 1
91 2571 1
91 2627 1
91 2640 1
91 2724 1
91 2807 1
91 2809 1
91 2815 1
91 2844 1
91 2968 1
91 2993 1
91 3082 1
91 3114 1
91 3222 1
91 3318 1
91 3326 1
91 3451 1
91 3486 1
91 3525 1
91 3631 1
91 4022 1
91 4038 1
91 4063 1
91 4283 1
91 4382 1
91 4518 1
91 4574 1
91 4583 1
91 5240 1
91 5279 1
91 5300 1
91 5429 1
91 5540 1
91 5567 1
91 5592 1
91 5813 1
91 5940 1
91 5955 1
91 6008 1
91 6037 1
91 6043 1
91 6259 1
91 6377 1
91 6467 1
91 6471 1
91 6509 1
91 6566 1
91 6734 1
91 6758 1
91 6809 1
91 6862 1
91 6880 1
91 6882 1
91 7008 1
91 7077 1
91 7105 1
91 7196 1
91 7311 1
91 7435 1
91 7613 1
91 7640 1
91 7719 1
91 7731 1
91 7744 1
91 8020 1
91 8096 1
91 8323 1
91 8398 1
91 8478 1
91 8614 1
91 8642 1
91 8715 1
91 9229 1
91 9270 1
91 9402 1
91 9472 1
91 9583 1
91 9634 1
91 9642 1
91 9725 1
92 5 1
92 10 1
92 18 1
92 48 1
92 110 1
92 160 1
92 213 1
92 232 1
92 277 1
92 283 1
92 463 1
92 545 1
92 626 1
92 749 1
92 763 1
92 831 1
92 909 1
92 993 1
92 1001 1
92 1019 1
92 1438 1
92 1470 1
92 1550 1
92 1572 1
92 1576 1
92 1599 1
92 1613 1
92 1655 1
92 1745 1
92 1762 1
92 1786 1
92 1824 1
92 1842 1
92 1877 1
92 1885 1
92 1947 1
92 2059 1
92 2169 1
92 2368 1
92 2537 1
92 2616 1
92 2921 1
92 2954 1
92 2959 1
92 3123 1
92 3230 1
92 3624 1
92 3688 1
92 3722 1
92 3727 1
92 3776 1
92 3784 1
92 3894 1
92 4279 1
92 5231 1
92 5365 1
92 5446 1
92 5511 1
92 5536 1
92 6467 1
92 6504 1
92 6552 1
92 6635 1
92 6805 1
92 7010 1
92 7147 1
92 7205 1
92 7214 1
92 7248 1
92 7333 1
92 7479 1
92 7578 1
92 7677 1
92 7908 1
92 7943 1
92 8547 1
92 8896 1
92 9003 1
92 9195 1
92 9370 1
92 9659 1
92 9886 1
92 9935 1
93 7 1
93 11 1
93 52 1
93 66 1
93 145 1
93 249 1
93 1064 1
93 1549 1
93 1613 1
93 1753 1
93 2484 1
93 3112 1
93 3119 1
93 5555 1
93 7435 1
93 7953 1
93 8037 1
93 8363 1
93 8590 1
93 9023 1
93 9438 1
94 13 1
94 19 1
94 30 1
94 50 1
94 99 1
94 120 1
94 130 1
94 185 1
94 188 1
94 206 1
94 272 1
94 279 1
94 398 1
94 489 1
94 559 1
94 579 1
94 606 1
94 685 1
94 864 1
94 1008 1
94 1121 1
94 1265 1
94 1328 1
94 1398 1
94 1453 1
94 1580 1
94 1739 1
94 1845 1
94 1917 1
94 1932 1
94 2116 1
94 2436 1
94 2628 1
94 2806 1
94 3050 1
94 3062 1
94 3679 1
94 5195 1
94 6169 1
94 6631 1
94 6684 1
94 8080 1
94 8304 1
94 8806 1
94 9564 1
94 9847 1
95 4 1
95 10 1
95 19 1
95 59 1
95 431 1
95 1061 1
95 1774 1
95 4477 1
95 4521 1
95 5083 1
95 6404 1
95 6943 1
96 2 1
96 40 1
96 77 1
96 89 1
96 336 1
96 1134 1
96 1321 1
96 2958 1
96 4773 1
96 6132 1
96 6671 1
96 8618 1
97 4 1
97 18 1
97 41 1
97 49 1
97 98 1
97 103 1
97 109 1
97 134 1
97 147 1
97 152 1
97 200 1
97 206 1
97 227 1
97 299 1
97 306 1
97 380 1
97 458 1
97 470 1
97 487 1
97 560 1
97 571 1
97 614 1
97 647 1
97 666 1
97 674 1
97 734 1
97 750 1
97 901 1
97 964 1
97 1005 1
97 1058 1
97 1069 1
97 1109 1
97 1118 1
97 1162 1
97 1236 1
97 1300 1
97 1338 1
97 1510 1
97 1730 1
97 1731 1
97 1868 1
97 1908 1
97 2010 1
97 2058 1
97 2111 1
97 2255 1
97 2338 1
97 2490 1
97 2589 1
97 2850 1
97 2960 1
97 3059 1
97 3253 1
97 3312 1
97 3370 1
97 3578 1
97 3642 1
97 3804 1
97 3884 1
97 4275 1
97 4467 1
97 4596 1
97 4702 1
97 4751 1
97 4832 1
97 4908 1
97 5017 1
97 5032 1
97 5611 1
97 5750 1
97 5893 1
97 5958 1
97 6097 1
97 6199 1
97 6402 1
97 6428 1
97 6610 1
97 6834 1
97 6908 1
97 6937 1
97 7089 1
97 7099 1
97 7134 1
97 7243 1
97 7698 1
97 7754 1
97 7826 1
97 8046 1
97 8234 1
97 8486 1
97 8579 1
97 8583 1
97 8697 1
97 8769 1
97 9037 1
97 9467 1
97 9516 1
97 9953 1
98 18 1
98 38 1
98 41 1
98 97 1
98 134 1
98 160 1
98 460 1
98 652 1
98 731 1
98 735 1
98 803 1
98 1174 1
98 1315 1
98 2111 1
98 3639 1
98 3992 1
98 4425 1
98 4807 1
98 5297 1
98 5628 1
98 5663 1
98 5906 1
98 6605 1
98 7431 1
98 7491 1
98 8031 1
98 9029 1
98 9316 1
98 9394 1
99 43 1
99 46 1
99 63 1
99 94 1
99 551 1
99 579 1
99 627 1
99 821 1
99 929 1
99 985 1
99 1090 1
99 1148 1
99 1173 1
99 1369 1
99 1485 1
99 1588 1
99 1779 1
99 1833 1
99 1847 1
99 1945 1
99 2062 1
99 2340 1
99 2369 1
99 2387 1
99 2626 1
99 2646 1
99 2805 1
99 2897 1
99 2951 1
99 3038 1
99 3234 1
99 3471 1
99 3476 1
99 3492 1
99 3769 1
99 4056 1
99 4139 1
99 4342 1
99 4400 1
99 4517 1
99 4796 1
99 5361 1
99 5405 1
99 5441 1
99 5466 1
99 5820 1
99 5821 1
99 5864 1
99 5881 1
99 5884 1
99 5941 1
99 6067 1
99 6860 1
99 7003 1
99 7170 1
99 7399 1
99 8061 1
99 8126 1
99 8684 1
99 8948 1
99 9065 1
99 9256 1
99 9657 1
99 9686 1
99 9700 1
99 9777 1
99 9881 1
99 9943 1
100 4 1
100 10 1
100 20 1
100 74 1
100 142 1
100 170 1
100 278 1
100 371 1
100 862 1
100 977 1
100 1690 1
100 2609 1
100 2625 1
100 3179 1
100 3298 1
100 3319 1
100 3420 1
100 3440 1
100 3995 1
100 4115 1
100 4893 1
100 4905 1
100 4984 1
100 6243 1
100 6505 1
100 8993 1
100 9059 1
100 9077 1
100 9482 1
101 9 1
101 30 1
101 42 1
101 61 1
101 305 1
101 349 1
101 753 1
101 1384 1
101 1485 1
101 1535 1
101 2479 1
101 2762 1
101 2930 1
101 3541 1
101 3833 1
101 4051 1
101 4433 1
101 5474 1
101 5938 1
101 6410 1
101 7487 1
101 8526 1
101 9017 1
101 9142 1
102 4 1
102 12 1
102 40 1
102 81 1
102 106 1
102 135 1
102 199 1
102 214 1
102 302 1
102 381 1
102 418 1
102 432 1
102 456 1
102 489 1
102 655 1
102 919 1
102 1057 1
102 1078 1
102 1091 1
102 1547 1
102 1612 1
102 1661 1
102 1959 1
102 2618 1
102 2731 1
102 2945 1
102 3680 1
102 5146 1
102 5318 1
102 5965 1
102 6050 1
102 6863 1
102 7870 1
102 8258 1
102 8898 1
102 9778 1
103 12 1
103 25 1
103 38 1
103 97 1
103 122 1
103 147 1
103 161 1
103 201 1
103 262 1
103 310 1
103 365 1
103 387 1
103 499 1
103 710 1
103 711 1
103 750 1
103 778 1
103 827 1
103 846 1
103 1073 1
103 1087 1
103 1097 1
103 1215 1
103 1342 1
103 1403 1
103 1415 1
103 1659 1
103 1763 1
103 1829 1
103 2083 1
103 2187 1
103 2755 1
103 2794 1
103 2959 1
103 3086 1
103 3187 1
103 3504 1
103 4000 1
103 4107 1
103 4372 1
103 4566 1
103 5755 1
103 5957 1
103 5986 1
103 6181 1
103 6368 1
103 6645 1
103 6706 1
103 6716 1
103 7015 1
103 7719 1
103 8091 1
103 8551 1
103 8916 1
103 9494 1
103 9920 1
103 9996 1
104 11 1
104 29 1
104 68 1
104 80 1
104 331 1
104 504 1
104 1412 1
104 1738 1
104 3975 1
104 8380 1
105 1 1
105 9 1
105 10 1
105 65 1
105 112 1
105 189 1
105 213 1
105 238 1
105 262 1
105 326 1
105 381 1
105 413 1
105 434 1
105 554 1
105 793 1
105 1016 1
105 1027 1
105 1160 1
105 1844 1
105 1998 1
105 2224 1
105 2232 1
105 2287 1
105 2364 1
105 2516 1
105 2612 1
105 2682 1
105 2831 1
105 2847 1
105 2869 1
105 3058 1
105 3169 1
105 3245 1
105 3293 1
105 3395 1
105 3431 1
105 3486 1
105 3488 1
105 3500 1
105 4162 1
105 4278 1
105 4770 1
105 4823 1
105 5294 1
105 5922 1
105 6066 1
105 6348 1
105 6964 1
105 7058 1
105 8268 1
105 8418 1
105 8513 1
105 9803 1
106 4 1
106 25 1
106 81 1
106 102 1
106 328 1
106 345 1
106 1621 1
106 2817 1
106 3388 1
106 4547 1
106 9061 1
106 9242 1
106 9545 1
107 1 1
107 25 1
107 73 1
107 89 1
107 234 1
107 284 1
107 325 1
107 525 1
107 531 1
107 825 1
107 1180 1
107 1187 1
107 1402 1
107 1540 1
107 1610 1
107 1622 1
107 1704 1
107 1772 1
107 1886 1
107 1925 1
107 2363 1
107 2530 1
107 2600 1
107 2928 1
107 3055 1
107 3060 1
107 3127 1
107 3173 1
107 3778 1
107 3822 1
107 3879 1
107 4079 1
107 4276 1
107 4299 1
107 5294 1
107 5368 1
107 5579 1
107 5746 1
107 5996 1
107 6213 1
107 6422 1
107 6438 1
107 6823 1
107 7177 1
107 7830 1
107 8391 1
107 8676 1
107 8995 1
107 9710 1
107 9757 1
107 9905 1
108 19 1
108 33 1
108 89 1
108 90 1
108 163 1
108 182 1
108 242 1
108 261 1
108 328 1
108 379 1
108 388 1
108 700 1
108 704 1
108 816 1
108 894 1
108 1056 1
108 1313 1
108 1461 1
108 1516 1
108 1675 1
108 2684 1
108 2841 1
108 2971 1
108 3096 1
108 3149 1
108 3274 1
108 4380 1
108 5114 1
108 5344 1
108 6012 1
108 6084 1
108 6557 1
108 6762 1
108 7013 1
108 7223 1
108 7286 1
108 8261 1
108 8962 1
108 9964 1
109 4 1
109 26 1
109 41 1
109 97 1
109 181 1
109 342 1
109 1267 1
109 6995 1
109 7678 1
109 9836 1
110 1 1
110 11 1
110 18 1
110 92 1
110 166 1
110 703 1
110 1023 1
110 1051 1
110 1266 1
110 1472 1
110 1540 1
110 1550 1
110 1764 1
110 1786 1
110 1805 1
110 2088 1
110 2710 1
110 2922 1
110 3355 1
110 3511 1
110 5402 1
110 6912 1
110 7217 1
110 8473 1
110 9041 1
111 5 1
111 6 1
111 11 1
111 37 1
111 114 1
111 274 1
111 337 1
111 388 1
111 635 1
111 684 1
111 767 1
111 1005 1
111 1617 1
111 1679 1
111 1800 1
111 2405 1
111 3673 1
111 4828 1
111 8534 1
111 8711 1
111 9577 1
112 3 1
112 25 1
112 78 1
112 105 1
112 158 1
112 520 1
112 1103 1
112 2651 1
112 2919 1
112 3477 1
112 8185 1
112 9917 1
113 5 1
113 25 1
113 46 1
113 65 1
113 216 1
113 297 1
113 308 1
113 330 1
113 396 1
113 409 1
113 449 1
113 462 1
113 531 1
113 561 1
113 840 1
113 933 1
113 1046 1
113 1141 1
113 1152 1
113 1257 1
113 1270 1
113 1519 1
113 1626 1
113 1666 1
113 1671 1
113 1720 1
113 1891 1
113 1904 1
113 1915 1
113 2309 1
113 2366 1
113 2406 1
113 2661 1
113 2832 1
113 3043 1
113 3341 1
113 3427 1
113 3459 1
113 3630 1
113 3729 1
113 4063 1
113 4177 1
113 4548 1
113 4681 1
113 5096 1
113 5176 1
113 5356 1
113 5456 1
113 5934 1
113 6011 1
113 6019 1
113 6049 1
113 6151 1
113 6164 1
113 6532 1
113 6541 1
113 6577 1
113 6584 1
113 6670 1
113 6775 1
113 7225 1
113 7408 1
113 7570 1
113 7592 1
113 7640 1
113 7823 1
113 7884 1
113 8146 1
113 8411 1
113 8853 1
113 9356 1
113 9731 1
113 9865 1
114 18 1
114 59 1
114 89 1
114 111 1
114 202 1
114 575 1
114 635 1
114 767 1
114 819 1
114 1413 1
114 2052 1
114 2457 1
114 3640 1
114 5335 1
114 6092 1
114 6827 1
114 8873 1
114 9758 1
115 9 1
115 18 1
115 21 1
115 29 1
115 292 1
115 811 1
115 987 1
115 1035 1
115 1101 1
115 1791 1
115 2068 1
115 2203 1
115 2642 1
115 2940 1
115 3213 1
115 4826 1
115 5091 1
115 7261 1
115 7275 1
115 7728 1
115 9975 1
116 26 1
116 38 1
116 48 1
116 65 1
116 133 1
116 140 1
116 174 1
116 221 1
116 317 1
116 329 1
116 344 1
116 380 1
116 412 1
116 429 1
116 470 1
116 535 1
116 609 1
116 620 1
116 772 1
116 912 1
116 1217 1
116 1264 1
116 1372 1
116 1556 1
116 1847 1
116 2025 1
116 2350 1
116 2893 1
116 3013 1
116 3112 1
116 3385 1
116 3451 1
116 3617 1
116 4092 1
116 4153 1
116 4270 1
116 4685 1
116 4823 1
116 5114 1
116 5171 1
116 5392 1
116 5685 1
116 5794 1
116 5835 1
116 5868 1
116 5967 1
116 6240 1
116 6328 1
116 6402 1
116 6589 1
116 6893 1
116 6947 1
116 6974 1
116 7028 1
116 7474 1
116 7969 1
116 8716 1
116 8988 1
117 14 1
117 28 1
117 56 1
117 78 1
117 237 1
117 324 1
117 1176 1
117 2574 1
117 2632 1
117 5030 1
117 5829 1
117 6290 1
117 6479 1
117 7363 1
117 7928 1
117 9271 1
118 50 1
118 62 1
118 70 1
118 83 1
118 207 1
118 327 1
118 661 1
118 861 1
118 2223 1
118 2560 1
118 2614 1
118 3315 1
118 3415 1
118 4255 1
118 5976 1
118 6210 1
118 6384 1
118 6519 1
118 8316 1
118 8490 1
118 8593 1
119 41 1
119 45 1
119 60 1
119 85 1
119 693 1
119 833 1
119 3092 1
119 3494 1
119 3562 1
119 6363 1
119 9148 1
120 18 1
120 19 1
120 30 1
120 94 1
120 351 1
120 447 1
120 950 1
120 1367 1
120 3062 1
120 3323 1
120 9322 1
121 4 1
121 18 1
121 30 1
121 91 1
121 862 1
121 1441 1
121 1499 1
121 1976 1
121 2709 1
121 2770 1
121 3125 1
121 3680 1
121 4473 1
121 4782 1
121 4799 1
121 5046 1
121 6758 1
121 7113 1
121 7395 1
121 7628 1
121 8095 1
121 8478 1
121 9072 1
122 7 1
122 16 1
122 89 1
122 103 1
122 173 1
122 1342 1
122 1606 1
122 1983 1
122 2160 1
122 2187 1
122 2955 1
122 3570 1
122 5057 1
122 6716 1
122 7671 1
123 1 1
123 7 1
123 41 1
123 73 1
123 157 1
123 181 1
123 270 1
123 300 1
123 366 1
123 474 1
123 743 1
123 905 1
123 1041 1
123 1106 1
123 1297 1
123 1349 1
123 1353 1
123 1614 1
123 1619 1
123 1620 1
123 1852 1
123 1864 1
123 2025 1
123 2216 1
123 2248 1
123 2346 1
123 2470 1
123 2562 1
123 2646 1
123 3016 1
123 3029 1
123 3133 1
123 3137 1
123 3529 1
123 3607 1
123 4272 1
123 4333 1
123 4603 1
123 5045 1
123 5598 1
123 6904 1
123 7815 1
123 8455 1
123 8674 1
123 8763 1
123 8813 1
123 8908 1
123 8983 1
124 9 1
124 17 1
124 53 1
124 54 1
124 299 1
124 315 1
124 445 1
124 594 1
124 607 1
124 788 1
124 850 1
124 900 1
124 1420 1
124 1952 1
124 2102 1
124 2198 1
124 2304 1
124 2368 1
124 2892 1
124 3124 1
124 3517 1
124 3575 1
124 4447 1
124 4811 1
124 5135 1
124 5958 1
124 5995 1
124 6182 1
124 7218 1
124 7691 1
124 8475 1
124 8479 1
124 9556 1
125 11 1
125 60 1
125 61 1
125 91 1
125 583 1
125 1714 1
126 2 1
126 25 1
126 36 1
126 78 1
126 141 1
126 192 1
126 200 1
126 363 1
126 598 1
126 765 1
126 778 1
126 786 1
126 1070 1
126 1414 1
126 1755 1
126 1861 1
126 2404 1
126 3003 1
126 3336 1
126 3645 1
126 3816 1
126 3852 1
126 4476 1
126 4608 1
126 5021 1
126 5137 1
126 5618 1
126 5630 1
126 5773 1
126 6886 1
126 7089 1
126 7540 1
126 7887 1
126 8038 1
127 4 1
127 49 1
127 51 1
127 73 1
127 288 1
127 854 1
127 962 1
127 2718 1
127 5233 1
127 5352 1
127 8337 1
128 2 1
128 11 1
128 12 1
128 41 1
128 145 1
128 157 1
128 303 1
128 425 1
128 678 1
128 878 1
128 1795 1
128 1929 1
128 1975 1
128 2445 1
128 3543 1
128 3936 1
128 4020 1
128 4057 1
128 4159 1
128 4431 1
128 5276 1
128 7373 1
128 8331 1
128 8723 1
129 9 1
129 35 1
129 38 1
129 42 1
129 131 1
129 144 1
129 164 1
129 188 1
129 202 1
129 238 1
129 244 1
129 364 1
129 398 1
129 407 1
129 440 1
129 471 1
129 503 1
129 566 1
129 631 1
129 689 1
129 783 1
129 843 1
129 850 1
129 1326 1
129 1415 1
129 1544 1
129 1545 1
129 1750 1
129 1832 1
129 1900 1
129 2200 1
129 2211 1
129 2286 1
129 2617 1
129 2774 1
129 2994 1
129 3129 1
129 3228 1
129 3373 1
129 3670 1
129 3974 1
129 4497 1
129 4682 1
129 4744 1
129 4777 1
129 5341 1
129 5374 1
129 5634 1
129 5841 1
129 5953 1
129 6087 1
129 6207 1
129 6542 1
129 6746 1
129 7027 1
129 7053 1
129 7151 1
129 7235 1
129 7498 1
129 7567 1
129 7652 1
129 8012 1
129 8256 1
129 8293 1
129 8479 1
129 8630 1
129 8806 1
129 9296 1
129 9897 1
129 9974 1
130 1 1
130 6 1
130 91 1
130 94 1
130 153 1
130 180 1
130 685 1
130 698 1
130 799 1
130 1070 1
130 1241 1
130 1482 1
130 1813 1
130 2274 1
130 2521 1
130 2627 1
130 3144 1
130 3670 1
130 3950 1
130 5282 1
130 5513 1
130 5524 1
130 6548 1
130 7172 1
130 8175 1
130 8276 1
130 9208 1
130 9372 1
130 9442 1
130 9799 1
131 25 1
131 35 1
131 73 1
131 129 1
131 162 1
131 197 1
131 202 1
131 213 1
131 225 1
131 238 1
131 342 1
131 423 1
131 484 1
131 528 1
131 653 1
131 657 1
131 658 1
131 719 1
131 729 1
131 843 1
131 928 1
131 1210 1
131 1242 1
131 1330 1
131 1397 1
131 1418 1
131 1419 1
131 1480 1
131 1492 1
131 1495 1
131 1574 1
131 1695 1
131 1878 1
131 2126 1
131 2519 1
131 2623 1
131 3064 1
131 3141 1
131 3373 1
131 3390 1
131 3547 1
131 3623 1
131 3715 1
131 3892 1
131 4137 1
131 4640 1
131 4775 1
131 5120 1
131 5489 1
131 5590 1
131 5607 1
131 5634 1
131 5655 1
131 5814 1
131 5837 1
131 6213 1
131 6302 1
131 6484 1
131 6669 1
131 6755 1
131 7030 1
131 7326 1
131 7537 1
131 7801 1
131 7929 1
131 8016 1
131 8133 1
131 8262 1
131 8333 1
131 8548 1
131 9162 1
131 9669 1
131 9713 1
131 9941 1
132 25 1
132 41 1
132 50 1
132 77 1
132 157 1
132 304 1
132 517 1
132 542 1
132 560 1
132 920 1
132 942 1
132 1160 1
132 1330 1
132 1430 1
132 1602 1
132 1884 1
132 2403 1
132 2767 1
132 3391 1
132 3448 1
132 3886 1
132 4260 1
132 4621 1
132 4988 1
132 5038 1
132 5105 1
132 5260 1
132 6370 1
132 7904 1
132 8287 1
132 9126 1
132 9157 1
132 9934 1
133 49 1
133 65 1
133 73 1
133 116 1
133 174 1
133 206 1
133 246 1
133 296 1
133 380 1
133 616 1
133 709 1
133 783 1
133 789 1
133 893 1
133 997 1
133 1086 1
133 1424 1
133 1544 1
133 1988 1
133 2350 1
133 2655 1
133 2788 1
133 2795 1
133 3022 1
133 3588 1
133 4037 1
133 4310 1
133 5093 1
133 5396 1
133 5982 1
133 6402 1
133 6639 1
133 6660 1
133 7062 1
133 7515 1
133 8033 1
133 8800 1
133 8889 1
133 8911 1
133 9138 1
133 9193 1
134 18 1
134 41 1
134 97 1
134 98 1
134 169 1
134 385 1
134 483 1
134 494 1
134 919 1
134 1009 1
134 1271 1
134 1454 1
134 1562 1
134 1675 1
134 1729 1
134 1846 1
134 2034 1
134 2418 1
134 2489 1
134 3010 1
134 3549 1
134 3960 1
134 4323 1
134 5035 1
134 5143 1
134 6487 1
134 6756 1
134 7162 1
134 7171 1
134 9104 1
135 2 1
135 62 1
135 81 1
135 102 1
135 150 1
135 2216 1
135 4327 1
135 5146 1
136 1 1
136 2 1
136 14 1
136 67 1
136 2950 1
137 42 1
137 46 1
137 49 1
137 73 1
137 159 1
137 298 1
137 332 1
137 358 1
137 441 1
137 564 1
137 610 1
137 829 1
137 849 1
137 869 1
137 979 1
137 1322 1
137 1384 1
137 1444 1
137 1530 1
137 1595 1
137 1709 1
137 1785 1
137 1796 1
137 1804 1
137 2095 1
137 2242 1
137 2252 1
137 2318 1
137 2450 1
137 2480 1
137 2575 1
137 2591 1
137 2681 1
137 2698 1
137 2735 1
137 2865 1
137 3303 1
137 3528 1
137 3876 1
137 4286 1
137 4754 1
137 4830 1
137 5693 1
137 5839 1
137 6006 1
137 6329 1
137 7386 1
137 7682 1
137 8176 1
137 8262 1
137 8804 1
137 9223 1
137 9728 1
138 5 1
138 12 1
138 18 1
138 51 1
138 236 1
138 291 1
138 465 1
138 588 1
138 686 1
138 809 1
138 1037 1
138 1263 1
138 1370 1
138 1427 1
138 1564 1
138 1599 1
138 1636 1
138 1878 1
138 1906 1
138 1966 1
138 2097 1
138 2268 1
138 2283 1
138 2314 1
138 2425 1
138 2613 1
138 2687 1
138 2771 1
138 2781 1
138 2850 1
138 3150 1
138 3205 1
138 3534 1
138 4339 1
138 4502 1
138 4506 1
138 4620 1
138 5150 1
138 5176 1
138 5182 1
138 5311 1
138 5370 1
138 5460 1
138 5778 1
138 6063 1
138 6123 1
138 6177 1
138 6317 1
138 6624 1
138 6702 1
138 6798 1
138 7160 1
138 7867 1
138 7921 1
138 8106 1
138 8200 1
138 8817 1
138 9003 1
138 9907 1
139 25 1
139 27 1
139 51 1
139 59 1
139 335 1
139 338 1
139 555 1
139 705 1
139 751 1
139 969 1
139 1085 1
139 1479 1
139 1687 1
139 2760 1
139 3011 1
139 3277 1
139 3442 1
139 4326 1
139 4338 1
139 4575 1
139 5075 1
139 5144 1
139 5885 1
139 5903 1
139 5980 1
139 6769 1
139 8142 1
139 8246 1
139 8924 1
139 9013 1
139 9658 1
140 26 1
140 48 1
140 89 1
140 116 1
140 236 1
140 336 1
140 1121 1
140 1938 1
140 2245 1
140 2526 1
140 6277 1
140 6705 1
140 8374 1
141 25 1
141 64 1
141 90 1
141 126 1
141 172 1
141 225 1
141 264 1
141 317 1
141 398 1
141 443 1
141 511 1
141 520 1
141 580 1
141 677 1
141 856 1
141 878 1
141 929 1
141 968 1
141 1020 1
141 1028 1
141 1070 1
141 1222 1
141 1228 1
141 1376 1
141 1379 1
141 1414 1
141 1449 1
141 1548 1
141 1624 1
141 1642 1
141 1737 1
141 1897 1
141 2487 1
141 2553 1
141 2643 1
141 2652 1
141 2776 1
141 2947 1
141 2982 1
141 2997 1
141 3095 1
141 3160 1
141 3454 1
141 3485 1
141 3496 1
141 3645 1
141 4170 1
141 4400 1
141 4749 1
141 5430 1
141 5660 1
141 5726 1
141 5743 1
141 5789 1
141 6021 1
141 6121 1
141 6312 1
141 6408 1
141 7312 1
141 7629 1
141 7674 1
141 7856 1
141 8143 1
141 8149 1
141 8382 1
141 9189 1
141 9454 1
142 4 1
142 20 1
142 74 1
142 100 1
142 671 1
142 2022 1
142 2326 1
142 3574 1
142 4226 1
142 8486 1
142 9070 1
143 1 1
143 4 1
143 27 1
143 34 1
143 248 1
143 434 1
143 1216 1
143 1322 1
143 4301 1
143 5602 1
144 4 1
144 9 1
144 42 1
144 129 1
144 202 1
144 253 1
144 615 1
144 651 1
144 723 1
144 1055 1
144 1225 1
144 1459 1
144 1603 1
144 1738 1
144 2673 1
144 3252 1
144 4257 1
144 4324 1
144 4412 1
144 4882 1
144 5339 1
144 6360 1
144 6792 1
144 7152 1
144 7196 1
144 7321 1
144 8010 1
144 9318 1
145 11 1
145 41 1
145 93 1
145 128 1
145 249 1
145 426 1
145 469 1
145 1271 1
145 1331 1
145 2290 1
145 2443 1
145 2489 1
145 2590 1
145 3431 1
145 3489 1
145 3612 1
145 3906 1
145 3943 1
145 4159 1
145 4630 1
145 5949 1
145 6232 1
145 6575 1
145 7032 1
145 7935 1
145 8040 1
145 8462 1
145 9438 1
145 9887 1
146 1 1
146 11 1
146 19 1
146 50 1
146 147 1
146 153 1
146 191 1
146 212 1
146 303 1
146 730 1
146 857 1
146 1044 1
146 1068 1
146 1178 1
146 1181 1
146 1339 1
146 1353 1
146 1441 1
146 1498 1
146 1522 1
146 1568 1
146 1725 1
146 1793 1
146 1890 1
146 2019 1
146 2028 1
146 2070 1
146 2456 1
146 2503 1
146 2545 1
146 2634 1
146 2728 1
146 2764 1
146 2932 1
146 2951 1
146 2953 1
146 2979 1
146 2990 1
146 3146 1
146 3352 1
146 3565 1
146 3686 1
146 3740 1
146 3783 1
146 3815 1
146 3898 1
146 4263 1
146 4292 1
146 4350 1
146 4465 1
146 4519 1
146 4700 1
146 4715 1
146 4729 1
146 4792 1
146 5277 1
146 5424 1
146 5451 1
146 5723 1
146 5760 1
146 5812 1
146 6117 1
146 6221 1
146 6497 1
146 6565 1
146 6767 1
146 6933 1
146 6984 1
146 7403 1
146 7426 1
146 7624 1
146 7709 1
146 7865 1
146 7928 1
146 7968 1
146 8079 1
146 8458 1
146 8546 1
146 8641 1
146 8642 1
146 8800 1
146 8959 1
146 9201 1
146 9347 1
146 9535 1
146 9605 1
146 9738 1
146 9969 1
147 89 1
147 97 1
147 103 1
147 146 1
147 161 1
147 190 1
147 201 1
147 236 1
147 237 1
147 300 1
147 336 1
147 376 1
147 442 1
147 539 1
147 662 1
147 699 1
147 974 1
147 1215 1
147 1219 1
147 1335 1
147 1431 1
147 1476 1
147 1623 1
147 1624 1
147 1776 1
147 1829 1
147 1843 1
147 1855 1
147 2457 1
147 2503 1
147 2715 1
147 2794 1
147 3017 1
147 3200 1
147 3263 1
147 3308 1
147 3590 1
147 3710 1
147 3914 1
147 4061 1
147 4085 1
147 4176 1
147 4256 1
147 4555 1
147 4740 1
147 4916 1
147 4957 1
147 5142 1
147 5276 1
147 5421 1
147 5522 1
147 5591 1
147 5675 1
147 5844 1
147 6043 1
147 6101 1
147 6263 1
147 6773 1
147 7462 1
147 7952 1
147 8013 1
147 8233 1
147 8703 1
147 8754 1
147 8968 1
147 9212 1
147 9524 1
147 9658 1
148 6 1
148 18 1
148 26 1
148 46 1
148 295 1
148 330 1
148 449 1
148 552 1
148 608 1
148 647 1
148 674 1
148 788 1
148 1216 1
148 1598 1
148 1664 1
148 1857 1
148 2129 1
148 2177 1
148 2853 1
148 3128 1
148 3479 1
148 3515 1
148 3662 1
148 4864 1
148 5848 1
148 6064 1
148 6959 1
148 7391 1
148 8527 1
148 9633 1
149 4 1
149 11 1
149 48 1
149 71 1
149 177 1
149 475 1
149 707 1
149 880 1
149 1525 1
149 1872 1
149 1935 1
149 2830 1
149 3195 1
149 3499 1
149 4074 1
149 4516 1
149 4788 1
149 4923 1
149 5083 1
149 7135 1
149 7646 1
149 9456 1
150 1 1
150 18 1
150 74 1
150 135 1
150 584 1
150 650 1
150 815 1
150 841 1
150 854 1
150 986 1
150 998 1
150 2274 1
150 2667 1
150 3102 1
150 3418 1
150 4445 1
150 4642 1
150 4942 1
150 4972 1
150 5056 1
150 5458 1
150 6514 1
150 6960 1
150 7005 1
150 7305 1
150 8214 1
150 8529 1
150 8730 1
151 1 1
151 40 1
151 54 1
151 71 1
151 1993 1
151 2342 1
151 2853 1
151 4352 1
151 5331 1
151 5343 1
151 5641 1
151 8257 1
151 8338 1
152 2 1
152 30 1
152 45 1
152 97 1
152 726 1
152 785 1
152 1303 1
152 2467 1
152 2536 1
152 4108 1
152 5190 1
152 9507 1
153 1 1
153 5 1
153 130 1
153 146 1
153 166 1
153 199 1
153 237 1
153 541 1
153 612 1
153 661 1
153 1090 1
153 1101 1
153 1195 1
153 1522 1
153 1558 1
153 1573 1
153 1946 1
153 2098 1
153 2434 1
153 2728 1
153 2962 1
153 3190 1
153 3686 1
153 3878 1
153 3881 1
153 3993 1
153 4487 1
153 5111 1
153 5254 1
153 5263 1
153 5473 1
153 5518 1
153 6481 1
153 7183 1
153 8338 1
153 8445 1
153 8703 1
153 9788 1
154 21 1
154 25 1
154 33 1
154 85 1
154 187 1
154 219 1
154 231 1
154 281 1
154 282 1
154 322 1
154 329 1
154 354 1
154 373 1
154 534 1
154 613 1
154 724 1
154 732 1
154 734 1
154 844 1
154 1023 1
154 1166 1
154 1252 1
154 1361 1
154 1382 1
154 1416 1
154 1455 1
154 1605 1
154 1645 1
154 1715 1
154 1730 1
154 1806 1
154 1998 1
154 2056 1
154 2189 1
154 2333 1
154 2343 1
154 2633 1
154 2647 1
154 2694 1
154 2829 1
154 3236 1
154 3274 1
154 3279 1
154 3337 1
154 3500 1
154 3555 1
154 3644 1
154 4035 1
154 4114 1
154 4208 1
154 4509 1
154 4527 1
154 4715 1
154 5097 1
154 5224 1
154 5417 1
154 5439 1
154 5517 1
154 5600 1
154 5616 1
154 5818 1
154 5889 1
154 6039 1
154 6051 1
154 6078 1
154 6376 1
154 6400 1
154 6515 1
154 6753 1
154 6860 1
154 6976 1
154 7065 1
154 7074 1
154 7192 1
154 7290 1
154 8469 1
154 8517 1
154 8743 1
154 8815 1
154 8894 1
154 8901 1
154 9035 1
154 9486 1
154 9716 1
154 9780 1
154 9800 1
155 9 1
155 28 1
155 48 1
155 91 1
155 195 1
155 200 1
155 210 1
155 224 1
155 394 1
155 410 1
155 412 1
155 833 1
155 960 1
155 1037 1
155 1204 1
155 1206 1
155 1260 1
155 1827 1
155 1934 1
155 2098 1
155 2120 1
155 2424 1
155 2505 1
155 2813 1
155 3317 1
155 3386 1
155 3400 1
155 3665 1
155 4366 1
155 4917 1
155 5024 1
155 5223 1
155 5227 1
155 5330 1
155 5794 1
155 5931 1
155 7521 1
155 7717 1
155 7780 1
155 7918 1
155 8551 1
155 8552 1
155 8614 1
155 8635 1
155 8657 1
155 8790 1
155 9160 1
155 9491 1
155 9575 1
155 9728 1
156 6 1
156 11 1
156 17 1
156 39 1
156 707 1
156 1560 1
156 2453 1
156 2889 1
156 3662 1
156 5128 1
156 5590 1
156 5779 1
156 6344 1
156 9535 1
156 9748 1
157 41 1
157 123 1
157 128 1
157 132 1
157 517 1
157 787 1
157 1171 1
157 1556 1
157 3886 1
157 7373 1
157 8885 1
158 6 1
158 33 1
158 49 1
158 112 1
158 163 1
158 180 1
158 227 1
158 291 1
158 432 1
158 495 1
158 527 1
158 761 1
158 944 1
158 1049 1
158 1103 1
158 1172 1
158 1187 1
158 1738 1
158 2438 1
158 2852 1
158 2919 1
158 3838 1
158 4253 1
158 4982 1
158 5943 1
158 6048 1
158 6297 1
158 6515 1
158 6581 1
158 6769 1
158 6977 1
158 7714 1
158 8332 1
158 8691 1
158 9961 1
159 42 1
159 46 1
159 49 1
159 137 1
159 332 1
159 719 1
159 979 1
159 1709 1
159 2935 1
159 3718 1
159 6045 1
159 6946 1
159 9398 1
160 18 1
160 19 1
160 92 1
160 98 1
160 286 1
160 749 1
160 995 1
160 1053 1
160 1361 1
160 1762 1
160 2012 1
160 5121 1
160 5205 1
160 7812 1
160 8215 1
160 9316 1
161 3 1
161 89 1
161 103 1
161 147 1
161 190 1
161 225 1
161 359 1
161 421 1
161 887 1
161 965 1
161 1033 1
161 1129 1
161 1230 1
161 1337 1
161 1423 1
161 1867 1
161 1876 1
161 1885 1
161 2119 1
161 2399 1
161 2409 1
161 2670 1
161 2822 1
161 2838 1
161 2933 1
161 2948 1
161 3016 1
161 3531 1
161 3609 1
161 3764 1
161 3839 1
161 4143 1
161 4220 1
161 4510 1
161 4724 1
161 5015 1
161 5091 1
161 5453 1
161 5477 1
161 5680 1
161 5836 1
161 5877 1
161 6071 1
161 6108 1
161 6174 1
161 6284 1
161 6721 1
161 6770 1
161 7274 1
161 7422 1
161 7497 1
161 7649 1
161 7888 1
161 8001 1
161 8011 1
161 8027 1
161 8125 1
161 8187 1
161 8589 1
161 9235 1
161 9658 1
161 9824 1
162 9 1
162 10 1
162 11 1
162 131 1
162 267 1
162 287 1
162 290 1
162 301 1
162 346 1
162 407 1
162 423 1
162 463 1
162 476 1
162 510 1
162 543 1
162 548 1
162 577 1
162 926 1
162 1116 1
162 1142 1
162 1527 1
162 1558 1
162 1643 1
162 1821 1
162 1878 1
162 2024 1
162 2113 1
162 2195 1
162 2291 1
162 2375 1
162 2682 1
162 2707 1
162 2717 1
162 2773 1
162 2820 1
162 2828 1
162 2857 1
162 3208 1
162 3285 1
162 3708 1
162 3905 1
162 4351 1
162 4480 1
162 4571 1
162 4785 1
162 4793 1
162 5023 1
162 5151 1
162 5462 1
162 5683 1
162 5805 1
162 5876 1
162 6115 1
162 6310 1
162 6682 1
162 6803 1
162 6850 1
162 6899 1
162 7193 1
162 7586 1
162 7745 1
162 8042 1
162 8216 1
162 8373 1
162 8794 1
162 9125 1
162 9130 1
162 9345 1
162 9652 1
163 29 1
163 74 1
163 108 1
163 158 1
163 180 1
163 182 1
163 205 1
163 224 1
163 274 1
163 340 1
163 382 1
163 386 1
163 420 1
163 425 1
163 497 1
163 549 1
163 559 1
163 587 1
163 645 1
163 662 1
163 700 1
163 800 1
163 835 1
163 868 1
163 901 1
163 922 1
163 1332 1
163 1469 1
163 1528 1
163 1571 1
163 1657 1
163 1726 1
163 1817 1
163 1847 1
163 1921 1
163 1995 1
163 2108 1
163 2141 1
163 2441 1
163 2476 1
163 2625 1
163 2763 1
163 2889 1
163 3024 1
163 3262 1
163 3352 1
163 3533 1
163 3673 1
163 3945 1
163 3957 1
163 4097 1
163 4133 1
163 4270 1
163 4286 1
163 4289 1
163 4321 1
163 4683 1
163 4772 1
163 4852 1
163 5665 1
163 5848 1
163 5943 1
163 6127 1
163 6187 1
163 6570 1
163 6710 1
163 6799 1
163 6858 1
163 7019 1
163 7401 1
163 7447 1
163 7517 1
163 7763 1
163 7818 1
163 8330 1
163 8467 1
163 8580 1
163 8745 1
163 8807 1
163 8966 1
163 9303 1
163 9321 1
163 9334 1
164 31 1
164 42 1
164 85 1
164 129 1
164 323 1
164 349 1
164 1139 1
164 1742 1
164 2154 1
164 2591 1
164 2597 1
164 2983 1
164 3422 1
164 3445 1
164 3788 1
164 4215 1
164 4239 1
164 4306 1
164 4808 1
164 5035 1
164 5854 1
164 6104 1
164 6368 1
164 7303 1
164 9901 1
165 2 1
165 4 1
165 38 1
165 55 1
165 293 1
165 1044 1
165 1477 1
165 1822 1
165 2069 1
165 2815 1
165 3034 1
165 3304 1
165 3659 1
165 3717 1
165 3740 1
165 3778 1
165 4300 1
165 4587 1
165 4691 1
165 4875 1
165 5407 1
165 5481 1
165 5888 1
165 9017 1
166 2 1
166 11 1
166 110 1
166 153 1
166 305 1
166 510 1
166 547 1
166 672 1
166 768 1
166 1051 1
166 1259 1
166 1761 1
166 1805 1
166 4558 1
166 5662 1
166 5988 1
166 6771 1
166 7430 1
166 7507 1
166 8608 1
166 8852 1
166 9027 1
167 11 1
167 17 1
167 57 1
167 69 1
167 828 1
167 990 1
167 1018 1
167 1246 1
167 1510 1
167 1787 1
167 5031 1
167 6691 1
167 6787 1
167 6879 1
167 8134 1
167 8946 1
167 8998 1
167 9265 1
168 11 1
168 12 1
168 49 1
168 89 1
168 325 1
168 333 1
168 621 1
168 726 1
168 1003 1
168 1527 1
168 4920 1
168 6190 1
168 8520 1
168 8975 1
169 18 1
169 41 1
169 52 1
169 134 1
169 330 1
169 334 1
169 405 1
169 483 1
169 630 1
169 678 1
169 765 1
169 1131 1
169 1226 1
169 1233 1
169 1604 1
169 1745 1
169 1888 1
169 1942 1
169 2033 1
169 2106 1
169 3732 1
169 4107 1
169 4323 1
169 4426 1
169 4429 1
169 5143 1
169 6024 1
169 6177 1
169 6884 1
169 8359 1
169 8950 1
169 9733 1
170 17 1
170 74 1
170 100 1
170 215 1
170 472 1
170 584 1
170 659 1
170 794 1
170 903 1
170 977 1
170 1308 1
170 1314 1
170 1483 1
170 1579 1
170 1690 1
170 2256 1
170 2352 1
170 2628 1
170 2771 1
170 3002 1
170 3179 1
170 3298 1
170 3303 1
170 3375 1
170 3526 1
170 3903 1
170 4576 1
170 6161 1
170 6276 1
170 6327 1
170 6639 1
170 6881 1
170 7131 1
170 8180 1
170 9100 1
170 9278 1
171 2 1
171 11 1
171 13 1
171 35 1
171 245 1
171 443 1
171 580 1
171 885 1
171 972 1
171 1075 1
171 1076 1
171 1320 1
171 1439 1
171 1744 1
171 1814 1
171 1929 1
171 2963 1
171 3178 1
171 3247 1
171 3366 1
171 3378 1
171 3497 1
171 3801 1
171 3983 1
171 4220 1
171 4482 1
171 5036 1
171 5654 1
171 6601 1
171 6615 1
171 7042 1
171 7665 1
171 8422 1
171 8759 1
171 9135 1
171 9976 1
172 9 1
172 41 1
172 64 1
172 141 1
172 876 1
172 1132 1
172 1681 1
172 1685 1
172 2278 1
172 2381 1
172 2756 1
172 2962 1
172 3476 1
172 3746 1
172 4221 1
172 4516 1
172 7308 1
172 8076 1
172 8078 1
172 8941 1
172 9324 1
172 9477 1
172 9552 1
173 3 1
173 35 1
173 55 1
173 122 1
173 246 1
173 987 1
173 1062 1
173 1067 1
173 1132 1
173 1203 1
173 1699 1
173 2117 1
173 2202 1
173 2265 1
173 3351 1
173 3692 1
173 3998 1
173 4062 1
173 4580 1
173 4632 1
173 4679 1
173 5202 1
173 6555 1
173 6716 1
173 6922 1
173 7064 1
173 7613 1
173 7984 1
174 2 1
174 41 1
174 116 1
174 133 1
174 178 1
174 223 1
174 241 1
174 257 1
174 340 1
174 500 1
174 562 1
174 603 1
174 755 1
174 992 1
174 1030 1
174 1075 1
174 1313 1
174 1336 1
174 1421 1
174 1424 1
174 1657 1
174 1665 1
174 2316 1
174 2536 1
174 2782 1
174 3045 1
174 3337 1
174 3918 1
174 3955 1
174 4029 1
174 4271 1
174 7961 1
174 8437 1
174 8779 1
175 3 1
175 49 1
175 61 1
175 82 1
175 211 1
175 255 1
175 260 1
175 439 1
175 499 1
175 574 1
175 697 1
175 1106 1
175 1417 1
175 1467 1
175 1519 1
175 1838 1
175 1869 1
175 1980 1
175 2067 1
175 3077 1
175 3255 1
175 4962 1
175 5229 1
175 5875 1
175 6909 1
175 8054 1
176 6 1
176 33 1
176 54 1
176 89 1
176 1886 1
176 2056 1
176 2985 1
176 5416 1
176 5501 1
176 6472 1
177 1 1
177 4 1
177 11 1
177 149 1
177 590 1
177 796 1
177 1043 1
177 1525 1
177 4074 1
177 4516 1
177 4535 1
177 6099 1
177 6616 1
177 8029 1
177 8197 1
177 8402 1
177 9247 1
178 42 1
178 66 1
178 73 1
178 174 1
178 340 1
178 500 1
178 595 1
178 603 1
178 731 1
178 999 1
178 2269 1
178 2291 1
178 2400 1
178 2629 1
178 2909 1
178 3051 1
178 3280 1
178 4218 1
178 4876 1
178 5538 1
178 6335 1
178 7295 1
178 7761 1
178 8005 1
178 8237 1
178 8444 1
178 8445 1
178 8499 1
178 8798 1
178 9078 1
178 9936 1
179 10 1
179 15 1
179 60 1
179 75 1
179 319 1
179 343 1
179 444 1
179 464 1
179 498 1
179 512 1
179 571 1
179 718 1
179 966 1
179 1093 1
179 1130 1
179 1198 1
179 1226 1
179 1263 1
179 1326 1
179 1375 1
179 1521 1
179 1600 1
179 1686 1
179 2017 1
179 2055 1
179 2145 1
179 2179 1
179 2209 1
179 2228 1
179 2462 1
179 2604 1
179 2676 1
179 2708 1
179 2968 1
179 3152 1
179 3378 1
179 3455 1
179 3605 1
179 3668 1
179 4119 1
179 4247 1
179 5299 1
179 5459 1
179 5596 1
179 5635 1
179 5697 1
179 5905 1
179 6046 1
179 6047 1
179 6107 1
179 6318 1
179 6518 1
179 6594 1
179 7309 1
179 7444 1
179 7518 1
179 7606 1
179 7960 1
179 7967 1
179 8453 1
179 8514 1
179 8593 1
179 8692 1
179 9102 1
179 9610 1
180 91 1
180 130 1
180 158 1
180 163 1
180 382 1
180 432 1
180 437 1
180 495 1
180 556 1
180 685 1
180 698 1
180 800 1
180 877 1
180 937 1
180 1239 1
180 1285 1
180 1310 1
180 1332 1
180 1562 1
180 1587 1
180 1602 1
180 2028 1
180 2035 1
180 2377 1
180 2773 1
180 2975 1
180 3060 1
180 3150 1
180 3984 1
180 4206 1
180 4467 1
180 4694 1
180 6217 1
180 6327 1
180 6440 1
180 7337 1
180 8345 1
180 8694 1
180 8863 1
180 9173 1
181 1 1
181 41 1
181 109 1
181 123 1
181 721 1
181 761 1
181 775 1
181 817 1
181 1353 1
181 1570 1
181 1610 1
181 2264 1
181 2725 1
181 2926 1
181 3533 1
181 3804 1
181 4278 1
181 4454 1
181 6944 1
181 6995 1
181 7721 1
181 8878 1
181 9510 1
182 25 1
182 84 1
182 108 1
182 163 1
182 186 1
182 240 1
182 242 1
182 274 1
182 333 1
182 789 1
182 1245 1
182 1461 1
182 2036 1
182 2590 1
182 3998 1
182 4155 1
182 6378 1
182 8156 1
182 8640 1
182 9140 1
183 3 1
183 11 1
183 25 1
183 77 1
183 622 1
183 1136 1
183 1432 1
183 1433 1
183 1477 1
183 1902 1
183 2040 1
183 2481 1
183 2720 1
183 3135 1
183 4434 1
183 5456 1
183 5567 1
183 7089 1
183 8633 1
183 9970 1
184 1 1
184 2 1
184 45 1
184 50 1
184 191 1
184 232 1
184 480 1
184 563 1
184 1539 1
184 2520 1
184 2803 1
184 2838 1
184 2911 1
184 7357 1
184 7418 1
184 9021 1
185 10 1
185 34 1
185 75 1
185 94 1
185 275 1
185 304 1
185 391 1
185 439 1
185 620 1
185 626 1
185 649 1
185 667 1
185 768 1
185 823 1
185 848 1
185 972 1
185 1054 1
185 1480 1
185 1765 1
185 1917 1
185 2060 1
185 2211 1
185 2424 1
185 2441 1
185 2476 1
185 2557 1
185 2766 1
185 2938 1
185 3221 1
185 3418 1
185 3550 1
185 3554 1
185 4239 1
185 4540 1
185 4748 1
185 4843 1
185 5518 1
185 5948 1
185 6116 1
185 6270 1
185 6463 1
185 6522 1
185 6806 1
185 6956 1
185 7398 1
185 7414 1
185 7437 1
185 7800 1
185 7968 1
185 8585 1
185 9088 1
185 9188 1
185 9196 1
185 9295 1
185 9495 1
185 9535 1
185 9567 1
186 2 1
186 4 1
186 42 1
186 182 1
186 474 1
186 662 1
186 818 1
186 1245 1
186 1352 1
186 1386 1
186 1471 1
186 1602 1
186 1633 1
186 2014 1
186 2159 1
186 2271 1
186 2572 1
186 2704 1
186 3028 1
186 3300 1
186 5947 1
186 6110 1
186 7330 1
186 7450 1
186 8135 1
186 8218 1
186 8487 1
186 8713 1
186 8927 1
186 9296 1
186 9656 1
186 9659 1
187 17 1
187 25 1
187 78 1
187 154 1
187 231 1
187 306 1
187 322 1
187 366 1
187 712 1
187 790 1
187 879 1
187 1222 1
187 1271 1
187 1517 1
187 1547 1
187 1581 1
187 1584 1
187 1862 1
187 1943 1
187 1958 1
187 2058 1
187 2111 1
187 2333 1
187 2404 1
187 2515 1
187 2876 1
187 2904 1
187 3087 1
187 3526 1
187 3672 1
187 3851 1
187 3991 1
187 5354 1
187 6082 1
187 6697 1
187 7074 1
187 7277 1
187 7476 1
187 7892 1
187 8574 1
187 9024 1
187 9330 1
187 9490 1
187 9636 1
187 9667 1
187 9778 1
188 2 1
188 10 1
188 94 1
188 129 1
188 208 1
188 290 1
188 475 1
188 532 1
188 839 1
188 1265 1
188 1832 1
188 2114 1
188 2417 1
188 2522 1
188 2946 1
188 3225 1
188 4065 1
188 4478 1
188 4667 1
188 4958 1
188 5604 1
188 5858 1
188 6285 1
188 7387 1
188 7766 1
188 7952 1
188 8115 1
188 8821 1
188 9106 1
188 9939 1
189 1 1
189 21 1
189 49 1
189 105 1
189 252 1
189 284 1
189 444 1
189 793 1
189 1635 1
189 2232 1
189 2842 1
189 3488 1
189 3820 1
189 4155 1
189 4162 1
189 4560 1
189 5586 1
189 5779 1
189 7595 1
189 9420 1
189 9791 1
190 17 1
190 30 1
190 147 1
190 161 1
190 279 1
190 320 1
190 890 1
190 1337 1
190 1584 1
190 1684 1
190 2158 1
190 2217 1
190 2649 1
190 2715 1
190 3633 1
190 3919 1
190 4938 1
190 5061 1
190 5104 1
190 5727 1
190 5784 1
190 5933 1
190 8799 1
191 11 1
191 13 1
191 146 1
191 184 1
191 480 1
191 769 1
191 1044 1
191 1400 1
191 2146 1
191 2416 1
191 2427 1
191 2920 1
191 3565 1
191 5124 1
191 5509 1
191 5692 1
191 7683 1
192 4 1
192 11 1
192 27 1
192 126 1
192 214 1
192 378 1
192 400 1
192 888 1
192 1088 1
192 1102 1
192 1240 1
192 1837 1
192 2858 1
192 5486 1
192 6365 1
192 7689 1
192 8618 1
192 8947 1
192 8982 1
192 9329 1
193 9 1
193 18 1
193 42 1
193 81 1
193 196 1
193 373 1
193 530 1
193 591 1
193 752 1
193 1268 1
193 3343 1
193 3355 1
193 5077 1
193 5103 1
193 6634 1
193 6753 1
193 7210 1
193 7273 1
193 7707 1
193 7947 1
193 8639 1
193 9307 1
194 3 1
194 57 1
194 59 1
194 69 1
194 238 1
194 266 1
194 311 1
194 312 1
194 344 1
194 387 1
194 473 1
194 503 1
194 708 1
194 779 1
194 821 1
194 872 1
194 874 1
194 1207 1
194 1235 1
194 1310 1
194 1377 1
194 1436 1
194 1543 1
194 1555 1
194 1575 1
194 1792 1
194 1846 1
194 1918 1
194 1934 1
194 2008 1
194 2016 1
194 2082 1
194 2180 1
194 2181 1
194 2205 1
194 2369 1
194 2846 1
194 3163 1
194 3202 1
194 3341 1
194 3503 1
194 3576 1
194 3608 1
194 3671 1
194 4020 1
194 4422 1
194 4496 1
194 4665 1
194 4919 1
194 4973 1
194 5062 1
194 5101 1
194 5644 1
194 5697 1
194 5911 1
194 5997 1
194 6015 1
194 6140 1
194 6178 1
194 6531 1
194 6831 1
194 6986 1
194 7162 1
194 7814 1
194 7900 1
194 7923 1
194 8226 1
194 8825 1
194 8836 1
194 8924 1
194 9135 1
194 9253 1
194 9461 1
194 9696 1
194 9878 1
194 9909 1
195 18 1
195 48 1
195 91 1
195 155 1
195 289 1
195 557 1
195 1142 1
195 1312 1
195 1524 1
195 1576 1
195 1800 1
195 2550 1
195 3044 1
195 3115 1
195 3684 1
195 4331 1
195 5666 1
195 5703 1
195 6061 1
195 7470 1
195 8372 1
196 9 1
196 42 1
196 81 1
196 193 1
196 381 1
196 487 1
196 530 1
196 589 1
196 617 1
196 752 1
196 991 1
196 1396 1
196 1399 1
196 1457 1
196 2093 1
196 3585 1
196 3658 1
196 3892 1
196 4457 1
196 5016 1
196 5105 1
196 6049 1
196 7916 1
196 8639 1
196 8884 1
196 8937 1
196 9291 1
196 9411 1
196 9523 1
197 5 1
197 10 1
197 73 1
197 131 1
197 343 1
197 520 1
197 684 1
197 817 1
197 928 1
197 1019 1
197 1063 1
197 1067 1
197 1418 1
197 1447 1
197 1552 1
197 1965 1
197 2024 1
197 2040 1
197 2156 1
197 2391 1
197 2451 1
197 2475 1
197 2573 1
197 2637 1
197 2836 1
197 2976 1
197 3239 1
197 3321 1
197 3728 1
197 4219 1
197 5968 1
197 6288 1
197 8565 1
197 8613 1
197 8749 1
197 8918 1
197 9869 1
198 25 1
198 41 1
198 60 1
198 90 1
198 201 1
198 240 1
198 270 1
198 278 1
198 585 1
198 2905 1
198 3199 1
198 5052 1
198 5310 1
198 6324 1
198 6445 1
198 6959 1
198 8284 1
198 9895 1
199 9 1
199 52 1
199 102 1
199 153 1
199 376 1
199 472 1
199 565 1
199 5362 1
199 6807 1
199 6852 1
199 7522 1
199 7539 1
199 8379 1
199 8898 1
200 25 1
200 97 1
200 126 1
200 155 1
200 1109 1
200 2222 1
200 2455 1
200 3578 1
200 3719 1
200 5137 1
200 7159 1
201 43 1
201 103 1
201 147 1
201 198 1
201 313 1
201 387 1
201 1843 1
201 3737 1
201 3927 1
201 4810 1
201 5996 1
201 6957 1
201 7927 1
201 8208 1
201 8339 1
201 8995 1
201 9550 1
202 114 1
202 129 1
202 131 1
202 144 1
202 219 1
202 225 1
202 440 1
202 633 1
202 752 1
202 808 1
202 814 1
202 819 1
202 877 1
202 1040 1
202 1157 1
202 1217 1
202 1219 1
202 1233 1
202 1254 1
202 1463 1
202 1500 1
202 1680 1
202 1737 1
202 1751 1
202 1754 1
202 1950 1
202 1952 1
202 1959 1
202 2419 1
202 2502 1
202 2651 1
202 2760 1
202 2994 1
202 3245 1
202 3568 1
202 3667 1
202 3670 1
202 3678 1
202 3681 1
202 3936 1
202 4066 1
202 4220 1
202 4227 1
202 4497 1
202 4888 1
202 4980 1
202 4986 1
202 5052 1
202 5065 1
202 5076 1
202 5126 1
202 5747 1
202 5783 1
202 5836 1
202 5953 1
202 6092 1
202 6153 1
202 6294 1
202 6523 1
202 6661 1
202 6664 1
202 6757 1
202 6917 1
202 6928 1
202 7119 1
202 7158 1
202 7947 1
202 8027 1
202 8136 1
202 8182 1
202 9455 1
203 2 1
203 17 1
203 28 1
203 43 1
203 1108 1
203 1251 1
203 1998 1
203 2372 1
203 2446 1
203 2453 1
203 2649 1
203 2872 1
203 3042 1
203 3946 1
203 5199 1
203 6441 1
203 6733 1
203 8935 1
203 9213 1
203 9260 1
204 43 1
204 49 1
204 74 1
204 81 1
204 636 1
204 848 1
204 1940 1
204 2328 1
204 2552 1
204 4738 1
204 5437 1
204 5917 1
204 6492 1
204 9089 1
205 29 1
205 41 1
205 74 1
205 163 1
205 226 1
205 840 1
205 1369 1
205 1476 1
205 1571 1
205 1588 1
205 1986 1
205 2072 1
205 2657 1
205 2889 1
205 3333 1
205 3938 1
205 4095 1
205 4337 1
205 5636 1
205 5742 1
205 5866 1
205 6158 1
205 6506 1
205 6757 1
206 65 1
206 94 1
206 97 1
206 133 1
206 438 1
206 492 1
206 709 1
206 734 1
206 1066 1
206 2315 1
206 2433 1
206 3281 1
206 3448 1
206 4023 1
206 9467 1
206 9845 1
207 10 1
207 27 1
207 36 1
207 118 1
207 854 1
207 916 1
207 3129 1
207 4950 1
207 5498 1
207 8862 1
208 1 1
208 2 1
208 81 1
208 188 1
208 234 1
208 516 1
208 754 1
208 1205 1
208 1542 1
208 1965 1
208 2093 1
208 3275 1
208 3577 1
208 3658 1
208 6141 1
208 7249 1
208 9046 1
209 5 1
209 14 1
209 50 1
209 86 1
209 223 1
209 243 1
209 254 1
209 501 1
209 515 1
209 581 1
209 951 1
209 959 1
209 1039 1
209 1186 1
209 1683 1
209 1790 1
209 2722 1
209 3075 1
209 3246 1
209 4448 1
209 5981 1
209 6009 1
209 6054 1
209 6948 1
209 7085 1
209 7715 1
209 8030 1
209 8269 1
209 8271 1
210 42 1
210 46 1
210 91 1
210 155 1
210 372 1
210 638 1
210 681 1
210 710 1
210 1007 1
210 1068 1
210 1171 1
210 1269 1
210 1277 1
210 1299 1
210 1520 1
210 1526 1
210 1567 1
210 1805 1
210 1927 1
210 2087 1
210 2424 1
210 2593 1
210 2674 1
210 2993 1
210 3103 1
210 3355 1
210 3602 1
210 3812 1
210 3866 1
210 4149 1
210 4168 1
210 4244 1
210 4322 1
210 4845 1
210 5578 1
210 5970 1
210 6243 1
210 6261 1
210 6412 1
210 7465 1
210 7681 1
210 7935 1
210 8167 1
210 8601 1
210 9165 1
211 5 1
211 20 1
211 22 1
211 175 1
211 255 1
211 285 1
211 422 1
211 490 1
211 670 1
211 1146 1
211 1410 1
211 1660 1
211 1678 1
211 1838 1
211 1961 1
211 1996 1
211 2006 1
211 2086 1
211 3077 1
211 4175 1
211 4657 1
211 4800 1
211 4941 1
211 5284 1
211 5393 1
211 5808 1
211 6336 1
211 7126 1
211 7478 1
211 8164 1
211 8533 1
211 8543 1
211 9079 1
212 1 1
212 19 1
212 36 1
212 146 1
212 441 1
212 548 1
212 574 1
212 741 1
212 793 1
212 1473 1
212 1522 1
212 2423 1
212 2438 1
212 2616 1
212 2634 1
212 2712 1
212 3218 1
212 4586 1
212 4786 1
212 4912 1
212 7048 1
212 7287 1
212 9316 1
213 1 1
213 92 1
213 105 1
213 131 1
213 471 1
213 565 1
213 616 1
213 657 1
213 758 1
213 841 1
213 842 1
213 874 1
213 998 1
213 1074 1
213 1558 1
213 1662 1
213 2126 1
213 3208 1
213 4690 1
213 5574 1
213 7822 1
213 8052 1
213 8617 1
214 12 1
214 18 1
214 102 1
214 192 1
214 418 1
214 473 1
214 555 1
214 706 1
214 999 1
214 1576 1
214 1616 1
214 2453 1
214 2633 1
214 3483 1
214 3594 1
214 3603 1
214 3654 1
214 5086 1
214 7714 1
214 8963 1
214 9424 1
214 9532 1
215 17 1
215 19 1
215 49 1
215 170 1
215 467 1
215 663 1
215 729 1
215 851 1
215 1368 1
215 1651 1
215 2415 1
215 3002 1
215 3015 1
215 3201 1
215 4201 1
215 4761 1
216 10 1
216 49 1
216 65 1
216 113 1
216 229 1
216 446 1
216 454 1
216 933 1
216 955 1
216 961 1
216 994 1
216 1022 1
216 1042 1
216 1115 1
216 1141 1
216 1270 1
216 2059 1
216 2306 1
216 2821 1
216 2882 1
216 3053 1
216 3997 1
216 4612 1
216 4813 1
216 5096 1
216 5184 1
216 5191 1
216 5200 1
216 6236 1
216 6940 1
216 7666 1
216 7668 1
216 8255 1
216 8473 1
216 9391 1
217 7 1
217 13 1
217 50 1
217 59 1
217 307 1
217 404 1
217 407 1
217 477 1
217 844 1
217 1181 1
217 1227 1
217 1318 1
217 1492 1
217 1637 1
217 1659 1
217 2313 1
217 2395 1
217 2544 1
217 2775 1
217 2867 1
217 3115 1
217 3557 1
217 3702 1
217 3810 1
217 4035 1
217 4623 1
217 4672 1
217 4774 1
217 5079 1
217 5691 1
217 6261 1
217 6295 1
217 6586 1
217 6609 1
217 6741 1
217 6979 1
217 7009 1
217 7016 1
217 7070 1
217 7086 1
217 7207 1
217 7366 1
217 8454 1
217 9010 1
218 18 1
218 25 1
218 54 1
218 81 1
218 534 1
218 716 1
218 1501 1
218 2124 1
218 3270 1
218 3697 1
218 4472 1
218 5455 1
218 7379 1
218 7922 1
219 10 1
219 22 1
219 154 1
219 202 1
219 373 1
219 447 1
219 1162 1
219 1233 1
219 1349 1
219 1460 1
219 1473 1
219 1604 1
219 1737 1
219 2057 1
219 2260 1
219 2491 1
219 2829 1
219 3346 1
219 3819 1
219 4834 1
219 5400 1
219 5422 1
219 5605 1
219 5695 1
219 5904 1
219 6400 1
219 6515 1
219 6815 1
219 7216 1
219 7875 1
219 8204 1
219 8378 1
219 8999 1
219 9169 1
219 9239 1
219 9410 1
219 9554 1
219 9810 1
219 9965 1
219 9979 1
220 4 1
220 19 1
220 60 1
220 81 1
220 370 1
220 766 1
220 910 1
220 1082 1
220 1798 1
220 2540 1
220 3055 1
220 3817 1
220 3970 1
220 4455 1
220 4784 1
220 5544 1
220 5809 1
220 5951 1
220 5971 1
220 6547 1
220 6679 1
220 7374 1
220 7458 1
220 7746 1
220 9095 1
220 9111 1
220 9545 1
221 30 1
221 65 1
221 73 1
221 116 1
221 276 1
221 358 1
221 482 1
221 695 1
221 824 1
221 1207 1
221 1347 1
221 1419 1
221 2402 1
221 2541 1
221 2622 1
221 2979 1
221 3291 1
221 3299 1
221 3350 1
221 3440 1
221 3595 1
221 3649 1
221 3789 1
221 4661 1
221 4662 1
221 4719 1
221 4747 1
221 5092 1
221 5261 1
221 5557 1
221 6170 1
221 6389 1
221 6539 1
221 6671 1
221 7215 1
221 8034 1
222 11 1
222 12 1
222 17 1
222 18 1
222 320 1
222 686 1
222 1533 1
222 1625 1
222 2154 1
222 3097 1
222 3264 1
222 5323 1
222 6357 1
222 6468 1
222 6675 1
222 7303 1
222 7462 1
222 9910 1
223 5 1
223 28 1
223 174 1
223 209 1
223 337 1
223 501 1
223 837 1
223 1039 1
223 1108 1
223 1153 1
223 2518 1
223 2702 1
223 3805 1
223 8044 1
223 8269 1
223 8480 1
223 8708 1
224 21 1
224 37 1
224 155 1
224 163 1
224 493 1
224 837 1
224 1521 1
224 8758 1
224 8807 1
225 131 1
225 141 1
225 161 1
225 202 1
225 226 1
225 317 1
225 680 1
225 899 1
225 945 1
225 968 1
225 1014 1
225 1017 1
225 1070 1
225 1283 1
225 1657 1
225 2148 1
225 2242 1
225 3078 1
225 3451 1
225 3764 1
225 3824 1
225 3958 1
225 4529 1
225 4673 1
225 4724 1
225 4779 1
225 4914 1
225 5513 1
225 5626 1
225 6092 1
225 6279 1
225 6337 1
225 6690 1
225 6732 1
225 6748 1
225 6911 1
225 7061 1
225 7368 1
225 8114 1
225 8187 1
225 8262 1
225 8510 1
225 8589 1
225 9101 1
225 9168 1
225 9679 1
226 27 1
226 46 1
226 205 1
226 225 1
226 840 1
226 899 1
226 986 1
226 1088 1
226 1751 1
226 3210 1
226 3232 1
226 4037 1
226 4403 1
226 4548 1
226 5408 1
226 7658 1
226 9292 1
226 9498 1
227 2 1
227 33 1
227 97 1
227 158 1
227 273 1
227 281 1
227 291 1
227 306 1
227 479 1
227 480 1
227 496 1
227 614 1
227 744 1
227 750 1
227 790 1
227 1080 1
227 1128 1
227 1172 1
227 1193 1
227 1371 1
227 1853 1
227 1955 1
227 2451 1
227 2463 1
227 2956 1
227 3031 1
227 3398 1
227 3553 1
227 3775 1
227 3825 1
227 3948 1
227 4134 1
227 4579 1
227 4884 1
227 4935 1
227 5033 1
227 5081 1
227 5134 1
227 5230 1
227 5771 1
227 5845 1
227 5937 1
227 5978 1
227 6029 1
227 6047 1
227 6526 1
227 6591 1
227 6938 1
227 7294 1
227 7885 1
227 7910 1
227 7943 1
227 8260 1
227 8459 1
227 9059 1
227 9290 1
227 9388 1
227 9509 1
227 9545 1
228 17 1
228 19 1
228 30 1
228 78 1
228 259 1
228 1169 1
228 1285 1
228 1290 1
228 1334 1
228 1964 1
228 2009 1
228 2709 1
228 4667 1
228 6612 1
228 8974 1
229 1 1
229 30 1
229 45 1
229 216 1
229 248 1
229 341 1
229 386 1
229 391 1
229 446 1
229 497 1
229 703 1
229 1094 1
229 1618 1
229 2175 1
229 2888 1
229 3139 1
229 3676 1
229 4012 1
229 4360 1
229 7046 1
229 7780 1
229 9594 1
230 28 1
230 49 1
230 62 1
230 89 1
230 627 1
230 1029 1
230 1087 1
230 1197 1
230 1568 1
230 2198 1
230 2867 1
230 3063 1
230 3406 1
230 3560 1
230 4042 1
230 4102 1
230 4180 1
230 4811 1
230 5085 1
230 6355 1
230 9054 1
231 33 1
231 85 1
231 154 1
231 187 1
231 306 1
231 552 1
231 634 1
231 636 1
231 844 1
231 935 1
231 1213 1
231 1408 1
231 1517 1
231 2019 1
231 2373 1
231 2668 1
231 2810 1
231 3340 1
231 3429 1
231 4039 1
231 6763 1
231 9023 1
232 9 1
232 91 1
232 92 1
232 184 1
232 1410 1
232 1494 1
232 2911 1
232 3050 1
232 3113 1
233 9 1
233 17 1
233 38 1
233 57 1
233 252 1
233 506 1
233 588 1
233 851 1
233 970 1
233 1249 1
233 1748 1
233 1865 1
233 1963 1
233 1971 1
233 2197 1
233 2894 1
233 2957 1
233 3378 1
233 4052 1
233 4357 1
233 4484 1
233 4762 1
233 4992 1
233 5228 1
233 5905 1
233 6372 1
233 7089 1
233 7101 1
233 7518 1
233 7760 1
233 7843 1
233 7978 1
233 8103 1
233 8189 1
233 8228 1
233 8471 1
233 9650 1
233 9781 1
234 1 1
234 27 1
234 107 1
234 208 1
234 257 1
234 397 1
234 516 1
234 526 1
234 664 1
234 919 1
234 1182 1
234 1505 1
234 2367 1
234 3260 1
234 3275 1
234 5575 1
234 7159 1
234 7331 1
234 7847 1
234 8811 1
235 4 1
235 9 1
235 26 1
235 63 1
235 276 1
235 352 1
235 355 1
235 509 1
235 530 1
235 644 1
235 792 1
235 902 1
235 1190 1
235 1482 1
235 1627 1
235 1934 1
235 2033 1
235 2077 1
235 2385 1
235 2708 1
235 2811 1
235 2883 1
235 3006 1
235 3207 1
235 3358 1
235 3815 1
235 4077 1
235 4445 1
235 4538 1
235 4797 1
235 4856 1
235 4909 1
235 5116 1
235 5175 1
235 5441 1
235 5790 1
235 6007 1
235 6173 1
235 6635 1
235 6721 1
235 6853 1
235 6989 1
235 7206 1
235 7432 1
235 7457 1
235 8277 1
235 8457 1
235 9010 1
235 9032 1
235 9599 1
235 9707 1
236 18 1
236 138 1
236 140 1
236 147 1
236 807 1
236 851 1
236 1045 1
236 1133 1
236 2266 1
236 2284 1
236 2314 1
236 2453 1
236 2715 1
236 3015 1
236 3522 1
236 4266 1
236 5081 1
236 5539 1
236 7285 1
236 8041 1
236 8059 1
236 8374 1
236 8949 1
237 38 1
237 117 1
237 147 1
237 153 1
237 324 1
237 454 1
237 469 1
237 541 1
237 551 1
237 721 1
237 946 1
237 1101 1
237 2006 1
237 2324 1
237 3481 1
237 3596 1
237 3710 1
237 4186 1
237 4358 1
237 4596 1
237 4957 1
237 5019 1
237 5098 1
237 5454 1
237 5846 1
237 6125 1
237 6249 1
237 7023 1
237 7350 1
237 9079 1
237 9423 1
237 9711 1
238 105 1
238 129 1
238 131 1
238 194 1
238 266 1
238 326 1
238 364 1
238 420 1
238 479 1
238 503 1
238 554 1
238 677 1
238 900 1
238 929 1
238 971 1
238 1110 1
238 1374 1
238 1566 1
238 1614 1
238 1874 1
238 2126 1
238 2137 1
238 2682 1
238 3060 1
238 3077 1
238 3169 1
238 3276 1
238 3462 1
238 3639 1
238 3928 1
238 3941 1
238 4498 1
238 6030 1
238 6348 1
238 6427 1
238 6654 1
238 6801 1
238 7754 1
238 8992 1
239 10 1
239 52 1
239 79 1
239 89 1
239 1272 1
239 8572 1
240 25 1
240 80 1
240 182 1
240 198 1
241 6 1
241 20 1
241 41 1
241 174 1
241 560 1
241 632 1
241 1941 1
241 2106 1
241 3076 1
241 3117 1
241 3209 1
241 3676 1
241 3706 1
241 3823 1
241 4393 1
241 5883 1
241 8032 1
241 9414 1
242 59 1
242 75 1
242 108 1
242 182 1
242 273 1
242 378 1
242 389 1
242 411 1
242 464 1
242 779 1
242 894 1
242 1973 1
242 2359 1
242 2384 1
242 2642 1
242 2827 1
242 4390 1
242 4966 1
242 5082 1
242 5150 1
242 5792 1
242 5800 1
242 6059 1
242 6785 1
242 7832 1
242 8536 1
242 9668 1
242 9963 1
243 33 1
243 60 1
243 66 1
243 209 1
243 254 1
243 324 1
243 348 1
243 419 1
243 602 1
243 756 1
243 806 1
243 1646 1
243 1690 1
243 3120 1
243 3790 1
243 3948 1
243 4210 1
243 4428 1
243 4513 1
243 5053 1
243 6874 1
243 6948 1
243 7084 1
243 7500 1
243 7595 1
243 8006 1
243 8471 1
243 8935 1
243 9227 1
243 9478 1
244 2 1
244 7 1
244 82 1
244 129 1
244 352 1
244 491 1
244 732 1
244 887 1
244 984 1
244 1088 1
244 1096 1
244 1403 1
244 1634 1
244 2757 1
244 2885 1
244 2912 1
244 2992 1
244 3023 1
244 3036 1
244 3140 1
244 3553 1
244 3595 1
244 3841 1
244 4125 1
244 4735 1
244 4942 1
244 5318 1
244 6752 1
244 6965 1
244 7407 1
244 7513 1
244 7685 1
244 8283 1
244 9528 1
245 5 1
245 42 1
245 83 1
245 171 1
245 297 1
245 318 1
245 360 1
245 390 1
245 394 1
245 443 1
245 561 1
245 580 1
245 663 1
245 747 1
245 1111 1
245 1536 1
245 1814 1
245 2514 1
245 2740 1
245 3032 1
245 3074 1
245 3171 1
245 7573 1
245 7845 1
245 8598 1
245 9208 1
246 22 1
246 50 1
246 133 1
246 173 1
246 296 1
246 709 1
246 1658 1
246 1988 1
246 2163 1
246 2542 1
246 2674 1
246 3205 1
246 3351 1
246 3919 1
246 4130 1
246 4648 1
246 4933 1
246 4950 1
246 4970 1
246 5476 1
246 6709 1
246 7444 1
246 7883 1
246 9898 1
247 1 1
247 50 1
247 65 1
247 78 1
247 258 1
247 757 1
247 912 1
247 1119 1
247 4378 1
247 8735 1
248 1 1
248 9 1
248 143 1
248 229 1
248 271 1
248 369 1
248 557 1
248 1038 1
248 1322 1
248 2000 1
248 2353 1
248 2825 1
249 42 1
249 91 1
249 93 1
249 145 1
249 268 1
249 519 1
249 619 1
249 983 1
249 1137 1
249 1258 1
249 1364 1
249 1753 1
249 1871 1
249 1896 1
249 2530 1
249 2724 1
249 2989 1
249 3118 1
249 4023 1
249 4268 1
249 5045 1
249 5642 1
249 5823 1
249 5949 1
249 6696 1
249 7435 1
249 8167 1
249 9019 1
249 9543 1
250 3 1
250 9 1
250 10 1
250 47 1
250 321 1
250 400 1
250 498 1
250 672 1
250 1293 1
250 1306 1
250 1380 1
250 1448 1
250 1603 1
250 1719 1
250 2676 1
250 2907 1
250 2944 1
250 3589 1
250 3781 1
250 3798 1
250 4556 1
250 5662 1
250 6627 1
250 7455 1
250 7527 1
250 8456 1
250 8604 1
250 8667 1
250 8742 1
250 9548 1
251 22 1
251 29 1
251 42 1
251 53 1
251 451 1
251 1091 1
251 1104 1
251 1296 1
251 1426 1
251 2066 1
251 2531 1
251 3174 1
251 3248 1
251 3508 1
251 3574 1
251 3978 1
251 4042 1
251 4226 1
251 4590 1
251 4877 1
251 5622 1
251 5815 1
251 6649 1
251 8902 1
251 9236 1
251 9544 1
252 21 1
252 42 1
252 189 1
252 233 1
252 284 1
252 638 1
252 829 1
252 1785 1
252 2176 1
252 2372 1
252 2434 1
252 2470 1
252 3542 1
252 3761 1
252 5384 1
252 6003 1
252 6860 1
252 9097 1
253 25 1
253 68 1
253 81 1
253 144 1
253 316 1
253 415 1
253 1225 1
253 1944 1
253 1988 1
253 2351 1
253 3050 1
253 8575 1
254 4 1
254 27 1
254 209 1
254 243 1
254 845 1
254 1046 1
254 1385 1
254 1523 1
254 1954 1
254 2095 1
254 2214 1
254 2305 1
254 2966 1
254 3016 1
254 3026 1
254 3122 1
254 3414 1
254 4604 1
254 5268 1
254 7400 1
254 7503 1
254 7853 1
254 8484 1
254 8976 1
254 9055 1
254 9597 1
255 68 1
255 74 1
255 175 1
255 211 1
255 1146 1
255 1746 1
255 2949 1
255 3053 1
255 4031 1
255 4941 1
255 7478 1
256 2 1
256 28 1
256 38 1
256 50 1
256 335 1
256 417 1
256 757 1
256 2077 1
256 4805 1
256 5321 1
256 8731 1
256 9705 1
257 4 1
257 72 1
257 174 1
257 234 1
257 518 1
257 664 1
257 1182 1
257 1354 1
257 1605 1
257 1808 1
257 1809 1
257 2367 1
257 2421 1
257 2449 1
257 2879 1
257 3882 1
257 3897 1
257 4129 1
257 4624 1
257 5162 1
257 5916 1
257 5961 1
257 6041 1
257 6534 1
257 7224 1
257 7552 1
257 7868 1
257 8242 1
257 8302 1
257 8384 1
257 9156 1
257 9230 1
257 9281 1
257 9692 1
257 9842 1
258 1 1
258 73 1
258 84 1
258 247 1
258 358 1
258 515 1
258 627 1
258 690 1
258 766 1
258 801 1
258 912 1
258 1011 1
258 1434 1
258 1514 1
258 1651 1
258 2057 1
258 2341 1
258 2723 1
258 2797 1
258 2866 1
258 3021 1
258 3596 1
258 3793 1
258 3800 1
258 3929 1
258 4098 1
258 4119 1
258 4318 1
258 4391 1
258 4473 1
258 4872 1
258 5001 1
258 5382 1
258 5520 1
258 5544 1
258 5621 1
258 6006 1
258 6495 1
258 7583 1
258 9249 1
258 9446 1
258 9577 1
259 30 1
259 58 1
259 78 1
259 228 1
259 279 1
259 298 1
259 367 1
259 374 1
259 389 1
259 395 1
259 573 1
259 578 1
259 694 1
259 806 1
259 865 1
259 940 1
259 1014 1
259 1118 1
259 1207 1
259 1234 1
259 1294 1
259 1667 1
259 1688 1
259 2134 1
259 2768 1
259 3110 1
259 3235 1
259 3516 1
259 3558 1
259 3654 1
259 3875 1
259 4205 1
259 4237 1
259 4423 1
259 4457 1
259 4907 1
259 4949 1
259 5115 1
259 5226 1
259 5255 1
259 5347 1
259 5564 1
259 5749 1
259 5863 1
259 5981 1
259 6596 1
259 6764 1
259 6839 1
259 6929 1
259 7081 1
259 7107 1
259 7581 1
259 7594 1
259 7812 1
259 7834 1
259 7936 1
259 8414 1
259 9044 1
259 9176 1
259 9248 1
259 9379 1
260 4 1
260 11 1
260 38 1
260 175 1
260 646 1
260 774 1
260 1229 1
260 1909 1
260 2346 1
260 3231 1
260 4317 1
260 4443 1
260 4517 1
260 4889 1
260 6454 1
260 6794 1
260 7175 1
260 7280 1
260 8803 1
260 9302 1
261 18 1
261 19 1
261 33 1
261 108 1
261 280 1
261 350 1
261 366 1
261 399 1
261 555 1
261 605 1
261 723 1
261 906 1
261 914 1
261 1032 1
261 1090 1
261 1122 1
261 1262 1
261 1504 1
261 2299 1
261 2830 1
261 3480 1
261 3756 1
261 3835 1
261 4068 1
261 4517 1
261 5010 1
261 5209 1
261 6236 1
261 7156 1
261 7686 1
261 8677 1
261 8700 1
261 8910 1
261 9413 1
262 41 1
262 49 1
262 103 1
262 105 1
262 264 1
262 310 1
262 554 1
262 1473 1
262 2986 1
262 3418 1
262 4004 1
262 4027 1
262 5262 1
262 5267 1
262 7007 1
262 8293 1
263 5 1
263 13 1
263 21 1
263 25 1
263 282 1
263 294 1
263 417 1
263 605 1
263 1401 1
263 1537 1
263 1547 1
263 1873 1
263 1884 1
263 2146 1
263 2756 1
263 3773 1
263 4015 1
263 4081 1
263 5316 1
263 6160 1
263 6738 1
263 8045 1
264 49 1
264 90 1
264 141 1
264 262 1
264 985 1
264 1173 1
264 3741 1
264 3772 1
264 6097 1
264 9915 1
265 14 1
265 49 1
265 58 1
265 81 1
265 454 1
265 507 1
265 667 1
265 805 1
265 997 1
265 1008 1
265 1059 1
265 1839 1
265 1920 1
265 2274 1
265 2285 1
265 2321 1
265 2396 1
265 2667 1
265 4223 1
265 4337 1
265 4435 1
265 4464 1
265 4657 1
265 4986 1
265 5885 1
265 6769 1
265 6925 1
265 6931 1
265 8231 1
265 8947 1
265 8982 1
265 9076 1
265 9303 1
265 9328 1
266 2 1
266 75 1
266 194 1
266 238 1
266 307 1
266 311 1
266 402 1
266 821 1
266 923 1
266 959 1
266 1022 1
266 1033 1
266 1120 1
266 1315 1
266 1555 1
266 1575 1
266 1669 1
266 1960 1
266 2219 1
266 2512 1
266 2556 1
266 2741 1
266 2814 1
266 2882 1
266 3096 1
266 3254 1
266 3276 1
266 3360 1
266 3387 1
266 3751 1
266 4700 1
266 5820 1
266 6258 1
266 6732 1
266 6911 1
266 7059 1
266 7173 1
266 7608 1
266 8211 1
266 8373 1
266 8463 1
266 9724 1
266 9882 1
267 4 1
267 10 1
267 11 1
267 162 1
267 334 1
267 423 1
267 438 1
267 506 1
267 512 1
267 537 1
267 566 1
267 593 1
267 1144 1
267 1299 1
267 1337 1
267 1917 1
267 2197 1
267 2226 1
267 2799 1
267 3545 1
267 3633 1
267 4354 1
267 4676 1
267 4869 1
267 5207 1
267 5240 1
267 5380 1
267 5880 1
267 6116 1
267 6394 1
267 6443 1
267 7461 1
267 8088 1
267 8694 1
267 8788 1
267 9173 1
267 9355 1
267 9831 1
267 9884 1
268 5 1
268 68 1
268 89 1
268 249 1
268 332 1
268 379 1
268 521 1
268 572 1
268 760 1
268 917 1
268 956 1
268 983 1
268 1092 1
268 1158 1
268 1694 1
268 2339 1
268 2418 1
268 2477 1
268 2620 1
268 2825 1
268 4228 1
268 4870 1
268 5142 1
268 5686 1
268 6358 1
268 6889 1
268 7229 1
268 8353 1
268 9899 1
269 4 1
269 25 1
269 43 1
269 90 1
269 313 1
269 429 1
269 592 1
269 990 1
269 1053 1
269 1466 1
269 2004 1
269 3612 1
269 3694 1
269 4287 1
269 5690 1
269 7050 1
270 44 1
270 60 1
270 123 1
270 198 1
270 361 1
270 1344 1
270 2403 1
270 3180 1
270 3256 1
270 4408 1
271 2 1
271 7 1
271 16 1
271 248 1
271 585 1
271 1825 1
272 4 1
272 18 1
272 19 1
272 94 1
272 704 1
272 796 1
272 882 1
272 2558 1
272 3333 1
272 5376 1
272 5443 1
272 6157 1
272 8859 1
273 2 1
273 13 1
273 227 1
273 242 1
273 765 1
273 872 1
273 884 1
273 1128 1
273 1145 1
273 1292 1
273 1507 1
273 1583 1
273 1677 1
273 1881 1
273 1957 1
273 2203 1
273 2242 1
273 2502 1
273 2569 1
273 2843 1
273 2859 1
273 3062 1
273 3781 1
273 3823 1
273 4021 1
273 4500 1
273 4554 1
273 4897 1
273 4966 1
273 5182 1
273 5410 1
273 5728 1
273 7261 1
273 7724 1
273 8032 1
273 8316 1
273 8389 1
273 8666 1
273 8769 1
273 8814 1
273 8972 1
273 9028 1
273 9136 1
273 9563 1
273 9700 1
273 9855 1
273 10000 1
274 66 1
274 111 1
274 163 1
274 182 1
274 395 1
274 786 1
274 1365 1
274 1447 1
274 1487 1
274 1646 1
274 1926 1
274 2456 1
274 2920 1
274 3295 1
274 3767 1
274 5720 1
274 7491 1
274 9511 1
275 18 1
275 27 1
275 38 1
275 185 1
275 667 1
275 888 1
275 1104 1
275 1437 1
275 1741 1
275 2151 1
275 2475 1
275 2606 1
275 2938 1
275 4098 1
275 4312 1
275 4626 1
275 4882 1
275 4979 1
275 6321 1
275 6963 1
275 7230 1
275 8038 1
275 8550 1
275 8868 1
276 30 1
276 41 1
276 221 1
276 235 1
276 402 1
276 644 1
276 918 1
276 1286 1
276 1421 1
276 1612 1
276 2208 1
276 2273 1
276 2978 1
276 3587 1
276 4249 1
276 4371 1
276 5432 1
276 5619 1
276 5786 1
276 5891 1
276 6007 1
276 6449 1
276 6762 1
276 7004 1
276 7720 1
276 8363 1
276 8700 1
276 9998 1
277 10 1
277 20 1
277 61 1
277 92 1
277 437 1
277 545 1
277 807 1
277 909 1
277 1360 1
277 1436 1
277 1599 1
277 1658 1
277 1734 1
277 1906 1
277 2307 1
277 2954 1
277 3620 1
277 3832 1
277 5030 1
277 5065 1
277 5536 1
277 5596 1
277 5853 1
277 6560 1
277 6635 1
277 7208 1
277 7342 1
277 8980 1
277 9993 1
278 11 1
278 81 1
278 100 1
278 198 1
278 315 1
278 850 1
278 857 1
278 963 1
278 1262 1
278 2080 1
278 2252 1
278 2375 1
278 2822 1
278 3319 1
278 4479 1
278 5378 1
278 7969 1
279 30 1
279 94 1
279 190 1
279 259 1
279 367 1
279 368 1
279 374 1
279 823 1
279 1789 1
279 1955 1
279 2217 1
279 2411 1
279 2628 1
279 3094 1
279 5693 1
279 7936 1
279 8691 1
279 8799 1
280 4 1
280 27 1
280 66 1
280 261 1
280 2606 1
280 5021 1
280 5717 1
280 5788 1
280 5930 1
281 33 1
281 51 1
281 154 1
281 227 1
281 295 1
281 502 1
281 632 1
281 702 1
281 1005 1
281 1023 1
281 1106 1
281 1124 1
281 1252 1
281 1514 1
281 1639 1
281 1670 1
281 1777 1
281 2038 1
281 2096 1
281 2103 1
281 2315 1
281 3167 1
281 3584 1
281 3653 1
281 3696 1
281 4018 1
281 4046 1
281 4201 1
281 4490 1
281 4899 1
281 4971 1
281 4985 1
281 5024 1
281 5292 1
281 6134 1
281 6828 1
281 7124 1
281 7157 1
281 7281 1
281 8325 1
281 8459 1
281 9045 1
281 9863 1
281 9899 1
282 11 1
282 21 1
282 154 1
282 263 1
282 1051 1
282 1597 1
282 1873 1
282 2647 1
282 3109 1
282 3390 1
282 3609 1
282 3731 1
282 3827 1
282 4144 1
282 4405 1
282 4562 1
282 4659 1
282 4745 1
282 5346 1
282 5547 1
282 7256 1
282 7357 1
282 7546 1
282 7566 1
282 7641 1
282 8886 1
282 8918 1
283 1 1
283 45 1
283 73 1
283 92 1
283 614 1
283 991 1
283 1356 1
283 1607 1
283 1816 1
283 1971 1
283 2411 1
283 2705 1
283 2780 1
283 2857 1
283 3037 1
283 3098 1
283 3569 1
283 3784 1
283 3874 1
283 3887 1
283 4279 1
283 4716 1
283 5549 1
283 5589 1
283 5637 1
283 6377 1
283 6467 1
283 6583 1
283 6627 1
283 7082 1
283 8206 1
284 89 1
284 107 1
284 189 1
284 252 1
284 335 1
284 461 1
284 1376 1
284 1622 1
284 1910 1
284 2639 1
284 2673 1
284 2777 1
284 3441 1
284 3488 1
284 3552 1
284 5570 1
284 5635 1
284 8094 1
284 8497 1
284 9927 1
285 1 1
285 2 1
285 20 1
285 211 1
285 565 1
285 646 1
285 663 1
285 763 1
285 789 1
285 944 1
285 1491 1
285 1660 1
285 2318 1
285 2495 1
285 3304 1
285 3330 1
285 3436 1
285 5136 1
285 6080 1
285 7638 1
285 8796 1
285 9112 1
285 9208 1
285 9666 1
285 9922 1
286 2 1
286 15 1
286 60 1
286 160 1
286 334 1
286 569 1
286 1880 1
286 2739 1
286 3508 1
286 3723 1
286 4069 1
286 8179 1
286 8848 1
287 9 1
287 10 1
287 11 1
287 162 1
287 346 1
287 1051 1
287 1749 1
287 1826 1
287 2213 1
287 2650 1
287 2930 1
287 5216 1
287 7217 1
287 8974 1
287 9367 1
287 9806 1
288 2 1
288 18 1
288 31 1
288 127 1
288 435 1
288 488 1
288 2506 1
288 2584 1
288 4302 1
288 4780 1
288 5309 1
288 8654 1
289 19 1
289 27 1
289 81 1
289 195 1
289 445 1
289 517 1
289 753 1
289 1031 1
289 1117 1
289 1147 1
289 1301 1
289 1492 1
289 1736 1
289 2086 1
289 2900 1
289 3465 1
289 3845 1
289 5258 1
289 6841 1
289 7288 1
289 7616 1
289 7701 1
289 8016 1
289 8295 1
289 8372 1
289 8465 1
289 8667 1
289 8712 1
289 8718 1
289 9051 1
289 9375 1
290 11 1
290 55 1
290 162 1
290 188 1
290 301 1
290 463 1
290 476 1
290 826 1
290 932 1
290 1043 1
290 1145 1
290 1290 1
290 1294 1
290 1336 1
290 1412 1
290 1643 1
290 1922 1
290 1996 1
290 2117 1
290 2316 1
290 2522 1
290 3302 1
290 3312 1
290 3672 1
290 5570 1
290 6121 1
290 6250 1
290 6527 1
290 6918 1
290 7120 1
290 7169 1
290 7723 1
290 8207 1
290 8508 1
290 9214 1
290 9258 1
290 9586 1
291 89 1
291 138 1
291 158 1
291 227 1
291 496 1
291 913 1
291 1045 1
291 1128 1
291 1370 1
291 1457 1
291 1757 1
291 2408 1
291 2859 1
291 3238 1
291 3775 1
291 4479 1
291 5048 1
291 5208 1
291 5235 1
291 5664 1
291 5709 1
291 5814 1
291 6608 1
291 7527 1
291 7569 1
291 7677 1
291 7707 1
291 7923 1
291 9107 1
291 9509 1
291 9612 1
292 9 1
292 21 1
292 49 1
292 115 1
292 359 1
292 386 1
292 395 1
292 611 1
292 1587 1
292 1905 1
292 2356 1
292 2410 1
292 3493 1
292 4624 1
292 5983 1
292 6423 1
292 7586 1
292 7889 1
292 8885 1
292 9783 1
293 2 1
293 6 1
293 46 1
293 165 1
293 643 1
293 2545 1
293 2956 1
293 3065 1
293 3485 1
293 4040 1
293 4543 1
293 7749 1
293 8619 1
293 8805 1
293 9245 1
294 41 1
294 61 1
294 90 1
294 263 1
294 319 1
294 468 1
294 681 1
294 1058 1
294 2092 1
294 2130 1
294 2714 1
294 3044 1
294 3230 1
294 5113 1
294 5185 1
294 6493 1
294 6997 1
294 7258 1
294 7509 1
294 8682 1
294 8829 1
295 6 1
295 59 1
295 148 1
295 281 1
295 863 1
295 996 1
295 1516 1
295 1907 1
295 2121 1
295 3389 1
295 3515 1
295 6689 1
295 6959 1
295 7976 1
296 1 1
296 4 1
296 133 1
296 246 1
296 461 1
296 564 1
296 3534 1
296 6320 1
296 7016 1
296 8059 1
296 9353 1
297 5 1
297 8 1
297 113 1
297 245 1
297 318 1
297 394 1
297 409 1
297 462 1
297 561 1
297 756 1
297 770 1
297 908 1
297 967 1
297 997 1
297 1061 1
297 1306 1
297 1524 1
297 1589 1
297 1880 1
297 2026 1
297 2098 1
297 2170 1
297 2364 1
297 2398 1
297 2778 1
297 2899 1
297 2958 1
297 3032 1
297 3088 1
297 3411 1
297 3463 1
297 3548 1
297 3913 1
297 4060 1
297 4132 1
297 4437 1
297 4671 1
297 4840 1
297 4897 1
297 4941 1
297 4962 1
297 5022 1
297 5036 1
297 5236 1
297 5274 1
297 5356 1
297 6066 1
297 6305 1
297 6324 1
297 7218 1
297 7485 1
297 7546 1
297 7716 1
297 7863 1
297 8070 1
297 8236 1
297 8766 1
297 8836 1
297 9669 1
297 9995 1
298 30 1
298 74 1
298 137 1
298 259 1
298 940 1
298 987 1
298 1014 1
298 1116 1
298 1180 1
298 1253 1
298 1794 1
298 1853 1
298 1977 1
298 2169 1
298 2412 1
298 2788 1
298 2988 1
298 3001 1
298 3033 1
298 3241 1
298 3826 1
298 4335 1
298 4490 1
298 4523 1
298 4767 1
298 5001 1
298 5115 1
298 5226 1
298 5874 1
298 5936 1
298 6594 1
298 6596 1
298 6604 1
298 6785 1
298 7165 1
298 8804 1
298 9060 1
298 9130 1
298 9436 1
298 9592 1
298 9608 1
299 9 1
299 91 1
299 97 1
299 124 1
299 315 1
299 383 1
299 531 1
299 691 1
299 1024 1
299 1331 1
299 1388 1
299 1726 1
299 1964 1
299 2574 1
299 2624 1
299 2711 1
299 3266 1
299 4365 1
299 4419 1
299 5844 1
299 5908 1
299 6296 1
299 6300 1
299 7008 1
299 7147 1
299 7977 1
299 8958 1
300 42 1
300 73 1
300 123 1
300 147 1
300 410 1
300 485 1
300 905 1
300 1100 1
300 1169 1
300 1289 1
300 1329 1
300 1471 1
300 1553 1
300 1619 1
300 1647 1
300 1850 1
300 2087 1
300 2308 1
300 2320 1
300 2384 1
300 2497 1
300 2616 1
300 3511 1
300 3590 1
300 3641 1
300 3738 1
300 4825 1
300 5157 1
300 5183 1
300 5608 1
300 5768 1
300 6491 1
300 6584 1
300 6637 1
300 6782 1
300 7489 1
300 7657 1
300 8578 1
300 9207 1
301 9 1
301 42 1
301 162 1
301 290 1
301 476 1
301 573 1
301 597 1
301 628 1
301 641 1
301 1377 1
301 1395 1
301 1498 1
301 2134 1
301 2189 1
301 3187 1
301 4053 1
301 4793 1
301 5729 1
301 5873 1
301 6533 1
301 6763 1
301 7169 1
301 7919 1
301 8065 1
301 8351 1
301 8671 1
301 8763 1
301 8967 1
302 2 1
302 38 1
302 52 1
302 102 1
302 472 1
302 2420 1
302 3020 1
302 6754 1
302 9218 1
303 50 1
303 74 1
303 128 1
303 146 1
303 361 1
303 428 1
303 628 1
303 680 1
303 736 1
303 939 1
303 1178 1
303 1468 1
303 1820 1
303 2510 1
303 2565 1
303 2896 1
303 2946 1
303 3917 1
303 7411 1
303 8205 1
303 9375 1
303 9830 1
303 9973 1
304 18 1
304 30 1
304 132 1
304 185 1
304 351 1
304 520 1
304 1318 1
304 1330 1
304 4672 1
305 25 1
305 39 1
305 101 1
305 166 1
305 308 1
305 345 1
305 625 1
305 716 1
305 1278 1
305 1561 1
305 2021 1
305 2164 1
305 2185 1
305 2479 1
305 2561 1
305 2845 1
305 2943 1
305 3377 1
305 3509 1
305 3799 1
305 3940 1
305 4007 1
305 4558 1
305 4727 1
305 5440 1
305 5531 1
305 5639 1
305 5849 1
305 6405 1
305 6549 1
305 6651 1
305 6730 1
305 7965 1
305 8080 1
305 8663 1
305 8987 1
305 9589 1
306 97 1
306 187 1
306 227 1
306 231 1
306 565 1
306 790 1
306 808 1
306 1517 1
306 2506 1
306 2795 1
306 3836 1
306 4202 1
306 4803 1
306 4846 1
306 5598 1
306 6927 1
306 7698 1
306 7760 1
306 8833 1
306 9505 1
306 9965 1
307 14 1
307 62 1
307 217 1
307 266 1
307 364 1
307 435 1
307 1230 1
307 1669 1
307 2053 1
307 3234 1
307 4083 1
307 4094 1
307 4854 1
307 6527 1
307 6707 1
307 7009 1
307 8174 1
307 8349 1
307 9058 1
307 9449 1
308 18 1
308 25 1
308 113 1
308 305 1
308 414 1
308 416 1
308 461 1
308 716 1
308 893 1
308 1179 1
308 1223 1
308 1666 1
308 1671 1
308 1683 1
308 1945 1
308 2088 1
308 2195 1
308 2394 1
308 3080 1
308 4168 1
308 4180 1
308 5910 1
308 6546 1
308 6670 1
308 7018 1
308 7296 1
308 7661 1
308 7669 1
308 9471 1
308 9992 1
309 4 1
309 25 1
309 41 1
309 63 1
309 622 1
309 3851 1
309 5552 1
309 5787 1
309 6472 1
310 18 1
310 21 1
310 103 1
310 262 1
310 431 1
310 778 1
310 882 1
310 1411 1
310 1713 1
310 1957 1
310 2105 1
310 2290 1
310 4077 1
310 4107 1
310 4217 1
310 4631 1
310 6034 1
310 8387 1
310 8577 1
310 9340 1
311 11 1
311 12 1
311 194 1
311 266 1
311 334 1
311 402 1
311 533 1
311 593 1
311 896 1
311 1189 1
311 1555 1
311 1772 1
311 2272 1
311 2556 1
311 3123 1
311 3478 1
311 3482 1
311 4208 1
311 4231 1
311 4398 1
311 6110 1
311 7896 1
311 8722 1
311 9017 1
311 9620 1
311 9721 1
311 9980 1
312 35 1
312 60 1
312 74 1
312 194 1
312 921 1
312 1967 1
312 6005 1
312 9757 1
313 5 1
313 43 1
313 201 1
313 269 1
313 387 1
313 404 1
313 2115 1
313 6033 1
314 4 1
314 9 1
314 17 1
314 46 1
314 588 1
314 1159 1
314 1546 1
314 2436 1
314 2964 1
314 3249 1
314 3520 1
314 4588 1
314 5214 1
314 5246 1
314 5248 1
314 5392 1
314 6511 1
314 6672 1
314 7995 1
314 9001 1
315 9 1
315 124 1
315 278 1
315 299 1
315 442 1
315 607 1
315 850 1
315 900 1
315 1705 1
315 1726 1
315 2198 1
315 2443 1
315 3217 1
315 3363 1
315 3621 1
315 4003 1
315 6617 1
315 7147 1
315 8843 1
316 4 1
316 12 1
316 18 1
316 253 1
316 438 1
316 802 1
316 881 1
316 1176 1
316 1950 1
316 6104 1
316 6154 1
316 7254 1
316 8198 1
316 8516 1
317 6 1
317 116 1
317 141 1
317 225 1
317 535 1
317 640 1
317 677 1
317 695 1
317 776 1
317 945 1
317 977 1
317 1644 1
317 1672 1
317 2050 1
317 2148 1
317 3177 1
317 3996 1
317 4222 1
317 4359 1
317 4724 1
317 5265 1
317 5386 1
317 5464 1
317 5485 1
317 5795 1
317 5911 1
317 6171 1
317 6196 1
317 6723 1
317 6974 1
317 7097 1
317 7962 1
317 8183 1
317 8324 1
317 8789 1
317 9180 1
317 9888 1
318 18 1
318 59 1
318 245 1
318 297 1
318 409 1
318 629 1
318 1127 1
318 1575 1
318 2668 1
318 2861 1
318 3055 1
318 6305 1
318 7226 1
319 32 1
319 39 1
319 179 1
319 294 1
319 464 1
319 764 1
319 836 1
319 890 1
319 1553 1
319 1720 1
319 2228 1
319 2429 1
319 5459 1
319 6589 1
319 6733 1
319 7561 1
320 4 1
320 17 1
320 190 1
320 222 1
320 2094 1
320 2274 1
320 2667 1
320 3930 1
321 9 1
321 10 1
321 34 1
321 250 1
321 1013 1
321 1448 1
321 5099 1
321 5306 1
321 7109 1
321 7187 1
321 7377 1
321 8742 1
321 8773 1
321 9513 1
321 9765 1
322 50 1
322 67 1
322 154 1
322 187 1
322 610 1
322 736 1
322 740 1
322 787 1
322 894 1
322 933 1
322 1077 1
322 1093 1
322 1222 1
322 1227 1
322 1285 1
322 1377 1
322 2132 1
322 2314 1
322 2642 1
322 2849 1
322 3109 1
322 3950 1
322 4563 1
322 4626 1
322 4928 1
322 5082 1
322 5439 1
322 5515 1
322 6002 1
322 6022 1
322 6459 1
322 7022 1
322 7043 1
322 7535 1
322 7553 1
322 7561 1
322 7846 1
322 8558 1
322 8702 1
322 9029 1
322 9125 1
322 9425 1
322 9877 1
322 9898 1
322 9950 1
323 5 1
323 10 1
323 89 1
323 164 1
323 326 1
323 516 1
323 529 1
323 546 1
323 854 1
323 897 1
323 901 1
323 1021 1
323 1223 1
323 1289 1
323 1410 1
323 1640 1
323 1744 1
323 2329 1
323 2379 1
323 2549 1
323 2587 1
323 2611 1
323 2683 1
323 2695 1
323 3014 1
323 3108 1
323 3373 1
323 3537 1
323 3778 1
323 3809 1
323 4078 1
323 4395 1
323 4572 1
323 4675 1
323 4686 1
323 4901 1
323 5313 1
323 5915 1
323 6499 1
323 7272 1
323 7379 1
323 7866 1
323 8090 1
323 8622 1
323 8689 1
323 9061 1
323 9266 1
323 9418 1
323 9489 1
323 9974 1
324 19 1
324 117 1
324 237 1
324 243 1
324 348 1
324 419 1
324 470 1
324 831 1
324 947 1
324 1147 1
324 2160 1
324 3596 1
324 4186 1
324 4865 1
324 4915 1
324 5846 1
324 6268 1
324 6483 1
324 6960 1
324 7099 1
324 7976 1
324 8451 1
325 1 1
325 73 1
325 107 1
325 168 1
325 551 1
325 722 1
325 895 1
325 1066 1
325 1144 1
325 1378 1
325 1649 1
325 1701 1
325 4844 1
325 6117 1
325 6713 1
325 7158 1
325 8520 1
325 9436 1
326 11 1
326 105 1
326 238 1
326 323 1
326 420 1
326 2232 1
326 2379 1
326 3293 1
326 8992 1
327 4 1
327 36 1
327 62 1
327 118 1
327 414 1
327 430 1
327 1922 1
327 2334 1
327 3121 1
327 3803 1
327 5651 1
327 7535 1
327 9280 1
328 4 1
328 81 1
328 106 1
328 108 1
328 415 1
328 8927 1
329 9 1
329 36 1
329 116 1
329 154 1
329 347 1
329 354 1
329 373 1
329 400 1
329 450 1
329 524 1
329 772 1
329 947 1
329 962 1
329 989 1
329 1234 1
329 1460 1
329 1545 1
329 1660 1
329 1730 1
329 1750 1
329 1763 1
329 1779 1
329 1890 1
329 2003 1
329 2074 1
329 2528 1
329 2596 1
329 2685 1
329 2756 1
329 3022 1
329 3243 1
329 3753 1
329 4179 1
329 4195 1
329 4534 1
329 5008 1
329 5071 1
329 5200 1
329 5205 1
329 5212 1
329 5517 1
329 5759 1
329 6205 1
329 6524 1
329 6605 1
329 6820 1
329 6947 1
329 7563 1
329 7582 1
329 8283 1
329 8607 1
329 8754 1
329 8956 1
329 9055 1
329 9261 1
329 9373 1
330 18 1
330 113 1
330 148 1
330 169 1
330 425 1
330 958 1
330 1233 1
330 1243 1
330 1345 1
330 1571 1
330 1604 1
330 1786 1
330 1888 1
330 2548 1
330 2890 1
330 4646 1
330 4713 1
330 5296 1
330 5436 1
330 5811 1
330 6544 1
330 6568 1
330 6775 1
330 7038 1
330 8102 1
330 8960 1
330 9661 1
331 1 1
331 67 1
331 68 1
331 104 1
331 712 1
331 964 1
331 5740 1
331 7715 1
332 42 1
332 137 1
332 159 1
332 268 1
332 392 1
332 451 1
332 558 1
332 596 1
332 648 1
332 849 1
332 1158 1
332 1313 1
332 1992 1
332 2450 1
332 2680 1
332 2752 1
332 3636 1
332 3718 1
332 3758 1
332 3762 1
332 4858 1
332 5203 1
332 5675 1
332 7350 1
332 8083 1
332 8306 1
332 8474 1
332 8495 1
332 9094 1
333 11 1
333 36 1
333 168 1
333 182 1
333 621 1
333 795 1
333 834 1
333 1183 1
333 1654 1
333 1691 1
333 1948 1
333 2418 1
333 4450 1
333 6873 1
333 8975 1
334 169 1
334 267 1
334 286 1
334 311 1
334 1299 1
334 1969 1
334 3815 1
334 5207 1
334 8359 1
335 50 1
335 139 1
335 256 1
335 284 1
335 757 1
335 1670 1
335 1784 1
335 5741 1
335 6009 1
335 7799 1
335 8581 1
335 9200 1
335 9705 1
336 31 1
336 96 1
336 140 1
336 147 1
336 582 1
336 8014 1
337 5 1
337 28 1
337 111 1
337 223 1
337 501 1
337 502 1
337 952 1
337 1018 1
337 1327 1
337 1878 1
337 2179 1
337 2233 1
337 2630 1
337 2651 1
337 3048 1
337 3289 1
337 3315 1
337 3925 1
337 4442 1
337 4443 1
337 4470 1
337 5012 1
337 5406 1
337 6780 1
337 7692 1
337 8101 1
337 8274 1
337 8545 1
337 8708 1
337 9070 1
337 9729 1
338 11 1
338 27 1
338 91 1
338 139 1
338 497 1
338 751 1
338 969 1
338 1049 1
338 1085 1
338 1676 1
338 1813 1
338 1983 1
338 2493 1
338 2760 1
338 3116 1
338 3846 1
338 3994 1
338 4678 1
338 6008 1
338 7022 1
338 7188 1
338 7525 1
338 7777 1
338 8067 1
338 8082 1
338 8366 1
338 8643 1
338 9262 1
338 9604 1
338 9966 1
339 2 1
339 25 1
339 33 1
339 51 1
339 622 1
339 904 1
339 990 1
339 1184 1
339 1257 1
339 1725 1
339 2194 1
339 2235 1
339 2236 1
339 2263 1
339 2744 1
339 2955 1
339 3269 1
339 5349 1
339 6223 1
339 6247 1
339 6567 1
339 7736 1
339 8252 1
340 66 1
340 163 1
340 174 1
340 178 1
340 382 1
340 500 1
340 505 1
340 524 1
340 537 1
340 731 1
340 817 1
340 842 1
340 989 1
340 1143 1
340 1303 1
340 1313 1
340 1460 1
340 1630 1
340 1654 1
340 1657 1
340 1694 1
340 1799 1
340 1982 1
340 2034 1
340 2051 1
340 2135 1
340 2385 1
340 2468 1
340 2589 1
340 2604 1
340 2885 1
340 3041 1
340 3311 1
340 3331 1
340 3337 1
340 3401 1
340 4122 1
340 4215 1
340 4513 1
340 4628 1
340 5169 1
340 5604 1
340 5649 1
340 5912 1
340 6147 1
340 6307 1
340 6537 1
340 6806 1
340 6889 1
340 7063 1
340 7083 1
340 7336 1
340 7617 1
340 7971 1
340 8395 1
340 9458 1
340 9800 1
340 9838 1
341 28 1
341 57 1
341 69 1
341 229 1
341 391 1
341 600 1
341 742 1
341 1923 1
341 2801 1
341 3757 1
341 4478 1
341 5591 1
341 7421 1
341 8063 1
341 9250 1
342 4 1
342 42 1
342 109 1
342 131 1
342 401 1
342 658 1
342 937 1
342 1252 1
342 1345 1
342 1529 1
342 2828 1
342 3529 1
342 6958 1
342 7523 1
343 5 1
343 18 1
343 179 1
343 197 1
343 690 1
343 1162 1
343 2053 1
343 5968 1
343 6325 1
343 9955 1
344 26 1
344 41 1
344 116 1
344 194 1
344 806 1
344 5175 1
344 6240 1
344 8988 1
345 25 1
345 66 1
345 106 1
345 305 1
345 484 1
345 542 1
345 811 1
345 1221 1
345 1245 1
345 1278 1
345 1577 1
345 1646 1
345 1801 1
345 1987 1
345 2226 1
345 2250 1
345 2322 1
345 2354 1
345 2638 1
345 3000 1
345 3122 1
345 3138 1
345 3749 1
345 3949 1
345 4009 1
345 4045 1
345 4954 1
345 5034 1
345 5566 1
345 5617 1
345 5739 1
345 5839 1
345 6807 1
345 7194 1
345 7531 1
345 7846 1
345 8075 1
345 8253 1
345 8273 1
345 8706 1
345 9527 1
345 9782 1
346 9 1
346 22 1
346 162 1
346 287 1
346 353 1
346 423 1
346 1086 1
346 1826 1
346 1939 1
346 2107 1
346 2144 1
346 2261 1
346 3698 1
346 4070 1
346 6058 1
346 6940 1
346 7091 1
346 7118 1
346 7127 1
346 7479 1
346 8239 1
346 8432 1
346 9430 1
346 9806 1
347 9 1
347 19 1
347 79 1
347 329 1
347 380 1
347 539 1
347 615 1
347 648 1
347 795 1
347 1845 1
347 2128 1
347 2335 1
347 2918 1
347 3293 1
347 3606 1
347 5145 1
347 5279 1
347 8950 1
348 2 1
348 33 1
348 243 1
348 324 1
348 356 1
348 363 1
348 377 1
348 401 1
348 428 1
348 1161 1
348 1287 1
348 1554 1
348 1559 1
348 1936 1
348 2199 1
348 2658 1
348 2729 1
348 2753 1
348 2901 1
348 2969 1
348 3093 1
348 3120 1
348 3461 1
348 3626 1
348 3883 1
348 4917 1
348 5416 1
348 5860 1
348 6069 1
348 6483 1
348 6586 1
348 6992 1
348 7526 1
348 7911 1
348 8615 1
348 9352 1
348 9745 1
349 42 1
349 84 1
349 101 1
349 164 1
349 372 1
349 385 1
349 486 1
349 508 1
349 566 1
349 1038 1
349 1137 1
349 1267 1
349 1292 1
349 1546 1
349 1766 1
349 1911 1
349 2075 1
349 3118 1
349 3196 1
349 3445 1
349 3676 1
349 4684 1
349 4736 1
349 5042 1
349 7691 1
349 7907 1
349 8105 1
349 9724 1
350 6 1
350 9 1
350 55 1
350 261 1
350 941 1
350 1836 1
350 2582 1
350 4020 1
350 4355 1
350 5440 1
350 7615 1
351 18 1
351 30 1
351 120 1
351 304 1
351 716 1
351 1220 1
351 1698 1
351 1823 1
351 3858 1
351 5523 1
352 18 1
352 82 1
352 235 1
352 244 1
352 2992 1
352 7816 1
353 9 1
353 11 1
353 38 1
353 346 1
353 445 1
353 507 1
353 574 1
353 939 1
353 1182 1
353 1210 1
353 1490 1
353 1543 1
353 1882 1
353 1924 1
353 1939 1
353 1972 1
353 2024 1
353 2029 1
353 2279 1
353 2905 1
353 2906 1
353 3182 1
353 3491 1
353 3866 1
353 3921 1
353 4762 1
353 6265 1
353 6277 1
353 6353 1
353 8572 1
353 8855 1
353 9491 1
353 9806 1
354 18 1
354 36 1
354 154 1
354 329 1
354 405 1
354 524 1
354 541 1
354 654 1
354 847 1
354 952 1
354 1084 1
354 1095 1
354 1151 1
354 1219 1
354 1399 1
354 1601 1
354 2111 1
354 2391 1
354 3310 1
354 3725 1
354 4172 1
354 4200 1
354 4320 1
354 4353 1
354 4574 1
354 4593 1
354 5009 1
354 5409 1
354 5435 1
354 5600 1
354 5648 1
354 5799 1
354 6185 1
354 6306 1
354 6541 1
354 6957 1
354 6966 1
354 7334 1
354 7952 1
354 8009 1
354 8639 1
354 8765 1
355 9 1
355 47 1
355 48 1
355 235 1
355 602 1
355 780 1
355 2023 1
355 7124 1
355 7520 1
355 8122 1
355 9849 1
355 9852 1
356 33 1
356 51 1
356 82 1
356 348 1
356 377 1
356 525 1
356 562 1
356 681 1
356 787 1
356 963 1
356 1203 1
356 2002 1
356 2199 1
356 2887 1
356 2974 1
356 3069 1
356 3089 1
356 3372 1
356 4961 1
356 4991 1
356 5020 1
356 5416 1
356 6811 1
356 7096 1
356 8203 1
356 8284 1
356 8526 1
356 8527 1
356 8610 1
356 9058 1
356 9110 1
356 9163 1
357 6 1
357 17 1
357 37 1
357 76 1
357 391 1
357 550 1
357 634 1
357 772 1
357 914 1
357 1856 1
357 1893 1
357 2260 1
357 3040 1
357 3357 1
357 4460 1
357 4729 1
357 5067 1
357 5987 1
357 6182 1
357 7917 1
357 8435 1
358 73 1
358 137 1
358 221 1
358 258 1
358 441 1
358 482 1
358 820 1
358 958 1
358 1363 1
358 2043 1
358 2965 1
358 3299 1
358 3470 1
358 3608 1
358 3736 1
358 4304 1
358 6170 1
358 7791 1
358 8061 1
358 8438 1
359 4 1
359 81 1
359 161 1
359 292 1
359 493 1
359 611 1
359 949 1
359 1200 1
359 1577 1
359 1741 1
359 1798 1
359 1801 1
359 3904 1
359 4624 1
359 5482 1
359 5558 1
359 5763 1
359 6431 1
359 6897 1
359 7392 1
359 7904 1
359 9710 1
359 9930 1
359 9968 1
360 2 1
360 23 1
360 36 1
360 245 1
360 384 1
360 394 1
360 550 1
360 747 1
360 2499 1
360 2763 1
360 4171 1
360 4911 1
360 5585 1
361 18 1
361 60 1
361 270 1
361 303 1
361 628 1
361 657 1
361 666 1
361 948 1
361 1276 1
361 1339 1
361 1423 1
361 1468 1
361 1701 1
361 1759 1
361 1775 1
361 3067 1
361 3284 1
361 3702 1
361 4408 1
361 4506 1
361 4754 1
361 5125 1
361 6088 1
361 7914 1
361 8851 1
361 9214 1
361 9375 1
361 9774 1
361 9830 1
362 13 1
362 25 1
362 41 1
362 72 1
362 408 1
362 645 1
362 1721 1
362 2036 1
362 3583 1
362 5136 1
362 6162 1
363 2 1
363 39 1
363 126 1
363 348 1
363 563 1
363 598 1
363 989 1
363 3264 1
363 3735 1
363 8094 1
364 25 1
364 129 1
364 238 1
364 307 1
364 502 1
364 760 1
364 971 1
364 988 1
364 1309 1
364 2213 1
364 2477 1
364 3234 1
364 4081 1
364 4682 1
364 4777 1
364 4926 1
364 5827 1
364 7999 1
365 11 1
365 12 1
365 89 1
365 103 1
365 603 1
365 759 1
365 776 1
365 798 1
365 1485 1
365 1975 1
365 1996 1
365 2282 1
365 2297 1
365 3020 1
365 3149 1
365 3383 1
365 3622 1
365 3650 1
365 3832 1
365 5144 1
365 5180 1
365 5381 1
365 5804 1
365 6338 1
365 6720 1
365 6983 1
365 7343 1
365 7464 1
365 7782 1
365 7789 1
365 7984 1
365 8672 1
365 9643 1
365 9787 1
366 25 1
366 123 1
366 187 1
366 261 1
366 408 1
366 543 1
366 733 1
366 743 1
366 808 1
366 1852 1
366 2695 1
366 4068 1
366 4225 1
366 4576 1
366 6082 1
366 7047 1
366 8186 1
366 8809 1
367 11 1
367 58 1
367 259 1
367 279 1
367 1125 1
367 3258 1
367 9176 1
368 2 1
368 8 1
368 42 1
368 279 1
368 1078 1
368 1123 1
368 1544 1
368 1789 1
368 5292 1
368 5962 1
369 3 1
369 66 1
369 74 1
369 248 1
369 452 1
369 465 1
369 481 1
369 595 1
369 934 1
369 1608 1
369 1636 1
369 1816 1
369 2465 1
369 3416 1
369 3439 1
369 3446 1
369 3856 1
369 3891 1
369 4017 1
369 4495 1
369 4533 1
369 4649 1
369 4822 1
369 6488 1
369 6704 1
369 7352 1
369 8264 1
369 8511 1
369 8956 1
369 9472 1
369 9578 1
369 9659 1
369 9861 1
370 9 1
370 48 1
370 55 1
370 220 1
370 658 1
370 713 1
370 980 1
370 2175 1
370 2195 1
370 2430 1
370 2444 1
370 4213 1
370 4714 1
370 5299 1
370 5510 1
370 5658 1
370 6124 1
370 6294 1
370 6386 1
370 6456 1
370 6470 1
370 7746 1
370 7934 1
370 8418 1
370 9071 1
370 9128 1
370 9234 1
371 4 1
371 12 1
371 14 1
371 100 1
371 785 1
371 786 1
371 1103 1
371 1806 1
371 2319 1
371 2742 1
371 7143 1
372 4 1
372 42 1
372 210 1
372 349 1
372 385 1
372 485 1
372 755 1
372 954 1
372 1068 1
372 1546 1
372 1980 1
372 2151 1
372 2221 1
372 2341 1
372 2345 1
372 2884 1
372 2937 1
372 3103 1
372 3646 1
372 3673 1
372 3768 1
372 4267 1
372 4550 1
372 6115 1
372 6346 1
372 6578 1
372 6633 1
372 6678 1
372 6971 1
372 7002 1
372 8131 1
372 8688 1
372 9091 1
372 9408 1
373 154 1
373 193 1
373 219 1
373 329 1
373 534 1
373 804 1
373 2511 1
373 2770 1
373 5103 1
373 5695 1
373 8204 1
373 8978 1
373 9445 1
374 78 1
374 81 1
374 259 1
374 279 1
374 1497 1
374 5863 1
374 7233 1
374 8472 1
375 11 1
375 38 1
375 48 1
375 53 1
375 378 1
375 668 1
375 670 1
375 1565 1
375 1685 1
375 5168 1
375 6180 1
376 6 1
376 8 1
376 147 1
376 199 1
376 442 1
376 1335 1
376 2835 1
376 4629 1
377 33 1
377 53 1
377 348 1
377 356 1
377 384 1
377 579 1
377 1267 1
377 1287 1
377 1440 1
377 2163 1
377 2952 1
377 3093 1
377 3282 1
377 3855 1
377 4170 1
377 4586 1
377 6603 1
377 7911 1
377 8252 1
377 9546 1
377 9785 1
378 11 1
378 192 1
378 242 1
378 375 1
378 400 1
378 411 1
378 573 1
378 597 1
378 637 1
378 985 1
378 1012 1
378 1133 1
378 1355 1
378 1368 1
378 1442 1
378 1631 1
378 1774 1
378 2760 1
378 3518 1
378 3842 1
378 4452 1
378 5032 1
378 5702 1
378 5800 1
378 6342 1
378 6922 1
378 9198 1
378 9621 1
379 22 1
379 28 1
379 108 1
379 268 1
379 477 1
379 992 1
379 1048 1
379 1302 1
379 2395 1
379 3889 1
379 3921 1
379 5692 1
379 5710 1
379 6084 1
379 6275 1
380 97 1
380 116 1
380 133 1
380 347 1
380 436 1
380 470 1
380 539 1
380 575 1
380 674 1
380 783 1
380 868 1
380 978 1
380 1468 1
380 1761 1
380 1845 1
380 2255 1
380 2261 1
380 2281 1
380 2408 1
380 2460 1
380 2602 1
380 3029 1
380 3404 1
380 3481 1
380 3744 1
380 3967 1
380 4127 1
380 4452 1
380 4541 1
380 4546 1
380 4839 1
380 4850 1
380 5834 1
380 5855 1
380 6162 1
380 6524 1
380 6892 1
380 7406 1
380 7780 1
380 7907 1
380 7965 1
380 7981 1
380 8886 1
380 9572 1
381 29 1
381 102 1
381 105 1
381 196 1
381 1111 1
381 1837 1
381 1884 1
381 3527 1
381 4457 1
381 4587 1
381 4734 1
381 5913 1
381 6341 1
381 7040 1
381 8958 1
382 74 1
382 163 1
382 180 1
382 340 1
382 5073 1
382 6307 1
382 6799 1
382 8480 1
383 9 1
383 43 1
383 50 1
383 299 1
383 669 1
383 722 1
383 1329 1
383 1446 1
383 2358 1
383 3577 1
383 4528 1
383 5943 1
383 7272 1
383 7692 1
384 33 1
384 36 1
384 360 1
384 377 1
384 430 1
384 492 1
384 1055 1
384 4527 1
384 5990 1
384 6941 1
384 7548 1
384 8250 1
385 42 1
385 134 1
385 349 1
385 372 1
385 661 1
385 743 1
385 861 1
385 1137 1
385 2041 1
385 2581 1
385 2672 1
385 3158 1
385 3564 1
385 3960 1
385 4077 1
385 4609 1
385 5007 1
385 7847 1
385 8259 1
386 51 1
386 163 1
386 229 1
386 292 1
386 420 1
386 600 1
386 1015 1
386 1156 1
386 1429 1
386 1573 1
386 2141 1
386 2362 1
386 2743 1
386 2855 1
386 3848 1
386 4097 1
386 4397 1
386 4522 1
386 5887 1
386 7423 1
386 7850 1
386 8583 1
386 8609 1
386 9599 1
387 103 1
387 194 1
387 201 1
387 313 1
387 635 1
387 757 1
387 1555 1
387 2272 1
387 2755 1
387 5351 1
387 6015 1
387 8581 1
387 8768 1
387 8867 1
387 9551 1
387 9580 1
388 1 1
388 17 1
388 108 1
388 111 1
388 1056 1
388 1359 1
388 1748 1
388 1863 1
388 2929 1
388 3100 1
388 3141 1
388 3264 1
388 3301 1
388 3305 1
388 3322 1
388 3477 1
388 3604 1
388 5114 1
388 5344 1
388 6052 1
388 6813 1
388 7035 1
389 62 1
389 78 1
389 242 1
389 259 1
389 585 1
389 660 1
389 1130 1
389 1973 1
389 2153 1
389 4361 1
389 5457 1
389 5671 1
389 8431 1
390 17 1
390 41 1
390 47 1
390 245 1
390 1027 1
390 1072 1
390 1986 1
390 2385 1
390 4866 1
390 4936 1
390 5154 1
390 9648 1
391 185 1
391 229 1
391 341 1
391 357 1
391 441 1
391 528 1
391 649 1
391 768 1
391 834 1
391 988 1
391 1078 1
391 1139 1
391 2166 1
391 3460 1
391 5415 1
392 12 1
392 18 1
392 42 1
392 332 1
392 452 1
392 1752 1
392 5559 1
393 4 1
393 12 1
393 62 1
393 79 1
393 1710 1
393 1828 1
393 2309 1
393 2400 1
393 2736 1
393 2967 1
393 3877 1
393 4032 1
393 6208 1
393 8870 1
393 9383 1
394 155 1
394 245 1
394 297 1
394 360 1
394 403 1
394 436 1
394 459 1
394 509 1
394 550 1
394 580 1
394 679 1
394 739 1
394 1030 1
394 1206 1
394 1248 1
394 1305 1
394 1576 1
394 2357 1
394 2389 1
394 3168 1
394 3246 1
394 3400 1
394 3655 1
394 3683 1
394 4097 1
394 4118 1
394 4493 1
394 4515 1
394 4524 1
394 4607 1
394 4801 1
394 4956 1
394 5273 1
394 5447 1
394 5582 1
394 5761 1
394 5831 1
394 5941 1
394 6324 1
394 6839 1
394 7555 1
394 7860 1
394 7863 1
394 7989 1
394 8052 1
394 8069 1
394 8495 1
394 8678 1
394 8823 1
394 9155 1
394 9337 1
394 9470 1
395 49 1
395 259 1
395 274 1
395 292 1
395 853 1
395 865 1
395 1096 1
395 1332 1
395 1533 1
395 2410 1
395 2474 1
395 3849 1
395 4074 1
395 4294 1
395 4579 1
395 6304 1
395 6356 1
395 8724 1
396 2 1
396 69 1
396 85 1
396 113 1
396 448 1
396 613 1
396 711 1
396 744 1
396 1324 1
396 1380 1
396 1428 1
396 1582 1
396 2020 1
396 2142 1
396 2754 1
396 3724 1
396 3909 1
396 4065 1
396 4251 1
396 4784 1
396 4860 1
396 5099 1
396 7766 1
396 9459 1
396 9940 1
397 3 1
397 13 1
397 27 1
397 234 1
397 1260 1
397 1956 1
397 2528 1
397 3206 1
397 3953 1
397 4150 1
397 4340 1
397 5607 1
397 6693 1
397 9949 1
398 64 1
398 94 1
398 129 1
398 141 1
398 405 1
398 631 1
398 1398 1
398 2127 1
398 6996 1
399 1 1
399 5 1
399 35 1
399 261 1
399 839 1
399 1032 1
399 1204 1
399 1450 1
399 1461 1
399 1994 1
399 2492 1
399 3497 1
399 3507 1
399 6025 1
399 6663 1
399 7632 1
399 8021 1
399 9091 1
399 9311 1
400 192 1
400 250 1
400 329 1
400 378 1
400 645 1
400 660 1
400 740 1
400 1227 1
400 2884 1
400 4452 1
400 4806 1
400 6979 1
400 7194 1
400 9350 1
400 9990 1
401 2 1
401 18 1
401 342 1
401 348 1
401 428 1
401 535 1
401 2563 1
401 2916 1
401 3040 1
401 3394 1
401 3724 1
401 4446 1
401 4930 1
401 5450 1
401 5504 1
401 5871 1
401 6131 1
401 6197 1
401 7787 1
401 7809 1
401 9557 1
402 41 1
402 266 1
402 276 1
402 311 1
402 644 1
402 1019 1
402 1033 1
402 1114 1
402 1120 1
402 1696 1
402 1820 1
402 2158 1
402 2320 1
402 2474 1
402 2750 1
402 2819 1
402 2899 1
402 2978 1
402 3845 1
402 3952 1
402 5612 1
402 5619 1
402 6396 1
402 7002 1
402 7756 1
402 7994 1
402 8792 1
402 9015 1
402 9724 1
403 50 1
403 55 1
403 75 1
403 394 1
403 459 1
403 462 1
403 536 1
403 568 1
403 713 1
403 747 1
403 769 1
403 1004 1
403 1108 1
403 1228 1
403 1626 1
403 1718 1
403 1753 1
403 1849 1
403 1882 1
403 2264 1
403 2860 1
403 2929 1
403 3054 1
403 3259 1
403 3324 1
403 3432 1
403 3580 1
403 4216 1
403 4350 1
403 4637 1
403 4872 1
403 5041 1
403 5129 1
403 5461 1
403 5707 1
403 5712 1
403 6484 1
403 6606 1
403 6967 1
403 7508 1
403 8121 1
403 8167 1
403 8419 1
403 8424 1
403 9293 1
404 5 1
404 17 1
404 217 1
404 313 1
404 581 1
404 949 1
404 1496 1
404 1659 1
404 1965 1
404 2043 1
404 2285 1
404 2364 1
404 2527 1
404 2568 1
404 2722 1
404 6068 1
404 6837 1
404 6909 1
404 7507 1
405 41 1
405 169 1
405 354 1
405 398 1
405 582 1
405 623 1
405 1417 1
405 2727 1
405 4595 1
405 5842 1
405 6373 1
405 8822 1
405 8943 1
406 2 1
406 18 1
406 74 1
406 85 1
406 429 1
406 687 1
406 3527 1
406 3963 1
406 4106 1
406 4217 1
406 4972 1
406 5458 1
406 6590 1
406 6790 1
406 8508 1
406 8826 1
407 42 1
407 129 1
407 162 1
407 217 1
407 1238 1
407 1903 1
407 3084 1
407 3788 1
407 4858 1
407 5992 1
407 6600 1
407 6968 1
407 7909 1
407 8171 1
408 13 1
408 25 1
408 362 1
408 366 1
408 543 1
408 1214 1
408 1704 1
408 3583 1
408 4262 1
408 6620 1
408 8645 1
409 8 1
409 113 1
409 297 1
409 318 1
409 606 1
409 672 1
409 908 1
409 1891 1
409 3025 1
409 4739 1
409 6169 1
409 6177 1
409 7175 1
409 7320 1
409 9907 1
410 28 1
410 69 1
410 155 1
410 300 1
410 542 1
410 714 1
410 1204 1
410 1557 1
410 1934 1
410 2098 1
410 2377 1
410 2870 1
410 3738 1
410 4326 1
410 4894 1
410 5285 1
410 5291 1
410 5664 1
410 5769 1
410 5898 1
410 7051 1
410 7073 1
410 7359 1
410 7651 1
410 7996 1
410 8417 1
410 8655 1
410 8869 1
410 9137 1
410 9542 1
411 4 1
411 5 1
411 242 1
411 378 1
411 676 1
411 827 1
411 950 1
411 1119 1
411 1309 1
411 1723 1
411 2607 1
411 2866 1
411 2879 1
411 3090 1
411 3701 1
411 3792 1
411 3944 1
411 4374 1
411 4831 1
411 4871 1
411 6046 1
411 7020 1
411 7177 1
411 8009 1
411 8736 1
411 8883 1
411 9334 1
411 9371 1
412 28 1
412 89 1
412 116 1
412 155 1
412 449 1
412 1341 1
412 1407 1
412 1648 1
412 2252 1
412 3386 1
412 4128 1
412 4190 1
412 4562 1
412 6262 1
412 9734 1
413 1 1
413 34 1
413 49 1
413 105 1
413 508 1
413 513 1
413 1027 1
413 1629 1
413 2191 1
413 2363 1
413 2433 1
413 2461 1
413 3087 1
413 3195 1
413 3428 1
413 3772 1
413 4369 1
413 5290 1
413 6574 1
413 6973 1
413 7658 1
413 7773 1
413 7789 1
413 8311 1
414 25 1
414 36 1
414 308 1
414 327 1
414 563 1
414 1451 1
414 1771 1
414 1887 1
414 1894 1
414 3135 1
414 3323 1
414 4184 1
414 4468 1
414 4732 1
414 5767 1
414 6832 1
414 7018 1
415 81 1
415 82 1
415 253 1
415 328 1
415 673 1
415 781 1
415 970 1
415 1192 1
415 1605 1
415 1644 1
415 2361 1
415 2591 1
415 2678 1
415 3962 1
415 7476 1
415 9622 1
415 9948 1
416 18 1
416 34 1
416 89 1
416 308 1
416 5851 1
416 7997 1
417 10 1
417 30 1
417 256 1
417 263 1
417 478 1
417 510 1
417 1405 1
417 1513 1
417 1582 1
417 1629 1
417 1641 1
417 1781 1
417 2039 1
417 2229 1
417 2686 1
417 3001 1
417 3286 1
417 4066 1
417 4104 1
417 5907 1
417 6272 1
417 6455 1
417 6618 1
417 6665 1
417 6739 1
417 6862 1
417 7650 1
417 7829 1
417 8376 1
417 8570 1
417 8627 1
417 8678 1
417 9081 1
417 9622 1
418 18 1
418 40 1
418 102 1
418 214 1
418 875 1
418 885 1
418 936 1
418 953 1
418 1937 1
418 2313 1
418 2926 1
418 3266 1
418 3598 1
418 4061 1
418 4161 1
418 4878 1
418 4982 1
418 5626 1
418 5751 1
418 5894 1
418 6130 1
418 6406 1
418 6458 1
418 7802 1
418 8233 1
418 8963 1
418 9202 1
419 9 1
419 25 1
419 243 1
419 324 1
419 536 1
419 612 1
419 1740 1
419 1984 1
419 3335 1
419 3396 1
419 4375 1
419 4862 1
419 5494 1
419 5901 1
419 6100 1
419 6475 1
419 6874 1
419 6937 1
419 7482 1
419 7786 1
419 7940 1
419 8564 1
419 8942 1
419 9092 1
420 163 1
420 238 1
420 326 1
420 386 1
420 587 1
420 3077 1
420 3791 1
420 5887 1
420 6416 1
420 9658 1
421 27 1
421 64 1
421 66 1
421 161 1
421 596 1
421 666 1
421 741 1
421 849 1
421 856 1
421 890 1
421 1124 1
421 1337 1
421 2195 1
421 2644 1
421 2730 1
421 2880 1
421 3764 1
421 3946 1
421 3974 1
421 4795 1
421 5104 1
421 5257 1
421 5354 1
421 5993 1
421 6445 1
421 7278 1
421 8357 1
421 8972 1
421 9912 1
422 2 1
422 3 1
422 43 1
422 211 1
422 847 1
422 1083 1
422 1157 1
422 1371 1
422 1747 1
422 2517 1
422 4095 1
422 4994 1
422 5059 1
422 5587 1
422 6442 1
422 7304 1
422 8131 1
423 131 1
423 162 1
423 267 1
423 346 1
423 2226 1
423 2799 1
423 4389 1
424 5 1
424 6 1
424 14 1
424 19 1
424 460 1
424 832 1
424 2510 1
424 3669 1
424 4481 1
424 7077 1
424 7731 1
424 7762 1
424 9439 1
425 18 1
425 128 1
425 163 1
425 330 1
425 1476 1
425 2268 1
425 2548 1
425 2839 1
425 4110 1
425 4230 1
425 4717 1
425 4735 1
425 4884 1
425 5276 1
425 5296 1
425 5990 1
425 7536 1
425 8404 1
425 8552 1
425 9803 1
425 9823 1
426 1 1
426 41 1
426 42 1
426 145 1
426 754 1
426 924 1
426 1668 1
426 2664 1
426 2693 1
426 3971 1
426 4311 1
426 4572 1
426 4818 1
426 4944 1
426 5034 1
426 5476 1
426 5673 1
426 5761 1
426 6953 1
426 7232 1
426 8088 1
426 8282 1
426 8553 1
426 8586 1
426 8615 1
426 9073 1
427 2 1
427 10 1
427 18 1
427 19 1
427 650 1
427 742 1
427 1012 1
427 1089 1
427 1202 1
427 1250 1
427 1350 1
427 1511 1
427 1727 1
427 1955 1
427 2154 1
427 2230 1
427 2275 1
427 2399 1
427 2432 1
427 2466 1
427 2559 1
427 2703 1
427 3028 1
427 3185 1
427 3359 1
427 3640 1
427 3843 1
427 4521 1
427 4910 1
427 5049 1
427 5349 1
427 5358 1
427 5359 1
427 5387 1
427 5704 1
427 6282 1
427 6603 1
427 7108 1
427 8004 1
427 8378 1
427 9603 1
428 50 1
428 303 1
428 348 1
428 401 1
428 637 1
428 1155 1
428 1170 1
428 1287 1
428 1701 1
428 2347 1
428 2519 1
428 2692 1
428 2729 1
428 2787 1
428 2999 1
428 3523 1
428 3817 1
428 4148 1
428 4203 1
428 4827 1
428 5394 1
428 6186 1
428 8735 1
428 9417 1
428 9821 1
429 2 1
429 116 1
429 269 1
429 406 1
429 687 1
429 1466 1
429 1705 1
429 2390 1
429 2444 1
429 2712 1
429 3101 1
429 4287 1
429 4489 1
429 5149 1
429 7592 1
429 9496 1
430 36 1
430 57 1
430 327 1
430 384 1
430 589 1
430 867 1
430 4148 1
430 5139 1
431 4 1
431 21 1
431 95 1
431 310 1
431 838 1
431 915 1
431 1050 1
431 1061 1
431 1183 1
431 1950 1
431 2286 1
431 2534 1
431 2719 1
431 5241 1
431 5865 1
432 34 1
432 102 1
432 158 1
432 180 1
432 495 1
432 655 1
432 1057 1
432 6769 1
433 8 1
433 11 1
433 28 1
433 58 1
433 532 1
433 818 1
433 969 1
433 1392 1
433 1997 1
433 2205 1
433 2606 1
433 3152 1
433 3247 1
433 5153 1
433 6569 1
433 7000 1
433 7223 1
433 7514 1
433 9474 1
433 9947 1
434 1 1
434 59 1
434 105 1
434 143 1
434 554 1
434 665 1
434 1318 1
434 1346 1
434 1394 1
434 1593 1
434 1830 1
434 2847 1
434 3214 1
434 3402 1
434 4030 1
434 4273 1
434 4336 1
434 4486 1
434 5602 1
434 6410 1
434 6434 1
434 7020 1
434 7242 1
434 7371 1
434 8014 1
434 9301 1
434 9480 1
435 19 1
435 31 1
435 288 1
435 307 1
435 1034 1
435 1198 1
435 2433 1
435 4302 1
435 4329 1
435 6338 1
435 6707 1
435 7209 1
435 7730 1
435 8194 1
435 8654 1
435 8699 1
435 8921 1
435 9149 1
436 1 1
436 50 1
436 380 1
436 394 1
436 474 1
436 1436 1
436 1958 1
436 2389 1
436 3257 1
436 3536 1
436 3658 1
436 3804 1
436 4364 1
436 4662 1
436 6290 1
436 6658 1
436 8193 1
436 8410 1
436 9910 1
437 2 1
437 12 1
437 180 1
437 277 1
437 924 1
437 2044 1
437 2361 1
437 2658 1
437 4699 1
437 4826 1
437 5407 1
437 6973 1
437 7588 1
438 10 1
438 206 1
438 267 1
438 316 1
438 506 1
438 881 1
438 1004 1
438 1397 1
438 2315 1
438 2433 1
438 3942 1
438 5470 1
438 9077 1
439 3 1
439 23 1
439 175 1
439 185 1
439 626 1
439 2778 1
439 3759 1
439 4239 1
439 6964 1
439 8118 1
440 26 1
440 35 1
440 129 1
440 202 1
440 631 1
441 137 1
441 212 1
441 358 1
441 391 1
441 721 1
441 860 1
441 979 1
441 1300 1
441 1782 1
441 3438 1
441 3453 1
441 3760 1
441 6878 1
441 9084 1
442 9 1
442 147 1
442 315 1
442 376 1
442 539 1
442 683 1
442 1317 1
442 1464 1
442 1752 1
442 1856 1
442 2157 1
442 2441 1
442 2462 1
442 2970 1
442 3191 1
442 3363 1
442 3555 1
442 3621 1
442 3797 1
442 4027 1
442 4100 1
442 4629 1
442 4883 1
442 5461 1
442 5778 1
442 5881 1
442 6049 1
442 6060 1
442 6101 1
442 6477 1
442 7130 1
442 7452 1
442 7650 1
442 7770 1
442 8195 1
442 9269 1
442 9536 1
442 9623 1
442 9701 1
442 9827 1
442 9902 1
443 90 1
443 141 1
443 171 1
443 245 1
443 599 1
443 677 1
443 746 1
443 972 1
443 992 1
443 1020 1
443 1643 1
443 1803 1
443 1912 1
443 1979 1
443 2031 1
443 2099 1
443 2660 1
443 2696 1
443 2835 1
443 2868 1
443 2963 1
443 3792 1
443 3944 1
443 4965 1
443 6251 1
443 7484 1
443 8426 1
443 8457 1
443 8723 1
444 39 1
444 75 1
444 179 1
444 189 1
444 476 1
444 594 1
444 605 1
444 702 1
444 1154 1
444 1686 1
444 2842 1
444 3146 1
444 4031 1
444 6538 1
444 8770 1
444 9257 1
445 9 1
445 124 1
445 289 1
445 353 1
445 1031 1
445 2906 1
445 3465 1
445 3686 1
445 4108 1
445 4122 1
445 4358 1
445 4535 1
445 5005 1
445 5192 1
445 5418 1
445 6312 1
445 6706 1
445 7188 1
445 7503 1
445 8096 1
445 8381 1
445 8461 1
445 9236 1
446 1 1
446 27 1
446 216 1
446 229 1
446 928 1
446 1074 1
446 2406 1
446 3080 1
446 6374 1
446 9737 1
447 43 1
447 50 1
447 120 1
447 219 1
447 928 1
447 1203 1
447 1255 1
447 3795 1
447 5372 1
447 9042 1
447 9554 1
448 1 1
448 44 1
448 85 1
448 396 1
448 552 1
448 623 1
448 1546 1
448 2623 1
448 3768 1
448 4790 1
448 9178 1
449 28 1
449 113 1
449 148 1
449 412 1
449 790 1
449 1152 1
449 1451 1
449 2129 1
449 2177 1
449 3499 1
449 4562 1
449 4891 1
449 5169 1
449 6744 1
449 7798 1
449 9962 1
450 7 1
450 48 1
450 78 1
450 329 1
450 533 1
450 1344 1
450 1824 1
450 2831 1
450 6167 1
450 6778 1
451 2 1
451 7 1
451 251 1
451 332 1
451 487 1
451 676 1
451 705 1
451 711 1
451 841 1
451 1091 1
451 1542 1
451 1609 1
451 1861 1
451 2164 1
451 2334 1
451 2476 1
451 2703 1
451 2980 1
451 3718 1
451 4493 1
451 4601 1
451 4670 1
451 5102 1
451 5203 1
451 5369 1
451 5413 1
451 5472 1
451 5857 1
451 6071 1
451 6187 1
451 6208 1
451 7199 1
451 7681 1
451 8111 1
451 8213 1
451 8337 1
451 9262 1
451 9544 1
451 9819 1
451 9850 1
452 1 1
452 40 1
452 369 1
452 392 1
452 595 1
452 754 1
452 1002 1
452 1264 1
452 1608 1
452 1807 1
452 1900 1
452 2969 1
452 3026 1
452 3866 1
452 4172 1
452 5896 1
452 6490 1
452 6538 1
452 7869 1
452 9069 1
453 1 1
453 5 1
453 17 1
453 91 1
453 1142 1
453 1324 1
453 2007 1
453 2679 1
453 2706 1
453 5651 1
453 6224 1
453 7466 1
453 7797 1
454 14 1
454 216 1
454 237 1
454 265 1
454 469 1
454 499 1
454 704 1
454 722 1
454 816 1
454 825 1
454 1011 1
454 1366 1
454 1493 1
454 1735 1
454 1840 1
454 1920 1
454 2244 1
454 2396 1
454 5856 1
454 5950 1
454 6168 1
454 6233 1
454 7051 1
454 9998 1
455 17 1
455 33 1
455 43 1
455 74 1
455 692 1
455 1899 1
455 2500 1
455 3409 1
456 2 1
456 14 1
456 40 1
456 102 1
456 870 1
456 1171 1
457 2 1
457 9 1
457 54 1
457 78 1
457 538 1
457 728 1
457 1706 1
457 2002 1
457 2204 1
457 2636 1
457 2868 1
457 3564 1
457 4381 1
457 6416 1
457 6894 1
457 7667 1
457 8940 1
457 9852 1
458 4 1
458 67 1
458 69 1
458 97 1
458 1868 1
458 2458 1
458 4751 1
458 8170 1
459 18 1
459 55 1
459 394 1
459 403 1
459 462 1
459 514 1
459 883 1
459 1028 1
459 1122 1
459 1305 1
459 1358 1
459 1434 1
459 1450 1
459 1548 1
459 1756 1
459 1818 1
459 1994 1
459 2012 1
459 2248 1
459 2987 1
459 3013 1
459 3073 1
459 3233 1
459 3610 1
459 3643 1
459 4066 1
459 4183 1
459 4764 1
459 4989 1
459 5108 1
459 5241 1
459 5295 1
459 5465 1
459 5530 1
459 6193 1
459 6484 1
459 6816 1
459 7144 1
459 7259 1
459 7486 1
459 7644 1
459 7750 1
459 7885 1
459 8039 1
459 8066 1
459 8424 1
459 8482 1
459 8497 1
459 8619 1
459 9816 1
459 9825 1
460 4 1
460 6 1
460 98 1
460 424 1
460 1057 1
460 1296 1
460 1751 1
460 2821 1
460 4425 1
460 4680 1
461 33 1
461 284 1
461 296 1
461 308 1
461 475 1
461 943 1
461 2777 1
461 3013 1
461 6939 1
461 8043 1
461 8551 1
461 8970 1
461 9471 1
461 9493 1
462 113 1
462 297 1
462 403 1
462 459 1
462 518 1
462 666 1
462 701 1
462 827 1
462 916 1
462 973 1
462 1148 1
462 1305 1
462 1360 1
462 1573 1
462 1626 1
462 1718 1
462 2026 1
462 2088 1
462 2296 1
462 2666 1
462 3463 1
462 3656 1
462 4043 1
462 4177 1
462 4209 1
462 4361 1
462 6295 1
462 6468 1
462 6789 1
462 7007 1
462 7863 1
462 9025 1
462 9546 1
462 9588 1
463 11 1
463 92 1
463 162 1
463 290 1
463 502 1
463 639 1
463 761 1
463 2959 1
463 7034 1
463 7169 1
463 8332 1
464 85 1
464 179 1
464 242 1
464 319 1
464 1093 1
464 1556 1
464 1759 1
464 1973 1
464 2676 1
464 3295 1
464 4189 1
464 4476 1
464 4893 1
464 4966 1
464 4969 1
464 5668 1
464 5793 1
464 6572 1
464 8536 1
464 9407 1
465 18 1
465 91 1
465 138 1
465 369 1
465 549 1
465 620 1
465 656 1
465 675 1
465 696 1
465 771 1
465 877 1
465 918 1
465 934 1
465 1003 1
465 1025 1
465 1201 1
465 1212 1
465 1284 1
465 1340 1
465 1348 1
465 1381 1
465 1386 1
465 1391 1
465 1448 1
465 1636 1
465 1905 1
465 1927 1
465 2090 1
465 2425 1
465 3439 1
465 3459 1
465 3530 1
465 3576 1
465 3730 1
465 3752 1
465 3766 1
465 3794 1
465 4190 1
465 4441 1
465 4978 1
465 5093 1
465 5265 1
465 5550 1
465 5661 1
465 5744 1
465 5983 1
465 6123 1
465 6638 1
465 6734 1
465 6750 1
465 7072 1
465 7673 1
465 7987 1
465 8055 1
465 8569 1
465 8774 1
465 8793 1
465 9050 1
465 9362 1
465 9786 1
466 25 1
466 28 1
466 29 1
466 46 1
466 2177 1
466 2371 1
466 4269 1
466 6256 1
466 7362 1
466 8223 1
467 2 1
467 4 1
467 81 1
467 215 1
467 701 1
467 707 1
467 717 1
467 720 1
467 880 1
467 957 1
467 1897 1
467 2290 1
467 2415 1
467 3347 1
467 3354 1
467 3859 1
467 3875 1
467 4191 1
467 4996 1
467 5237 1
467 5336 1
467 6760 1
467 7145 1
467 7509 1
467 7732 1
467 7983 1
467 7994 1
467 8340 1
467 8995 1
467 9291 1
467 9292 1
468 38 1
468 54 1
468 90 1
468 294 1
468 730 1
468 1409 1
468 1586 1
468 2046 1
468 2307 1
468 2424 1
468 3188 1
468 4296 1
468 5313 1
468 5573 1
468 7866 1
468 8038 1
468 8787 1
468 8913 1
468 9684 1
468 9770 1
468 9784 1
469 27 1
469 145 1
469 237 1
469 454 1
469 572 1
469 665 1
469 825 1
469 1151 1
469 1258 1
469 1755 1
469 1804 1
469 2025 1
469 2085 1
469 2388 1
469 2587 1
469 2747 1
469 2848 1
469 3294 1
469 5719 1
469 5725 1
469 7392 1
469 7446 1
469 7557 1
469 8192 1
469 8405 1
469 8482 1
469 8744 1
469 9304 1
469 9894 1
470 97 1
470 116 1
470 324 1
470 380 1
470 3914 1
470 4740 1
471 1 1
471 74 1
471 129 1
471 213 1
471 1081 1
471 1338 1
471 2211 1
471 2696 1
471 2996 1
471 4280 1
471 4602 1
471 6813 1
471 7251 1
471 7262 1
471 7348 1
471 8158 1
471 9514 1
471 9905 1
472 74 1
472 170 1
472 199 1
472 302 1
472 540 1
472 1483 1
472 1993 1
472 2256 1
472 3695 1
472 6852 1
473 5 1
473 12 1
473 194 1
473 214 1
473 488 1
473 515 1
473 558 1
473 777 1
473 791 1
473 801 1
473 1107 1
473 1462 1
473 1811 1
473 2026 1
473 2170 1
473 2797 1
473 3411 1
473 3487 1
473 3603 1
473 3656 1
473 3703 1
473 4447 1
473 4683 1
473 4721 1
473 4848 1
473 5014 1
473 5093 1
473 5245 1
473 5595 1
473 5852 1
473 5900 1
473 6027 1
473 6364 1
473 6485 1
473 6930 1
473 6988 1
473 7328 1
473 7768 1
473 8043 1
473 8097 1
473 8466 1
473 9085 1
473 9611 1
473 9685 1
473 9812 1
474 21 1
474 123 1
474 186 1
474 436 1
474 692 1
474 727 1
474 945 1
474 1191 1
474 1328 1
474 1436 1
474 1958 1
474 2380 1
474 2397 1
474 3133 1
474 3290 1
474 3452 1
474 4221 1
474 5261 1
474 5386 1
474 5464 1
474 5878 1
474 6699 1
474 7290 1
474 7440 1
474 8846 1
474 9694 1
474 9919 1
474 9953 1
475 33 1
475 149 1
475 188 1
475 461 1
475 839 1
475 2576 1
475 5484 1
475 5809 1
475 8043 1
475 9120 1
476 162 1
476 290 1
476 301 1
476 444 1
476 926 1
476 1049 1
476 2842 1
476 5462 1
477 10 1
477 20 1
477 217 1
477 379 1
477 1097 1
477 2395 1
477 5327 1
477 8454 1
477 9468 1
478 2 1
478 10 1
478 19 1
478 417 1
478 553 1
478 578 1
478 930 1
478 1185 1
478 1512 1
478 1643 1
478 1834 1
478 2038 1
478 2039 1
478 2804 1
478 3428 1
478 3747 1
478 3984 1
478 6104 1
478 7220 1
478 7658 1
478 7660 1
478 7695 1
478 8869 1
478 8893 1
478 9762 1
479 11 1
479 25 1
479 227 1
479 238 1
479 496 1
479 1884 1
479 2178 1
479 2669 1
479 2866 1
479 3134 1
479 3561 1
479 4898 1
479 5414 1
479 7209 1
480 1 1
480 184 1
480 191 1
480 227 1
480 496 1
480 1128 1
480 1174 1
480 1400 1
480 1833 1
480 2838 1
480 4161 1
480 4380 1
480 5692 1
480 6020 1
480 8334 1
480 9633 1
481 3 1
481 11 1
481 34 1
481 369 1
481 748 1
481 797 1
481 979 1
481 1466 1
481 1767 1
481 2089 1
481 2465 1
481 2785 1
481 3073 1
481 3665 1
481 3728 1
481 4111 1
481 4176 1
481 4293 1
481 4495 1
481 4649 1
481 5225 1
481 5281 1
481 5994 1
481 6193 1
481 6614 1
481 6826 1
481 7122 1
481 7187 1
481 7241 1
481 7421 1
481 7674 1
481 8485 1
481 8629 1
481 8847 1
481 9775 1
482 4 1
482 81 1
482 221 1
482 358 1
482 1273 1
482 1969 1
482 3066 1
482 4968 1
482 9545 1
483 18 1
483 49 1
483 134 1
483 169 1
483 513 1
483 697 1
483 769 1
483 887 1
483 961 1
483 1131 1
483 1722 1
483 1778 1
483 2323 1
483 3192 1
483 3204 1
483 3767 1
483 4014 1
483 4064 1
483 4116 1
483 4420 1
483 4609 1
483 4835 1
483 5118 1
483 5252 1
483 6624 1
483 7151 1
483 7591 1
483 8018 1
483 9481 1
483 9961 1
484 18 1
484 25 1
484 131 1
484 345 1
484 811 1
484 995 1
484 1577 1
484 1919 1
484 3145 1
484 3496 1
484 5155 1
484 5452 1
484 5485 1
484 5838 1
484 5887 1
484 7604 1
484 8208 1
484 8820 1
485 4 1
485 18 1
485 300 1
485 372 1
485 865 1
485 1470 1
485 2244 1
485 2617 1
485 2826 1
485 3296 1
485 3742 1
485 5157 1
485 5482 1
485 8106 1
485 8700 1
485 9184 1
485 9823 1
486 2 1
486 6 1
486 13 1
486 349 1
486 508 1
486 973 1
486 1706 1
486 2008 1
486 2125 1
486 2143 1
486 2372 1
486 2504 1
486 2931 1
486 4033 1
486 4698 1
486 8048 1
487 7 1
487 97 1
487 196 1
487 451 1
487 623 1
487 841 1
487 998 1
487 1005 1
487 1396 1
487 1609 1
487 3604 1
487 3743 1
487 4234 1
487 4604 1
487 5102 1
487 5756 1
487 6417 1
487 6498 1
487 6824 1
487 7094 1
488 3 1
488 28 1
488 288 1
488 473 1
488 557 1
488 582 1
488 1150 1
488 2506 1
488 4111 1
488 4364 1
488 4565 1
488 5807 1
488 7501 1
489 12 1
489 50 1
489 94 1
489 102 1
489 1237 1
489 1356 1
489 2116 1
489 2697 1
489 3131 1
489 3240 1
489 3728 1
489 3920 1
489 4037 1
489 5794 1
489 5823 1
489 6076 1
489 6263 1
489 7870 1
489 8348 1
490 20 1
490 32 1
490 33 1
490 211 1
490 668 1
490 810 1
490 1630 1
490 1709 1
490 1838 1
490 2326 1
490 2612 1
490 2794 1
490 5519 1
490 5528 1
490 5657 1
490 5752 1
490 9362 1
491 9 1
491 38 1
491 91 1
491 244 1
491 546 1
491 897 1
491 1000 1
491 1080 1
491 1295 1
491 2295 1
491 2757 1
491 2844 1
491 6962 1
491 6965 1
491 8942 1
491 9991 1
492 11 1
492 30 1
492 206 1
492 384 1
492 1095 1
492 1141 1
492 6073 1
492 6164 1
492 6781 1
492 6821 1
492 7417 1
492 8356 1
493 2 1
493 19 1
493 224 1
493 359 1
493 863 1
493 1100 1
493 1112 1
493 1423 1
493 1583 1
493 5172 1
493 5211 1
493 9600 1
494 2 1
494 18 1
494 41 1
494 134 1
494 2541 1
494 2997 1
494 3613 1
494 6598 1
494 7036 1
494 7729 1
494 9400 1
495 50 1
495 158 1
495 180 1
495 432 1
495 698 1
495 1188 1
495 1508 1
495 1601 1
495 2004 1
495 2454 1
495 2562 1
495 2786 1
495 2975 1
495 3671 1
495 6502 1
495 7993 1
495 9595 1
496 227 1
496 291 1
496 479 1
496 480 1
496 1853 1
496 2859 1
496 3217 1
496 5682 1
497 11 1
497 163 1
497 229 1
497 338 1
497 751 1
497 799 1
497 835 1
497 1383 1
497 1411 1
497 1708 1
497 2437 1
497 3482 1
497 4288 1
497 5264 1
497 5951 1
497 8431 1
497 8462 1
497 8644 1
497 9300 1
497 9370 1
497 9966 1
498 9 1
498 10 1
498 179 1
498 250 1
498 512 1
498 571 1
498 921 1
498 1298 1
498 1359 1
498 1380 1
498 1462 1
498 1611 1
498 2843 1
498 3113 1
498 3286 1
498 3352 1
498 3961 1
498 4022 1
498 4356 1
498 4547 1
498 4652 1
498 6010 1
498 6265 1
498 6848 1
498 8297 1
498 8667 1
498 8760 1
498 8772 1
498 9610 1
499 49 1
499 103 1
499 175 1
499 454 1
499 770 1
499 1673 1
499 2277 1
499 2358 1
499 2499 1
499 2511 1
499 2710 1
499 3185 1
499 3255 1
499 3413 1
499 3792 1
499 4107 1
499 4927 1
499 5617 1
499 5770 1
499 6148 1
499 6233 1
499 6253 1
499 7128 1
499 8448 1
499 9006 1
500 73 1
500 174 1
500 178 1
500 340 1
500 524 1
500 640 1
500 746 1
500 1097 1
500 2383 1
500 7851 1
500 8953 1
501 50 1
501 209 1
501 223 1
501 337 1
501 1651 1
501 2239 1
501 3048 1
501 5365 1
501 8269 1
501 8773 1
501 8890 1
502 281 1
502 337 1
502 364 1
502 463 1
502 988 1
502 1450 1
502 1639 1
502 1756 1
502 3048 1
502 3427 1
502 3755 1
502 4690 1
502 6195 1
502 6765 1
502 7163 1
502 8217 1
502 9982 1
503 34 1
503 129 1
503 194 1
503 238 1
503 1352 1
503 1735 1
503 6010 1
504 11 1
504 39 1
504 50 1
504 104 1
504 1311 1
504 2063 1
504 2874 1
504 5792 1
505 27 1
505 33 1
505 66 1
505 340 1
505 680 1
505 817 1
505 1071 1
505 1199 1
505 2156 1
505 2758 1
505 2840 1
505 2924 1
505 3194 1
505 4019 1
505 4628 1
505 4781 1
505 4816 1
505 4916 1
505 5109 1
505 5315 1
505 5680 1
505 5713 1
505 6030 1
505 6070 1
505 6315 1
505 6561 1
505 7205 1
505 7623 1
505 7737 1
505 8504 1
505 8929 1
505 9384 1
506 9 1
506 233 1
506 267 1
506 438 1
506 976 1
506 1002 1
506 1004 1
506 1865 1
506 2295 1
506 3052 1
506 4676 1
506 7038 1
507 9 1
507 49 1
507 265 1
507 353 1
507 574 1
507 1156 1
507 1812 1
507 2231 1
507 2445 1
507 3357 1
507 5720 1
507 6730 1
507 7152 1
507 7653 1
507 7810 1
507 8231 1
507 8980 1
508 41 1
508 349 1
508 413 1
508 486 1
508 1506 1
508 1937 1
508 4514 1
508 9397 1
508 9648 1
509 2 1
509 43 1
509 235 1
509 394 1
509 557 1
509 717 1
509 718 1
509 902 1
509 957 1
509 1206 1
509 1243 1
509 2165 1
509 2822 1
509 3455 1
509 3618 1
509 3798 1
509 3998 1
509 4880 1
509 4987 1
509 5582 1
509 5594 1
509 5785 1
509 6579 1
509 6704 1
509 6784 1
509 7008 1
509 7039 1
509 7475 1
509 7989 1
510 10 1
510 162 1
510 166 1
510 417 1
510 547 1
510 624 1
510 691 1
510 739 1
510 973 1
510 1582 1
510 1765 1
510 1802 1
510 2284 1
510 3296 1
510 5320 1
510 5805 1
510 5844 1
510 6023 1
510 6142 1
510 6272 1
510 8139 1
510 8248 1
510 8509 1
510 8619 1
510 8966 1
510 9379 1
511 42 1
511 81 1
511 91 1
511 141 1
511 1498 1
511 2652 1
511 3018 1
511 9637 1
512 17 1
512 179 1
512 267 1
512 498 1
512 1298 1
512 1976 1
512 2875 1
512 6047 1
513 3 1
513 49 1
513 413 1
513 483 1
513 591 1
513 1383 1
513 1714 1
513 1908 1
513 2276 1
513 2320 1
513 4261 1
513 4613 1
513 5573 1
513 5780 1
513 6394 1
513 6906 1
513 7815 1
513 8827 1
513 8862 1
513 9481 1
514 17 1
514 18 1
514 84 1
514 459 1
514 653 1
514 2101 1
514 2603 1
514 2798 1
514 3223 1
514 3233 1
514 3261 1
514 4534 1
514 4656 1
514 4989 1
514 5272 1
514 5393 1
514 5465 1
514 7238 1
514 9205 1
515 25 1
515 209 1
515 258 1
515 473 1
515 558 1
515 725 1
515 801 1
515 903 1
515 951 1
515 1186 1
515 1462 1
515 1811 1
515 3147 1
515 3793 1
515 4193 1
515 4198 1
515 4376 1
515 4707 1
515 5976 1
515 5992 1
515 6457 1
515 6584 1
515 6948 1
515 8041 1
515 9317 1
516 1 1
516 208 1
516 234 1
516 323 1
516 529 1
516 533 1
516 821 1
516 901 1
516 1559 1
516 1840 1
516 2350 1
516 3584 1
516 3674 1
516 6508 1
516 6961 1
516 8858 1
517 17 1
517 132 1
517 157 1
517 289 1
517 4157 1
517 6447 1
517 6901 1
517 8283 1
517 8392 1
517 9043 1
517 9668 1
517 9925 1
518 9 1
518 31 1
518 257 1
518 462 1
518 969 1
519 18 1
519 21 1
519 79 1
519 249 1
519 1583 1
519 2124 1
519 2246 1
519 2557 1
519 4658 1
519 4925 1
519 6604 1
519 7052 1
519 8767 1
520 112 1
520 141 1
520 197 1
520 304 1
520 2110 1
520 2487 1
521 5 1
521 17 1
521 25 1
521 268 1
521 654 1
521 669 1
521 917 1
521 1537 1
521 1865 1
521 2632 1
521 2663 1
521 2894 1
521 2907 1
521 2940 1
521 2957 1
521 4045 1
521 4282 1
521 4287 1
521 7214 1
521 9013 1
521 9570 1
521 9838 1
522 11 1
522 17 1
522 58 1
522 60 1
522 564 1
522 822 1
522 963 1
522 993 1
522 1578 1
522 1733 1
522 2047 1
522 2118 1
522 2310 1
522 2566 1
522 3262 1
522 4426 1
522 4656 1
522 4862 1
522 5064 1
522 5081 1
522 5652 1
522 5765 1
522 6207 1
522 6267 1
522 6387 1
522 6587 1
522 7290 1
522 7661 1
522 8059 1
522 8732 1
522 9197 1
522 9972 1
522 9996 1
523 5 1
523 12 1
523 83 1
523 84 1
523 738 1
523 1045 1
523 1320 1
523 1658 1
523 1810 1
523 2115 1
523 2455 1
523 2740 1
523 3335 1
523 3833 1
523 3912 1
523 4121 1
523 4372 1
523 4598 1
523 5077 1
523 5508 1
523 7145 1
523 7697 1
523 9537 1
523 9742 1
524 329 1
524 340 1
524 354 1
524 500 1
524 989 1
524 1083 1
524 1097 1
524 1460 1
524 2051 1
524 2559 1
524 2983 1
524 3310 1
524 3849 1
524 5094 1
524 5775 1
524 6306 1
524 6944 1
524 8953 1
524 9522 1
525 25 1
525 82 1
525 107 1
525 356 1
525 681 1
525 1402 1
525 4221 1
525 4505 1
525 5402 1
525 7006 1
525 7480 1
525 7523 1
525 8080 1
526 1 1
526 16 1
526 45 1
526 234 1
526 944 1
526 992 1
526 2185 1
526 3092 1
526 3562 1
526 4214 1
526 4325 1
526 4345 1
526 5779 1
526 5910 1
526 7038 1
527 54 1
527 55 1
527 76 1
527 158 1
527 1094 1
527 1848 1
527 7109 1
527 9584 1
528 13 1
528 40 1
528 131 1
528 391 1
529 4 1
529 75 1
529 323 1
529 516 1
529 646 1
529 1472 1
529 1840 1
529 3643 1
529 4395 1
530 26 1
530 193 1
530 196 1
530 235 1
530 591 1
530 1168 1
530 1236 1
530 2035 1
530 3136 1
530 3986 1
530 4014 1
530 4538 1
530 5790 1
530 6176 1
530 6302 1
530 6880 1
530 7947 1
530 9291 1
530 9814 1
531 85 1
531 107 1
531 113 1
531 299 1
531 708 1
531 923 1
531 931 1
531 974 1
531 1175 1
531 1540 1
531 1999 1
531 2928 1
531 3456 1
531 4536 1
531 5615 1
531 6025 1
531 8646 1
531 8726 1
531 9742 1
532 11 1
532 81 1
532 188 1
532 433 1
532 639 1
532 896 1
532 951 1
532 981 1
532 1265 1
532 1666 1
532 1702 1
532 1708 1
532 2243 1
532 2366 1
532 2417 1
532 2665 1
532 2898 1
532 3098 1
532 3894 1
532 4714 1
532 5147 1
532 5222 1
532 5353 1
532 5467 1
532 6238 1
532 7000 1
532 7574 1
532 7634 1
532 8088 1
532 9108 1
533 58 1
533 311 1
533 450 1
533 516 1
533 702 1
533 1559 1
533 2831 1
533 4086 1
533 4231 1
533 9017 1
534 81 1
534 154 1
534 218 1
534 373 1
534 1416 1
534 2546 1
534 2694 1
534 3544 1
534 3721 1
534 4913 1
534 6031 1
534 7335 1
534 8812 1
534 8832 1
535 73 1
535 116 1
535 317 1
535 401 1
535 2429 1
535 3040 1
535 7864 1
535 8435 1
535 8789 1
535 8988 1
536 25 1
536 75 1
536 403 1
536 419 1
536 3518 1
536 5494 1
536 7793 1
537 4 1
537 34 1
537 267 1
537 340 1
537 2197 1
537 2585 1
537 2619 1
537 3326 1
537 4485 1
537 6889 1
537 8369 1
537 8608 1
538 1 1
538 8 1
538 9 1
538 457 1
538 540 1
538 879 1
538 1334 1
538 1732 1
538 2200 1
538 4743 1
538 5163 1
538 6014 1
538 6126 1
538 6179 1
538 7989 1
539 147 1
539 347 1
539 380 1
539 442 1
539 648 1
539 1088 1
539 1335 1
539 2128 1
539 2157 1
539 4354 1
539 5329 1
539 6105 1
539 6188 1
539 7241 1
539 7356 1
539 7483 1
539 8388 1
539 8815 1
539 8829 1
539 8960 1
540 5 1
540 78 1
540 472 1
540 538 1
540 1067 1
540 1732 1
540 2901 1
540 4043 1
540 4374 1
540 6438 1
540 8601 1
541 11 1
541 153 1
541 237 1
541 354 1
541 583 1
541 678 1
541 721 1
541 925 1
541 1101 1
541 2027 1
541 2089 1
541 2744 1
541 2781 1
541 3505 1
541 3725 1
541 4039 1
541 4164 1
541 4231 1
541 4252 1
541 4957 1
541 5442 1
541 6481 1
541 7526 1
541 9476 1
541 9730 1
542 41 1
542 132 1
542 345 1
542 410 1
542 1818 1
542 2289 1
542 2407 1
542 2987 1
542 3138 1
542 3448 1
542 3821 1
542 3958 1
542 4019 1
542 5503 1
542 8797 1
543 9 1
543 162 1
543 366 1
543 408 1
543 2205 1
543 3640 1
544 5 1
544 11 1
544 49 1
544 57 1
544 643 1
544 1323 1
544 1383 1
544 1437 1
544 2813 1
544 5930 1
544 6124 1
544 7963 1
545 10 1
545 61 1
545 92 1
545 277 1
545 670 1
545 831 1
545 1001 1
545 1021 1
545 1140 1
545 1491 1
545 1580 1
545 1609 1
545 1697 1
545 1818 1
545 1913 1
545 2431 1
545 2761 1
545 3572 1
545 4488 1
545 4532 1
545 4903 1
545 5738 1
545 6239 1
545 6869 1
545 6987 1
545 7397 1
545 7819 1
545 7859 1
545 8686 1
545 9282 1
545 9464 1
545 9893 1
546 18 1
546 38 1
546 323 1
546 491 1
546 578 1
546 897 1
546 1185 1
546 1432 1
546 1694 1
546 1822 1
546 2419 1
546 2463 1
546 2583 1
546 2807 1
546 2823 1
546 3167 1
546 3619 1
546 4078 1
546 4653 1
546 4898 1
546 6558 1
546 6900 1
546 7874 1
546 8295 1
547 23 1
547 61 1
547 166 1
547 510 1
547 624 1
547 706 1
547 758 1
547 773 1
547 812 1
547 1239 1
547 1476 1
547 1528 1
547 2076 1
547 2336 1
547 2478 1
547 2530 1
547 2930 1
547 3237 1
547 3514 1
547 3607 1
547 3811 1
547 3952 1
547 4458 1
547 4686 1
547 5337 1
547 5368 1
547 6709 1
547 8117 1
547 8335 1
547 8620 1
547 8914 1
547 9291 1
547 9680 1
548 1 1
548 36 1
548 162 1
548 212 1
548 920 1
548 1126 1
548 1821 1
548 3346 1
548 3766 1
549 23 1
549 29 1
549 163 1
549 465 1
549 675 1
549 699 1
549 922 1
549 1003 1
549 1025 1
549 1079 1
549 1492 1
549 1774 1
549 1815 1
549 2096 1
549 2553 1
549 2899 1
549 2924 1
549 5789 1
549 6203 1
549 6794 1
549 6899 1
549 7538 1
549 8087 1
550 6 1
550 357 1
550 360 1
550 394 1
550 1641 1
550 1769 1
550 2123 1
550 2585 1
550 2759 1
550 3540 1
550 4789 1
550 5332 1
550 7860 1
550 9167 1
550 9470 1
551 25 1
551 99 1
551 237 1
551 325 1
551 1779 1
551 4596 1
551 5866 1
551 6440 1
552 85 1
552 148 1
552 231 1
552 448 1
553 2 1
553 14 1
553 81 1
553 478 1
553 1081 1
553 1474 1
553 1507 1
553 1736 1
553 1821 1
553 1974 1
553 2199 1
553 2362 1
553 3268 1
553 3664 1
553 4260 1
553 4350 1
553 5601 1
553 5970 1
553 6480 1
553 6831 1
553 7138 1
553 7339 1
553 7349 1
553 7906 1
553 9691 1
553 9693 1
554 105 1
554 238 1
554 262 1
554 434 1
554 579 1
554 606 1
554 1346 1
554 1665 1
554 2220 1
554 2925 1
554 3293 1
554 4540 1
554 5490 1
554 5874 1
554 5948 1
554 7754 1
554 8736 1
554 9404 1
554 9873 1
555 89 1
555 139 1
555 214 1
555 261 1
555 1479 1
555 1616 1
555 3401 1
555 3594 1
555 4560 1
555 4654 1
555 5086 1
555 8734 1
555 8768 1
555 9259 1
556 1 1
556 11 1
556 91 1
556 180 1
556 1391 1
556 1415 1
556 1455 1
556 2300 1
556 2329 1
556 2378 1
556 3381 1
556 3509 1
556 4021 1
556 4634 1
556 5568 1
556 8035 1
556 9541 1
557 195 1
557 248 1
557 488 1
557 509 1
557 914 1
557 1214 1
557 1251 1
557 1617 1
557 2405 1
557 3327 1
557 4147 1
557 4409 1
557 4783 1
557 7843 1
557 8299 1
557 8372 1
558 10 1
558 332 1
558 473 1
558 515 1
558 570 1
558 1232 1
558 3636 1
558 5550 1
558 5595 1
558 6427 1
558 7350 1
558 9564 1
559 25 1
559 66 1
559 94 1
559 163 1
559 1739 1
559 2806 1
559 6693 1
560 41 1
560 97 1
560 132 1
560 241 1
560 601 1
560 647 1
560 780 1
560 1913 1
560 1941 1
560 2648 1
560 3117 1
560 3502 1
560 3823 1
560 5063 1
560 6783 1
560 8769 1
561 8 1
561 113 1
561 245 1
561 297 1
561 967 1
561 2225 1
561 2778 1
561 3548 1
561 3729 1
561 3780 1
561 3901 1
561 5040 1
561 5236 1
561 6343 1
561 8182 1
561 8413 1
561 8502 1
561 8737 1
561 8874 1
562 11 1
562 82 1
562 174 1
562 356 1
562 753 1
562 864 1
562 1030 1
562 1194 1
562 1336 1
562 1421 1
562 1617 1
562 2974 1
562 2990 1
562 3069 1
562 3877 1
562 4106 1
562 4723 1
562 5084 1
562 5533 1
562 5568 1
562 7026 1
562 7381 1
562 7555 1
562 7796 1
562 8002 1
562 8263 1
562 8484 1
562 9893 1
563 53 1
563 184 1
563 363 1
563 414 1
563 1063 1
563 1408 1
563 1448 1
563 1851 1
563 2208 1
563 2911 1
563 6187 1
564 1 1
564 137 1
564 296 1
564 522 1
564 993 1
564 1578 1
564 1716 1
564 1970 1
564 2261 1
564 2566 1
564 3262 1
564 3405 1
564 3453 1
564 3472 1
564 3612 1
564 3698 1
564 3973 1
564 5101 1
564 5297 1
564 5422 1
564 6736 1
564 7133 1
564 7842 1
564 8660 1
564 8661 1
564 8791 1
564 8926 1
564 9197 1
564 9216 1
565 199 1
565 213 1
565 285 1
565 306 1
565 2110 1
565 2795 1
565 5100 1
565 7001 1
565 8052 1
565 9639 1
566 84 1
566 129 1
566 267 1
566 349 1
566 652 1
566 689 1
566 830 1
566 1274 1
566 1292 1
566 3852 1
566 3974 1
566 4278 1
566 4311 1
566 6415 1
566 8147 1
566 8293 1
566 8468 1
566 8479 1
567 9 1
567 17 1
567 26 1
567 49 1
567 5984 1
568 9 1
568 39 1
568 75 1
568 403 1
568 727 1
568 958 1
568 4381 1
568 6694 1
569 15 1
569 28 1
569 48 1
569 286 1
569 746 1
569 771 1
569 855 1
569 1062 1
569 1126 1
569 1161 1
569 1430 1
569 1456 1
569 1568 1
569 2407 1
569 2579 1
569 2592 1
569 2893 1
569 4399 1
569 4422 1
569 4463 1
569 4801 1
569 4829 1
569 4975 1
569 4978 1
569 5073 1
569 5319 1
569 5526 1
569 5762 1
569 6222 1
569 6685 1
569 7118 1
569 8161 1
569 8609 1
569 8975 1
569 9389 1
569 9475 1
569 9562 1
569 9963 1
570 10 1
570 34 1
570 81 1
570 558 1
570 1200 1
570 1974 1
570 4178 1
570 4449 1
570 5754 1
570 8089 1
570 9676 1
571 10 1
571 97 1
571 179 1
571 498 1
571 651 1
571 1035 1
571 1333 1
571 2136 1
571 2771 1
571 3103 1
571 3232 1
571 4334 1
571 4868 1
571 6010 1
571 6581 1
571 6727 1
571 7014 1
571 7243 1
571 7449 1
572 27 1
572 64 1
572 268 1
572 469 1
572 665 1
572 725 1
572 910 1
572 956 1
572 1151 1
572 1238 1
572 1244 1
572 2139 1
572 2722 1
572 2752 1
572 4064 1
572 4178 1
572 5701 1
572 6269 1
572 7694 1
572 7838 1
572 8031 1
573 69 1
573 259 1
573 301 1
573 378 1
573 1016 1
573 2523 1
573 4237 1
573 4655 1
573 4877 1
573 5753 1
573 6403 1
573 7563 1
573 8569 1
573 8712 1
573 8720 1
573 9786 1
574 175 1
574 212 1
574 353 1
574 507 1
574 1417 1
574 1490 1
574 1812 1
574 2420 1
574 2668 1
574 3597 1
574 5016 1
574 6519 1
574 6739 1
574 8696 1
575 59 1
575 77 1
575 114 1
575 380 1
575 767 1
575 3084 1
575 3404 1
575 5222 1
575 7964 1
575 8791 1
576 17 1
576 19 1
576 26 1
576 51 1
576 608 1
576 696 1
576 886 1
576 889 1
576 1034 1
576 1442 1
576 3693 1
576 3727 1
576 7149 1
576 7201 1
576 8540 1
577 11 1
577 57 1
577 67 1
577 162 1
577 590 1
577 858 1
577 1779 1
577 1792 1
577 2828 1
577 3211 1
577 4587 1
577 5173 1
577 6147 1
577 7308 1
577 7786 1
577 8369 1
577 8538 1
577 8801 1
578 18 1
578 259 1
578 478 1
578 546 1
578 594 1
578 1154 1
578 1834 1
578 2572 1
578 5247 1
578 6354 1
578 6941 1
578 7881 1
579 94 1
579 99 1
579 377 1
579 554 1
579 606 1
579 618 1
579 704 1
579 1350 1
579 1491 1
579 1948 1
579 2686 1
579 2925 1
579 3041 1
579 3057 1
579 3166 1
579 3717 1
579 3748 1
579 3932 1
579 4036 1
579 4114 1
579 6051 1
579 6361 1
579 6599 1
580 141 1
580 171 1
580 245 1
580 394 1
580 748 1
580 968 1
580 1439 1
580 1814 1
580 2469 1
580 2522 1
580 3593 1
580 3683 1
580 4090 1
580 4493 1
580 4551 1
580 5897 1
580 6165 1
580 6602 1
580 6715 1
580 7001 1
580 7765 1
580 7793 1
580 7968 1
581 39 1
581 79 1
581 209 1
581 404 1
581 895 1
581 1143 1
581 1213 1
581 1944 1
581 1979 1
581 3652 1
581 4007 1
581 5037 1
581 5810 1
581 5978 1
581 6054 1
581 7322 1
581 7453 1
581 8076 1
581 8657 1
581 8884 1
582 69 1
582 336 1
582 405 1
582 488 1
582 1377 1
582 3111 1
582 5643 1
582 7501 1
582 7753 1
583 25 1
583 61 1
583 125 1
583 541 1
583 933 1
583 991 1
583 1010 1
583 1408 1
583 1494 1
583 2989 1
583 4319 1
583 4589 1
583 5062 1
583 7244 1
583 8717 1
583 9315 1
584 5 1
584 33 1
584 150 1
584 170 1
584 1475 1
584 1483 1
584 1768 1
584 1774 1
584 2643 1
584 6700 1
585 2 1
585 198 1
585 271 1
585 389 1
585 692 1
585 1351 1
585 1454 1
585 1695 1
585 1825 1
585 1834 1
585 2229 1
585 2269 1
585 2295 1
585 2349 1
585 2732 1
585 3067 1
585 3199 1
585 3261 1
585 3938 1
585 4008 1
585 4240 1
585 5421 1
585 5671 1
585 5721 1
585 5745 1
585 5872 1
585 6340 1
585 6719 1
585 7177 1
585 7607 1
585 7816 1
586 9 1
586 41 1
586 59 1
586 70 1
586 778 1
586 1009 1
586 1687 1
586 1867 1
586 1921 1
586 2120 1
586 3381 1
586 4150 1
586 4594 1
586 5333 1
586 6963 1
587 5 1
587 29 1
587 163 1
587 420 1
587 1369 1
587 1588 1
587 1642 1
587 2049 1
587 2227 1
587 2526 1
587 2626 1
587 2800 1
587 3091 1
587 3105 1
587 3216 1
587 3893 1
587 3947 1
587 4245 1
587 4678 1
587 5581 1
587 5835 1
587 6592 1
587 7752 1
587 8271 1
587 9480 1
588 17 1
588 138 1
588 233 1
588 314 1
588 1963 1
588 2000 1
588 2268 1
588 7356 1
588 8189 1
588 9701 1
589 33 1
589 57 1
589 196 1
589 430 1
589 617 1
589 792 1
589 934 1
589 1469 1
589 1710 1
589 2971 1
589 3343 1
589 3585 1
589 3704 1
589 3930 1
589 6935 1
589 9199 1
589 9203 1
589 9255 1
589 9885 1
590 11 1
590 81 1
590 177 1
590 577 1
590 593 1
590 858 1
590 1803 1
590 3165 1
590 3971 1
590 4789 1
591 20 1
591 193 1
591 513 1
591 530 1
591 720 1
591 810 1
591 2306 1
591 4173 1
591 4613 1
591 5519 1
591 7440 1
591 8379 1
591 8628 1
592 15 1
592 25 1
592 41 1
592 269 1
592 1495 1
592 1538 1
592 2119 1
592 3759 1
593 11 1
593 267 1
593 311 1
593 590 1
593 776 1
593 1587 1
593 4561 1
593 4594 1
593 5380 1
593 5398 1
593 6724 1
593 7896 1
593 7974 1
593 8278 1
594 39 1
594 124 1
594 444 1
594 578 1
594 838 1
594 1154 1
594 1493 1
594 2102 1
594 3085 1
594 3457 1
594 4189 1
594 4348 1
594 4646 1
594 5040 1
594 5352 1
594 5385 1
594 5577 1
594 7322 1
594 7965 1
594 9257 1
594 9263 1
594 9640 1
595 69 1
595 178 1
595 369 1
595 452 1
595 1002 1
595 4918 1
596 4 1
596 66 1
596 332 1
596 421 1
596 1287 1
596 3636 1
596 5614 1
596 6369 1
596 7391 1
596 8357 1
596 9224 1
597 78 1
597 88 1
597 301 1
597 378 1
597 2392 1
597 2539 1
598 11 1
598 74 1
598 126 1
598 363 1
598 601 1
598 763 1
598 765 1
598 888 1
598 1255 1
598 1933 1
598 2597 1
598 3870 1
598 4352 1
598 5377 1
598 7562 1
599 17 1
599 18 1
599 28 1
599 443 1
599 2614 1
599 2932 1
599 3189 1
599 3755 1
599 5826 1
600 69 1
600 73 1
600 341 1
600 386 1
600 637 1
600 1341 1
600 1698 1
600 1758 1
600 2434 1
600 2573 1
600 3044 1
600 3256 1
600 6598 1
600 8682 1
600 9206 1
601 2 1
601 74 1
601 560 1
601 598 1
601 615 1
601 659 1
601 686 1
601 1164 1
601 1453 1
601 1644 1
601 1913 1
601 2241 1
601 2739 1
601 3065 1
601 3082 1
601 4088 1
601 4946 1
601 5225 1
601 5991 1
601 7429 1
601 8959 1
601 9040 1
601 9154 1
601 9441 1
601 9982 1
602 9 1
602 48 1
602 243 1
602 355 1
602 642 1
602 1274 1
602 1550 1
602 1719 1
602 2091 1
602 2258 1
602 2264 1
602 3887 1
602 4777 1
602 5560 1
602 5639 1
602 5714 1
602 7320 1
602 8221 1
602 9302 1
602 9632 1
603 78 1
603 174 1
603 178 1
603 365 1
603 731 1
603 2322 1
603 2588 1
603 2592 1
603 2934 1
603 8859 1
604 4 1
604 6 1
604 9 1
604 17 1
604 943 1
604 1374 1
604 3472 1
604 4806 1
604 5172 1
604 6271 1
604 7033 1
604 7664 1
605 38 1
605 261 1
605 263 1
605 444 1
605 1132 1
605 1409 1
605 1586 1
605 3529 1
605 3758 1
605 5672 1
605 8045 1
606 94 1
606 409 1
606 554 1
606 579 1
606 942 1
606 2078 1
606 6169 1
606 9907 1
607 1 1
607 45 1
607 124 1
607 315 1
607 1038 1
607 1177 1
607 1224 1
607 3102 1
607 3157 1
607 3258 1
607 4342 1
607 4666 1
607 4751 1
607 7166 1
608 26 1
608 49 1
608 148 1
608 576 1
608 609 1
608 714 1
608 1282 1
608 1962 1
608 3791 1
608 4031 1
608 4685 1
608 5125 1
608 7150 1
608 9588 1
609 26 1
609 54 1
609 116 1
609 608 1
609 4398 1
609 4685 1
610 49 1
610 50 1
610 137 1
610 322 1
610 799 1
610 829 1
610 930 1
610 1009 1
610 1060 1
610 1116 1
610 1345 1
610 1697 1
610 1801 1
610 2167 1
610 2378 1
610 2464 1
610 2501 1
610 2611 1
610 2704 1
610 3851 1
610 3869 1
610 4390 1
610 4913 1
610 5488 1
610 5528 1
610 5789 1
610 6380 1
610 6426 1
610 6646 1
610 7112 1
610 7434 1
610 7860 1
610 7944 1
610 7964 1
610 8331 1
610 8877 1
610 9223 1
610 9314 1
611 37 1
611 44 1
611 292 1
611 359 1
611 1176 1
611 2127 1
611 2634 1
611 3419 1
611 3779 1
611 4366 1
611 4493 1
611 4977 1
611 5076 1
611 5959 1
611 7675 1
611 9743 1
612 9 1
612 42 1
612 153 1
612 419 1
612 2314 1
612 4592 1
612 4996 1
612 5494 1
612 7197 1
612 8395 1
613 33 1
613 49 1
613 154 1
613 396 1
613 1006 1
613 2056 1
613 2754 1
613 3020 1
613 4136 1
613 4394 1
613 5809 1
613 6699 1
614 45 1
614 97 1
614 227 1
614 283 1
614 1336 1
614 1478 1
614 3775 1
614 7465 1
614 9445 1
615 9 1
615 144 1
615 347 1
615 601 1
615 1364 1
615 3065 1
615 3107 1
615 6833 1
616 46 1
616 65 1
616 133 1
616 213 1
616 690 1
616 1022 1
616 2507 1
616 3399 1
616 3687 1
616 6453 1
616 9349 1
616 9589 1
617 24 1
617 53 1
617 196 1
617 589 1
617 730 1
617 764 1
617 792 1
617 1073 1
617 1773 1
617 2734 1
617 3704 1
617 5466 1
617 6345 1
617 7075 1
617 7686 1
617 8244 1
618 43 1
618 73 1
618 74 1
618 579 1
618 940 1
618 1333 1
618 1724 1
618 1744 1
618 2600 1
618 3057 1
618 3468 1
618 3521 1
618 4228 1
618 5508 1
618 5781 1
618 5870 1
618 7481 1
618 7948 1
618 8662 1
618 8839 1
618 8911 1
618 9402 1
619 1 1
619 12 1
619 22 1
619 249 1
619 1678 1
619 7880 1
619 8489 1
620 10 1
620 116 1
620 185 1
620 465 1
620 649 1
620 795 1
620 1080 1
620 1325 1
620 1340 1
620 1348 1
620 1692 1
620 1961 1
620 2472 1
620 2974 1
620 3221 1
620 3226 1
620 3591 1
620 3844 1
620 5325 1
620 6868 1
620 7326 1
620 8098 1
620 9074 1
621 1 1
621 10 1
621 168 1
621 333 1
621 3513 1
621 4450 1
621 7549 1
621 9230 1
621 9261 1
621 9804 1
622 25 1
622 183 1
622 309 1
622 339 1
622 781 1
622 949 1
622 1776 1
622 2192 1
622 3600 1
622 4730 1
622 4964 1
622 5787 1
622 7543 1
623 1 1
623 405 1
623 448 1
623 487 1
623 1992 1
623 2623 1
623 3768 1
623 5297 1
623 5705 1
623 5880 1
623 6498 1
623 7967 1
623 8132 1
623 8822 1
624 45 1
624 82 1
624 510 1
624 547 1
624 739 1
624 769 1
624 1117 1
624 3054 1
624 3514 1
624 4465 1
624 6331 1
624 7296 1
625 25 1
625 39 1
625 80 1
625 305 1
625 857 1
625 1948 1
625 2416 1
625 2923 1
625 4748 1
625 5176 1
626 10 1
626 92 1
626 185 1
626 439 1
626 891 1
626 1020 1
626 1244 1
626 1618 1
626 1684 1
626 1793 1
626 2263 1
626 4194 1
626 4239 1
626 5057 1
627 89 1
627 99 1
627 230 1
627 258 1
627 682 1
627 766 1
627 1082 1
627 1086 1
627 1164 1
627 1229 1
627 1284 1
627 1628 1
627 2105 1
627 2391 1
627 3021 1
627 3218 1
627 3267 1
627 3330 1
627 3384 1
627 3970 1
627 4102 1
627 4238 1
627 4569 1
627 4712 1
627 4905 1
627 5128 1
627 5704 1
627 7284 1
627 7492 1
627 7730 1
627 8542 1
627 9261 1
627 9388 1
627 9531 1
628 1 1
628 301 1
628 303 1
628 361 1
628 819 1
628 829 1
628 907 1
628 939 1
628 1414 1
628 1797 1
628 2074 1
628 2496 1
628 2946 1
628 3057 1
628 3223 1
628 4099 1
628 4335 1
628 4584 1
628 4906 1
628 5169 1
628 5188 1
628 5329 1
628 5444 1
628 5963 1
628 6205 1
628 6525 1
628 6777 1
628 7618 1
628 9330 1
628 9791 1
629 2 1
629 18 1
629 81 1
629 318 1
629 830 1
629 866 1
629 983 1
629 1138 1
629 1575 1
629 1839 1
629 2414 1
629 2701 1
629 2745 1
629 2861 1
629 2999 1
629 3018 1
629 3839 1
629 4058 1
629 5742 1
629 6461 1
629 7375 1
629 7667 1
629 9157 1
629 9350 1
629 9536 1
630 12 1
630 28 1
630 39 1
630 169 1
630 1087 1
630 1156 1
630 1195 1
630 1454 1
630 1592 1
630 1849 1
630 1898 1
630 2049 1
630 2321 1
630 2459 1
630 2618 1
630 2769 1
630 2800 1
630 3022 1
630 4542 1
630 4788 1
630 7857 1
630 8096 1
630 8390 1
630 8923 1
631 5 1
631 129 1
631 398 1
631 440 1
631 3022 1
631 3735 1
631 6996 1
631 7027 1
632 4 1
632 33 1
632 241 1
632 281 1
632 1531 1
632 3167 1
632 8251 1
633 19 1
633 38 1
633 43 1
633 202 1
633 787 1
633 1157 1
633 1215 1
633 1254 1
633 1302 1
633 1316 1
633 1596 1
633 1634 1
633 1715 1
633 1950 1
633 1991 1
633 2152 1
633 2638 1
633 3114 1
633 3714 1
633 4355 1
633 5314 1
633 5783 1
633 6633 1
633 6707 1
633 6785 1
633 7131 1
633 7821 1
633 8401 1
633 9296 1
633 9654 1
634 17 1
634 57 1
634 231 1
634 357 1
634 652 1
634 954 1
634 1366 1
634 1579 1
634 1673 1
634 1987 1
634 2016 1
634 2084 1
634 2260 1
634 2345 1
634 3340 1
634 3784 1
634 4090 1
634 4362 1
634 4769 1
634 4955 1
634 5449 1
634 6043 1
634 6237 1
634 6366 1
634 6919 1
634 6922 1
634 7642 1
634 8178 1
634 8201 1
634 9360 1
634 9697 1
634 9759 1
635 14 1
635 111 1
635 114 1
635 387 1
635 726 1
635 1413 1
635 1757 1
635 2422 1
635 2920 1
635 4682 1
635 5960 1
635 6827 1
635 9453 1
636 39 1
636 75 1
636 204 1
636 231 1
636 735 1
636 2089 1
636 2103 1
636 2376 1
636 4130 1
636 4644 1
636 4896 1
636 6525 1
636 6814 1
636 6896 1
636 8040 1
636 8724 1
636 9926 1
637 73 1
637 378 1
637 428 1
637 600 1
637 759 1
637 827 1
637 1060 1
637 1133 1
637 1155 1
637 1184 1
637 1445 1
637 1698 1
637 2184 1
637 2675 1
637 4212 1
637 4680 1
637 4848 1
637 4923 1
637 5677 1
637 6529 1
637 7253 1
638 2 1
638 32 1
638 210 1
638 252 1
638 2737 1
638 4244 1
638 4666 1
638 5826 1
639 11 1
639 33 1
639 463 1
639 532 1
639 748 1
639 1135 1
639 4669 1
639 5273 1
639 8023 1
639 9763 1
640 17 1
640 49 1
640 317 1
640 500 1
640 892 1
640 898 1
640 927 1
640 2383 1
640 3760 1
640 4851 1
640 5911 1
640 6145 1
640 7382 1
640 8006 1
641 2 1
641 9 1
641 70 1
641 301 1
641 659 1
641 1378 1
641 2178 1
641 2339 1
641 2995 1
641 3008 1
641 3498 1
641 4225 1
641 4242 1
641 4723 1
641 4776 1
641 5046 1
641 6713 1
641 7084 1
641 8128 1
641 9412 1
642 11 1
642 33 1
642 88 1
642 602 1
642 688 1
642 910 1
642 932 1
642 1179 1
642 1422 1
642 1786 1
642 2005 1
642 2011 1
642 2266 1
642 2335 1
642 2340 1
642 2379 1
642 2488 1
642 2607 1
642 2900 1
642 2944 1
642 2996 1
642 3023 1
642 3188 1
642 3682 1
642 3830 1
642 3831 1
642 4319 1
642 4527 1
642 4770 1
642 5000 1
642 5177 1
642 5505 1
642 5639 1
642 5830 1
642 6901 1
642 6966 1
642 7118 1
642 7129 1
642 7172 1
642 7657 1
642 8093 1
642 8658 1
642 9815 1
643 5 1
643 46 1
643 293 1
643 544 1
643 984 1
643 3868 1
643 4268 1
643 4439 1
643 9623 1
644 81 1
644 235 1
644 276 1
644 402 1
644 1114 1
644 1179 1
644 2033 1
644 2796 1
644 3061 1
644 3273 1
644 4026 1
644 5966 1
644 6477 1
644 6774 1
644 7966 1
644 7992 1
644 8931 1
645 11 1
645 163 1
645 362 1
645 400 1
645 679 1
645 1115 1
645 1567 1
645 1879 1
645 2925 1
645 3334 1
645 4234 1
645 4806 1
645 5499 1
645 6858 1
645 7194 1
645 7722 1
645 8291 1
645 8493 1
645 9322 1
646 4 1
646 260 1
646 285 1
646 529 1
646 774 1
646 7280 1
647 26 1
647 97 1
647 148 1
647 560 1
647 3791 1
647 5032 1
648 84 1
648 332 1
648 347 1
648 539 1
648 682 1
648 4354 1
648 5470 1
648 6105 1
648 8709 1
649 41 1
649 185 1
649 391 1
649 620 1
649 762 1
649 848 1
649 1054 1
649 1465 1
649 1605 1
649 2238 1
649 2552 1
649 2645 1
649 2876 1
649 4393 1
649 5152 1
649 5371 1
649 5415 1
649 5973 1
649 6218 1
649 6356 1
649 6893 1
649 8535 1
650 2 1
650 74 1
650 150 1
650 427 1
650 1150 1
650 1202 1
650 1511 1
650 2044 1
650 3028 1
650 3542 1
650 3674 1
650 4445 1
650 5156 1
650 5234 1
650 5365 1
650 5724 1
650 5879 1
650 6305 1
650 7123 1
650 7161 1
650 7226 1
650 7332 1
650 7438 1
650 7526 1
650 9401 1
650 9597 1
651 25 1
651 67 1
651 144 1
651 571 1
651 810 1
651 1333 1
651 1348 1
651 1395 1
651 3637 1
651 4255 1
651 4532 1
651 7706 1
651 7709 1
651 7886 1
651 7958 1
651 9547 1
651 9571 1
652 17 1
652 98 1
652 566 1
652 634 1
652 1274 1
652 1868 1
652 3104 1
652 4090 1
652 4425 1
652 7999 1
652 9188 1
652 9447 1
653 35 1
653 64 1
653 131 1
653 514 1
653 2178 1
653 2963 1
653 4292 1
653 4942 1
653 5139 1
653 9574 1
654 17 1
654 60 1
654 354 1
654 521 1
654 1281 1
654 1693 1
654 2546 1
654 2663 1
654 4907 1
654 5275 1
654 5886 1
654 9422 1
655 4 1
655 42 1
655 102 1
655 432 1
655 833 1
655 1278 1
655 1325 1
655 1529 1
655 1747 1
655 1852 1
655 1864 1
655 2021 1
655 2109 1
655 5696 1
655 6363 1
655 7515 1
655 7534 1
655 8157 1
655 9281 1
656 17 1
656 25 1
656 33 1
656 465 1
656 671 1
656 1129 1
656 1211 1
656 1230 1
656 1533 1
656 6822 1
657 17 1
657 131 1
657 213 1
657 361 1
657 1172 1
657 1701 1
657 1830 1
657 2656 1
657 3067 1
657 4506 1
657 4812 1
657 6516 1
657 7920 1
657 9567 1
658 11 1
658 131 1
658 342 1
658 370 1
658 1190 1
658 1362 1
658 1574 1
658 1664 1
658 2841 1
658 2851 1
658 3605 1
658 3762 1
658 4714 1
658 5277 1
658 5658 1
658 6565 1
658 6877 1
658 7164 1
658 7439 1
658 9899 1
659 74 1
659 170 1
659 601 1
659 641 1
659 898 1
659 975 1
659 1395 1
659 1497 1
659 2558 1
659 2744 1
659 3438 1
659 5521 1
659 6872 1
659 7429 1
660 29 1
660 78 1
660 389 1
660 400 1
660 1895 1
660 3236 1
660 3388 1
660 3700 1
660 5160 1
660 6257 1
660 8683 1
660 9350 1
661 2 1
661 118 1
661 153 1
661 385 1
661 723 1
661 861 1
661 1378 1
661 1594 1
661 2015 1
661 2041 1
661 2413 1
661 2473 1
661 2611 1
661 2961 1
661 3091 1
661 3315 1
661 4142 1
661 4588 1
661 4597 1
661 4720 1
661 6117 1
661 6394 1
661 6713 1
661 7562 1
661 8265 1
661 8385 1
661 8805 1
661 9034 1
661 9066 1
661 9207 1
662 4 1
662 147 1
662 163 1
662 186 1
662 974 1
662 1291 1
662 1847 1
662 1848 1
662 4636 1
662 5187 1
662 5228 1
662 9629 1
662 9692 1
663 20 1
663 215 1
663 245 1
663 285 1
663 699 1
663 763 1
663 1515 1
663 1664 1
663 2064 1
663 2228 1
663 2570 1
663 8492 1
664 19 1
664 33 1
664 234 1
664 257 1
664 694 1
664 1113 1
664 1505 1
664 1819 1
664 2956 1
664 7734 1
664 8703 1
664 9457 1
665 59 1
665 434 1
665 469 1
665 572 1
665 725 1
665 771 1
665 1167 1
665 1318 1
665 1346 1
665 1394 1
665 1452 1
665 1866 1
665 2085 1
665 2113 1
665 2139 1
665 2259 1
665 2322 1
665 2395 1
665 2848 1
665 3711 1
665 3794 1
665 3805 1
665 4178 1
665 5047 1
665 5126 1
665 5734 1
665 5749 1
665 5904 1
665 6042 1
665 6201 1
665 6347 1
665 6410 1
665 6482 1
665 6644 1
665 7242 1
665 7563 1
665 7565 1
665 7801 1
665 7818 1
665 8592 1
665 9465 1
665 9497 1
665 9846 1
666 97 1
666 361 1
666 421 1
666 462 1
666 701 1
666 2380 1
666 3804 1
666 6468 1
666 6789 1
666 6834 1
666 7273 1
666 9516 1
667 18 1
667 185 1
667 265 1
667 275 1
667 1104 1
667 1382 1
667 1741 1
667 3106 1
667 4303 1
667 5287 1
667 5405 1
667 8706 1
668 24 1
668 53 1
668 375 1
668 490 1
668 4358 1
668 6372 1
669 5 1
669 9 1
669 383 1
669 521 1
669 1250 1
669 3820 1
669 5769 1
669 7202 1
670 91 1
670 211 1
670 375 1
670 545 1
670 1034 1
670 1146 1
670 1746 1
670 4175 1
670 7819 1
670 9103 1
671 17 1
671 33 1
671 142 1
671 656 1
671 1630 1
671 1778 1
671 2159 1
671 2490 1
671 5507 1
671 7803 1
671 7955 1
671 8392 1
672 49 1
672 166 1
672 250 1
672 409 1
672 919 1
672 1293 1
672 5250 1
672 5662 1
672 6935 1
672 7473 1
672 8364 1
672 9124 1
673 11 1
673 35 1
673 82 1
673 415 1
673 745 1
673 881 1
673 1497 1
673 2051 1
673 2298 1
673 2329 1
673 2452 1
673 2486 1
673 2678 1
673 2718 1
673 3289 1
673 3449 1
673 4844 1
673 5071 1
673 5863 1
673 6650 1
673 7048 1
673 7239 1
673 7463 1
673 9539 1
674 9 1
674 97 1
674 148 1
674 380 1
674 1069 1
674 1598 1
674 1857 1
674 2181 1
674 2221 1
674 2479 1
674 4864 1
674 5425 1
674 6499 1
674 7477 1
674 7981 1
674 9105 1
675 51 1
675 71 1
675 465 1
675 549 1
675 696 1
675 918 1
675 2393 1
675 2404 1
675 2471 1
675 2733 1
675 2776 1
675 3078 1
675 3481 1
675 3513 1
675 3850 1
675 4847 1
675 4978 1
675 6189 1
675 6353 1
675 7897 1
675 8199 1
675 8294 1
676 7 1
676 71 1
676 411 1
676 451 1
676 729 1
676 903 1
676 1077 1
676 2565 1
676 2627 1
676 2996 1
676 3076 1
676 3173 1
676 3374 1
676 4374 1
676 4651 1
676 5102 1
676 5484 1
676 6405 1
676 6653 1
676 6953 1
676 7134 1
676 7310 1
676 8282 1
676 8962 1
676 9685 1
676 9716 1
677 141 1
677 238 1
677 317 1
677 443 1
677 727 1
677 782 1
677 856 1
677 929 1
677 977 1
677 1900 1
677 2126 1
677 2137 1
677 2493 1
677 2925 1
677 3017 1
677 3243 1
677 3466 1
677 3484 1
677 3522 1
677 3961 1
677 3982 1
677 4314 1
677 4400 1
677 4421 1
677 5597 1
677 5758 1
677 6514 1
677 6662 1
677 8350 1
677 8481 1
677 9407 1
677 9776 1
678 2 1
678 128 1
678 169 1
678 541 1
678 925 1
678 2556 1
678 2833 1
678 5014 1
678 6424 1
678 8169 1
678 8950 1
679 30 1
679 58 1
679 394 1
679 645 1
679 2215 1
679 2515 1
679 6419 1
679 9655 1
680 67 1
680 225 1
680 303 1
680 505 1
680 1617 1
680 2840 1
680 7702 1
680 8028 1
681 210 1
681 294 1
681 356 1
681 525 1
681 1896 1
681 2270 1
681 3534 1
681 3560 1
681 3602 1
681 3671 1
681 6320 1
681 7096 1
681 7258 1
681 7480 1
681 7836 1
681 8284 1
681 9380 1
681 9814 1
682 10 1
682 18 1
682 627 1
682 648 1
682 1229 1
682 1616 1
682 2576 1
682 2654 1
682 3218 1
682 3923 1
682 4291 1
682 4732 1
682 7100 1
682 7811 1
682 7851 1
683 9 1
683 28 1
683 33 1
683 442 1
683 1464 1
683 1504 1
683 1593 1
683 1648 1
683 2193 1
683 2462 1
683 3559 1
683 3881 1
683 4487 1
683 4883 1
683 5854 1
683 6477 1
683 6761 1
683 6864 1
683 7539 1
683 7619 1
683 7650 1
683 8230 1
683 8673 1
683 8721 1
683 8762 1
683 9788 1
683 9873 1
684 10 1
684 60 1
684 111 1
684 197 1
684 1263 1
684 1435 1
684 1614 1
684 1944 1
684 2114 1
684 2542 1
684 2984 1
684 3198 1
684 3239 1
684 3344 1
684 4176 1
684 4243 1
684 5036 1
684 6055 1
684 6678 1
684 8450 1
684 9762 1
685 65 1
685 94 1
685 130 1
685 180 1
685 1099 1
685 1194 1
685 1347 1
685 1434 1
685 2108 1
685 2262 1
685 2497 1
685 2535 1
685 2741 1
685 2877 1
685 3361 1
685 4694 1
685 4825 1
685 4895 1
685 5579 1
685 5765 1
685 6016 1
685 6095 1
685 6380 1
685 7049 1
685 7272 1
685 8436 1
685 9680 1
685 9978 1
686 12 1
686 138 1
686 222 1
686 601 1
686 764 1
686 1140 1
686 1794 1
686 3512 1
686 7160 1
687 42 1
687 83 1
687 406 1
687 429 1
687 2262 1
687 2444 1
687 3527 1
687 3566 1
687 6362 1
687 6646 1
687 8508 1
687 9941 1
688 2 1
688 11 1
688 63 1
688 642 1
688 2505 1
688 3023 1
688 7353 1
689 18 1
689 22 1
689 129 1
689 566 1
689 3222 1
689 6945 1
690 12 1
690 258 1
690 343 1
690 616 1
690 1667 1
690 2053 1
690 2726 1
690 3399 1
690 3983 1
690 4432 1
690 5968 1
690 6495 1
690 6626 1
690 9191 1
690 9249 1
691 3 1
691 65 1
691 299 1
691 510 1
691 745 1
691 1970 1
691 8875 1
691 9967 1
692 21 1
692 455 1
692 474 1
692 585 1
692 1000 1
692 1256 1
692 1695 1
692 1712 1
692 2269 1
692 2349 1
692 2633 1
692 3601 1
692 3638 1
692 3753 1
692 3797 1
692 3844 1
692 4505 1
692 4673 1
692 4688 1
692 5588 1
692 6059 1
692 7268 1
692 8318 1
692 8780 1
692 9424 1
692 9801 1
693 17 1
693 41 1
693 85 1
693 119 1
693 813 1
693 839 1
693 2090 1
693 2422 1
693 2701 1
693 3903 1
693 4707 1
693 4730 1
693 6705 1
693 7180 1
693 7833 1
693 7844 1
693 8207 1
693 9996 1
694 30 1
694 41 1
694 259 1
694 664 1
694 2956 1
694 3558 1
694 6998 1
695 73 1
695 75 1
695 221 1
695 317 1
695 824 1
695 1007 1
695 1406 1
695 1776 1
695 1817 1
695 2688 1
695 4441 1
695 8928 1
696 19 1
696 465 1
696 576 1
696 675 1
696 2733 1
696 2958 1
696 3027 1
696 4002 1
696 4205 1
696 4545 1
696 5819 1
696 8119 1
697 20 1
697 49 1
697 175 1
697 483 1
697 784 1
697 2323 1
697 2421 1
697 3192 1
697 3897 1
697 4758 1
697 4976 1
697 6614 1
697 6731 1
697 8643 1
697 9221 1
697 9238 1
698 91 1
698 130 1
698 180 1
698 495 1
698 836 1
698 1508 1
698 2975 1
698 3896 1
698 5435 1
698 7253 1
699 18 1
699 147 1
699 549 1
699 663 1
699 732 1
699 882 1
699 971 1
699 982 1
699 1079 1
699 1170 1
699 1393 1
699 1503 1
699 1615 1
699 1843 1
699 1898 1
699 2202 1
699 2282 1
699 2347 1
699 2528 1
699 3171 1
699 3208 1
699 3253 1
699 3515 1
699 3869 1
699 4256 1
699 4290 1
699 4577 1
699 4622 1
699 4838 1
699 4953 1
699 5147 1
699 5266 1
699 5883 1
699 5939 1
699 6457 1
699 6739 1
699 7167 1
699 7456 1
699 8237 1
699 8352 1
699 8408 1
699 9376 1
699 9559 1
699 9570 1
699 9579 1
699 9971 1
700 17 1
700 41 1
700 108 1
700 163 1
700 800 1
700 1458 1
700 1467 1
700 1729 1
700 2007 1
700 3024 1
700 3556 1
700 4701 1
700 6233 1
700 6337 1
700 6851 1
700 7193 1
700 7241 1
700 8022 1
700 8906 1
700 9104 1
700 9361 1
701 81 1
701 462 1
701 467 1
701 666 1
701 859 1
701 1148 1
701 1626 1
701 1968 1
701 2415 1
701 2498 1
701 3613 1
701 4845 1
701 6422 1
701 6551 1
701 6916 1
701 7273 1
701 7599 1
701 7849 1
701 8148 1
701 9530 1
702 44 1
702 281 1
702 444 1
702 533 1
702 2526 1
702 3663 1
702 4985 1
702 6321 1
702 8074 1
702 8280 1
703 11 1
703 27 1
703 110 1
703 229 1
703 1165 1
703 1167 1
703 1266 1
703 1463 1
703 1877 1
703 2269 1
703 3155 1
703 3355 1
703 3571 1
703 3812 1
703 4008 1
703 4565 1
703 6028 1
703 6849 1
703 7679 1
703 8599 1
703 9071 1
704 108 1
704 272 1
704 454 1
704 579 1
704 6510 1
704 7371 1
704 7925 1
705 2 1
705 17 1
705 139 1
705 451 1
705 828 1
705 1542 1
705 1699 1
705 1999 1
705 3329 1
705 3442 1
705 3937 1
705 5085 1
705 6703 1
705 8213 1
705 8346 1
706 43 1
706 61 1
706 214 1
706 547 1
706 773 1
706 812 1
706 1673 1
706 1985 1
706 2478 1
706 2779 1
706 3201 1
706 3501 1
706 3902 1
706 4376 1
706 4817 1
706 4847 1
706 6926 1
706 7189 1
706 7973 1
706 8108 1
706 8168 1
706 9532 1
706 9872 1
707 39 1
707 149 1
707 156 1
707 467 1
707 880 1
707 2090 1
707 2190 1
707 2390 1
707 2945 1
707 3989 1
707 3992 1
707 4191 1
707 4240 1
707 5121 1
707 5136 1
707 5362 1
707 5469 1
707 6491 1
707 6543 1
707 6612 1
707 7913 1
707 7954 1
707 8374 1
707 9292 1
707 9771 1
708 69 1
708 84 1
708 194 1
708 531 1
708 779 1
708 976 1
708 1140 1
708 1294 1
708 2824 1
708 3124 1
708 4020 1
708 6694 1
708 7571 1
708 9338 1
708 9734 1
708 9878 1
708 9913 1
709 10 1
709 133 1
709 206 1
709 246 1
709 997 1
709 1237 1
709 1422 1
709 2788 1
709 3520 1
709 5982 1
709 7020 1
709 7390 1
709 7444 1
709 7824 1
709 8018 1
709 8368 1
709 9845 1
710 54 1
710 81 1
710 103 1
710 210 1
710 916 1
710 2064 1
710 2327 1
710 2674 1
710 3647 1
710 4016 1
710 5272 1
710 6421 1
710 6661 1
710 7774 1
710 8602 1
711 81 1
711 103 1
711 396 1
711 451 1
711 1200 1
711 3909 1
711 8381 1
711 9494 1
712 68 1
712 82 1
712 187 1
712 331 1
712 1259 1
712 3046 1
712 6728 1
713 9 1
713 25 1
713 370 1
713 403 1
713 762 1
713 1947 1
713 2374 1
713 2679 1
713 4293 1
713 5815 1
713 6287 1
713 6789 1
713 7006 1
713 7848 1
713 9274 1
714 65 1
714 69 1
714 410 1
714 608 1
714 784 1
714 1104 1
714 1135 1
714 1282 1
714 1962 1
714 2002 1
714 3444 1
714 3769 1
714 4386 1
714 4614 1
714 4961 1
714 5125 1
714 5882 1
714 5987 1
714 6223 1
714 6254 1
714 7929 1
714 9263 1
714 9391 1
715 9 1
715 11 1
715 23 1
715 36 1
715 964 1
715 1350 1
715 1532 1
715 1800 1
715 1949 1
715 2230 1
715 2547 1
715 2943 1
715 3101 1
715 4210 1
715 4236 1
715 5141 1
715 6524 1
715 7280 1
715 7343 1
715 8250 1
715 8251 1
715 8603 1
716 218 1
716 305 1
716 308 1
716 351 1
716 1523 1
716 3031 1
716 3711 1
716 4262 1
716 7591 1
716 9113 1
716 9394 1
716 9590 1
716 9868 1
717 2 1
717 85 1
717 467 1
717 509 1
717 4823 1
717 6627 1
717 7690 1
717 9630 1
718 58 1
718 60 1
718 179 1
718 509 1
718 1249 1
718 1275 1
718 1356 1
718 1509 1
718 2398 1
718 2641 1
718 3254 1
718 3469 1
718 3666 1
718 4990 1
718 5229 1
718 6611 1
718 6861 1
718 7396 1
718 8446 1
718 9474 1
719 26 1
719 46 1
719 131 1
719 159 1
719 1168 1
719 1488 1
719 6302 1
720 2 1
720 3 1
720 467 1
720 591 1
720 869 1
720 1835 1
720 3742 1
720 3859 1
720 4207 1
720 6242 1
720 8760 1
721 181 1
721 237 1
721 441 1
721 541 1
721 860 1
721 986 1
721 1064 1
721 1140 1
721 1700 1
721 2027 1
721 2173 1
721 2442 1
721 2725 1
721 2808 1
721 3078 1
721 4048 1
721 4164 1
721 5571 1
721 5702 1
721 5902 1
721 6301 1
721 8210 1
722 9 1
722 325 1
722 383 1
722 454 1
722 756 1
722 1329 1
722 1840 1
722 2442 1
722 5727 1
722 6543 1
722 7051 1
722 8323 1
723 80 1
723 144 1
723 261 1
723 661 1
723 1165 1
723 1613 1
723 1661 1
723 2484 1
723 2692 1
723 2858 1
723 5280 1
723 9985 1
724 25 1
724 33 1
724 154 1
724 1508 1
724 1806 1
724 1879 1
724 1981 1
724 2145 1
724 2846 1
724 2979 1
724 5638 1
724 5830 1
724 5986 1
724 7724 1
725 25 1
725 515 1
725 572 1
725 665 1
725 1238 1
725 1462 1
725 3086 1
725 6269 1
726 54 1
726 152 1
726 168 1
726 635 1
726 1092 1
726 1413 1
726 2337 1
726 4920 1
727 91 1
727 474 1
727 568 1
727 677 1
727 1047 1
727 1191 1
727 2137 1
727 3243 1
727 5008 1
727 5212 1
727 6281 1
728 9 1
728 11 1
728 17 1
728 457 1
728 797 1
728 1113 1
728 3370 1
728 3532 1
728 6677 1
728 6932 1
728 8343 1
729 17 1
729 131 1
729 215 1
729 676 1
729 791 1
729 1232 1
729 1563 1
729 1883 1
729 2833 1
729 2861 1
729 6163 1
729 6484 1
729 6653 1
729 6877 1
729 8209 1
729 9698 1
730 53 1
730 146 1
730 468 1
730 617 1
730 1289 1
730 2394 1
730 2456 1
730 3029 1
730 3188 1
730 3704 1
730 3964 1
730 7709 1
731 98 1
731 178 1
731 340 1
731 603 1
731 735 1
731 803 1
731 999 1
731 1047 1
731 1791 1
731 2412 1
731 2592 1
731 2752 1
731 2810 1
731 2982 1
731 3842 1
731 4406 1
731 4425 1
731 4807 1
731 5538 1
731 7243 1
731 9604 1
732 25 1
732 154 1
732 244 1
732 699 1
732 1166 1
732 4389 1
732 6560 1
732 7351 1
732 7938 1
732 8237 1
732 8665 1
733 2 1
733 43 1
733 49 1
733 366 1
733 1208 1
733 1304 1
733 2746 1
733 3162 1
733 4225 1
733 5025 1
733 5711 1
733 5799 1
733 6110 1
733 7618 1
733 8581 1
734 25 1
734 97 1
734 154 1
734 206 1
734 750 1
734 1771 1
734 2766 1
735 75 1
735 98 1
735 636 1
735 731 1
736 10 1
736 59 1
736 303 1
736 322 1
736 6969 1
736 9029 1
737 2 1
737 4 1
737 11 1
737 18 1
737 852 1
737 1224 1
737 1241 1
737 2502 1
737 2857 1
737 2870 1
737 3923 1
737 4980 1
737 5039 1
737 6087 1
737 6255 1
737 7005 1
737 7841 1
737 9799 1
737 9802 1
738 31 1
738 52 1
738 73 1
738 523 1
738 872 1
738 883 1
738 1178 1
738 1196 1
738 1585 1
738 1678 1
738 1935 1
738 2207 1
738 2226 1
738 2270 1
738 3127 1
738 3272 1
738 3684 1
738 4056 1
738 4224 1
738 4392 1
738 4644 1
738 4734 1
738 4943 1
738 5087 1
738 5140 1
738 5152 1
738 5984 1
738 5999 1
738 7473 1
738 8411 1
738 8525 1
738 9969 1
739 2 1
739 394 1
739 510 1
739 624 1
739 1596 1
739 2389 1
739 2841 1
739 3168 1
739 5506 1
739 7803 1
739 8069 1
739 9061 1
740 48 1
740 67 1
740 322 1
740 400 1
740 1227 1
740 2849 1
741 1 1
741 38 1
741 212 1
741 421 1
741 1362 1
741 1978 1
741 2063 1
741 3712 1
741 3951 1
741 4872 1
742 18 1
742 69 1
742 341 1
742 427 1
742 1458 1
742 1596 1
742 1889 1
742 2399 1
742 3757 1
742 3980 1
742 4144 1
742 5481 1
742 5730 1
742 5766 1
743 41 1
743 123 1
743 366 1
743 385 1
743 808 1
744 61 1
744 85 1
744 227 1
744 396 1
744 1692 1
744 3703 1
744 7294 1
744 7496 1
745 11 1
745 12 1
745 673 1
745 691 1
745 1608 1
745 1841 1
745 1982 1
745 2452 1
745 4027 1
745 4160 1
745 4404 1
745 6930 1
745 7855 1
745 8875 1
745 9164 1
745 9586 1
746 15 1
746 443 1
746 500 1
746 569 1
746 1076 1
746 1279 1
746 1286 1
746 1375 1
746 2383 1
746 3138 1
746 4965 1
746 6222 1
746 7125 1
746 7851 1
746 8647 1
746 9048 1
746 9298 1
746 9506 1
747 2 1
747 245 1
747 360 1
747 403 1
747 1026 1
747 1744 1
747 2230 1
747 2499 1
747 2888 1
747 3196 1
747 3949 1
747 4044 1
747 4789 1
747 5338 1
747 5516 1
747 5918 1
747 7055 1
747 7664 1
747 8436 1
747 8443 1
747 9792 1
748 11 1
748 481 1
748 580 1
748 639 1
748 864 1
748 1850 1
748 2268 1
748 2902 1
748 3665 1
748 4935 1
748 5273 1
748 5366 1
748 6715 1
748 7765 1
748 9561 1
749 38 1
749 85 1
749 92 1
749 160 1
749 1065 1
749 2398 1
749 2513 1
749 2537 1
749 3408 1
749 4010 1
749 4304 1
749 4708 1
749 5867 1
750 97 1
750 103 1
750 227 1
750 734 1
750 1712 1
750 2013 1
750 2766 1
750 2802 1
750 4034 1
750 4134 1
750 6725 1
751 27 1
751 139 1
751 338 1
751 497 1
751 799 1
751 5264 1
751 6121 1
751 7777 1
751 8243 1
751 8697 1
751 9145 1
752 9 1
752 193 1
752 196 1
752 202 1
752 1040 1
752 1163 1
752 2249 1
752 2716 1
752 2826 1
752 3272 1
752 3342 1
752 3758 1
752 5616 1
752 8299 1
752 9272 1
753 42 1
753 101 1
753 289 1
753 562 1
753 1209 1
753 1300 1
753 2717 1
753 2927 1
753 3541 1
753 3845 1
753 6452 1
753 7026 1
753 7641 1
753 7701 1
753 7787 1
753 8056 1
753 9142 1
753 9851 1
754 1 1
754 208 1
754 426 1
754 452 1
754 1819 1
754 2553 1
754 2664 1
754 3072 1
754 5420 1
754 6570 1
754 6741 1
754 8088 1
755 18 1
755 41 1
755 174 1
755 372 1
755 875 1
755 1496 1
755 2158 1
755 3383 1
755 3828 1
755 4550 1
755 5315 1
755 5400 1
755 6905 1
755 8591 1
756 5 1
756 243 1
756 297 1
756 722 1
756 891 1
756 3927 1
756 8006 1
757 247 1
757 256 1
757 335 1
757 387 1
757 1670 1
757 2172 1
757 2755 1
757 2786 1
757 3278 1
757 4049 1
757 4154 1
757 4805 1
757 5351 1
757 5654 1
757 8017 1
757 8116 1
757 8541 1
757 8581 1
757 8830 1
757 9181 1
757 9188 1
757 9447 1
758 1 1
758 90 1
758 213 1
758 547 1
758 874 1
758 1239 1
758 2478 1
758 6254 1
758 6354 1
758 7954 1
758 8888 1
759 10 1
759 25 1
759 365 1
759 637 1
759 1703 1
759 1854 1
759 2184 1
759 2185 1
759 2790 1
759 2898 1
759 3144 1
759 3691 1
759 5401 1
759 5696 1
759 5725 1
759 6304 1
759 7398 1
759 8587 1
760 1 1
760 75 1
760 268 1
760 364 1
760 1297 1
760 2477 1
760 6923 1
760 7727 1
761 11 1
761 158 1
761 181 1
761 463 1
761 1355 1
761 1570 1
761 1715 1
761 2417 1
761 3323 1
761 4041 1
761 7246 1
761 8332 1
762 25 1
762 41 1
762 649 1
762 713 1
762 868 1
762 962 1
762 996 1
762 1054 1
762 1390 1
762 1465 1
762 1870 1
762 2060 1
762 3722 1
762 3990 1
762 4417 1
762 5152 1
762 6004 1
762 7250 1
762 7960 1
762 9459 1
763 92 1
763 285 1
763 598 1
763 663 1
763 783 1
763 1218 1
763 1976 1
763 2416 1
763 2531 1
763 2684 1
763 2909 1
763 3001 1
763 3265 1
763 3694 1
763 6080 1
763 6212 1
763 6408 1
763 7102 1
763 7336 1
763 7597 1
763 8219 1
763 8690 1
764 32 1
764 319 1
764 617 1
764 686 1
764 890 1
764 975 1
764 1773 1
764 2031 1
764 2811 1
764 6252 1
764 8656 1
765 126 1
765 169 1
765 273 1
765 598 1
765 2372 1
765 2569 1
765 3181 1
765 5167 1
766 4 1
766 220 1
766 258 1
766 627 1
766 1082 1
766 1442 1
766 2540 1
766 3384 1
766 4712 1
766 5544 1
766 5799 1
766 5871 1
766 6590 1
766 7318 1
766 9114 1
766 9168 1
767 18 1
767 111 1
767 114 1
767 575 1
767 942 1
767 1368 1
767 3111 1
767 4448 1
767 4500 1
767 9381 1
768 29 1
768 166 1
768 185 1
768 391 1
768 1042 1
768 1114 1
768 1761 1
768 3175 1
768 4188 1
768 6651 1
768 8077 1
768 8152 1
768 9015 1
769 191 1
769 403 1
769 483 1
769 624 1
769 1638 1
769 3054 1
769 4146 1
769 4274 1
769 4881 1
769 5124 1
769 5162 1
769 5498 1
769 6262 1
769 7311 1
769 7728 1
769 8716 1
770 4 1
770 7 1
770 297 1
770 499 1
770 1050 1
770 1306 1
770 1799 1
770 2767 1
770 3244 1
770 3463 1
770 4941 1
770 6248 1
770 6375 1
770 7427 1
770 8178 1
770 8239 1
770 8422 1
770 9953 1
771 28 1
771 465 1
771 569 1
771 665 1
771 1201 1
771 2090 1
771 2922 1
771 3646 1
771 3794 1
771 4169 1
771 4555 1
771 5066 1
771 7328 1
772 1 1
772 116 1
772 329 1
772 357 1
772 1217 1
772 1623 1
772 1796 1
772 1856 1
772 2025 1
772 2325 1
772 2693 1
772 2774 1
772 2893 1
772 3217 1
772 3237 1
772 3451 1
772 3592 1
772 3595 1
772 3965 1
772 4690 1
772 5735 1
772 5851 1
772 7087 1
772 7421 1
772 7582 1
772 8292 1
772 8401 1
772 8790 1
772 8843 1
772 8933 1
772 9332 1
772 9368 1
772 9618 1
772 9875 1
773 43 1
773 61 1
773 547 1
773 706 1
773 2167 1
773 2336 1
773 4012 1
773 4725 1
773 4817 1
773 5229 1
773 5499 1
773 9671 1
774 42 1
774 91 1
774 260 1
774 646 1
774 1218 1
774 1871 1
774 1909 1
774 2175 1
774 2292 1
774 8779 1
775 18 1
775 30 1
775 41 1
775 181 1
775 5017 1
775 5220 1
775 7793 1
776 60 1
776 317 1
776 365 1
776 593 1
776 798 1
776 948 1
776 1315 1
776 1951 1
777 11 1
777 12 1
777 13 1
777 473 1
777 853 1
777 1107 1
777 1311 1
777 1535 1
777 2473 1
777 3161 1
777 3487 1
777 3570 1
777 4145 1
777 4156 1
777 4755 1
777 5317 1
777 5535 1
777 5564 1
777 5590 1
777 5609 1
777 6306 1
777 6342 1
777 6552 1
777 6930 1
777 7238 1
777 7696 1
777 7810 1
777 8447 1
777 8707 1
777 8732 1
777 8733 1
777 8735 1
777 9179 1
777 9611 1
777 9645 1
777 9958 1
778 103 1
778 126 1
778 310 1
778 586 1
778 1008 1
778 1713 1
778 1773 1
778 2247 1
778 4664 1
778 4716 1
778 6181 1
778 6530 1
778 7345 1
778 8049 1
778 8909 1
778 9163 1
778 9469 1
779 18 1
779 194 1
779 242 1
779 708 1
779 874 1
779 1042 1
779 1845 1
779 2509 1
779 3857 1
779 4641 1
779 5112 1
779 5681 1
779 7502 1
779 8449 1
779 8536 1
780 2 1
780 53 1
780 355 1
780 560 1
780 1446 1
780 1919 1
780 2019 1
780 2216 1
780 2224 1
780 3165 1
780 4618 1
780 5806 1
780 7124 1
780 7831 1
780 8699 1
780 9353 1
780 9652 1
781 25 1
781 81 1
781 415 1
781 622 1
781 1769 1
781 1887 1
781 2183 1
781 2871 1
781 3194 1
781 4037 1
781 4668 1
781 5022 1
781 8028 1
781 8848 1
782 1 1
782 5 1
782 41 1
782 677 1
782 1058 1
782 1953 1
782 2225 1
782 2393 1
782 3577 1
782 3814 1
782 4314 1
782 6091 1
782 6141 1
782 8623 1
782 9046 1
782 9524 1
783 129 1
783 133 1
783 380 1
783 763 1
783 6402 1
783 7041 1
784 3 1
784 65 1
784 697 1
784 714 1
784 2323 1
784 2381 1
784 4203 1
784 4344 1
784 4758 1
784 6680 1
785 9 1
785 48 1
785 152 1
785 371 1
785 948 1
785 1524 1
785 4611 1
785 8227 1
786 66 1
786 126 1
786 274 1
786 371 1
786 955 1
786 1926 1
786 2164 1
786 2430 1
786 4019 1
786 4162 1
786 4954 1
786 5554 1
786 8317 1
786 9219 1
787 157 1
787 322 1
787 356 1
787 633 1
787 1314 1
787 1995 1
787 3069 1
787 4188 1
787 4563 1
787 4638 1
787 4912 1
787 5020 1
787 6002 1
787 8870 1
787 9573 1
787 9654 1
787 9950 1
788 2 1
788 15 1
788 124 1
788 148 1
788 1001 1
788 1100 1
788 1341 1
788 2062 1
788 2219 1
788 2439 1
788 2512 1
788 2754 1
788 3063 1
788 3187 1
788 3740 1
788 4174 1
788 4394 1
788 4444 1
788 4768 1
788 4991 1
788 6064 1
788 6136 1
788 6186 1
788 6585 1
788 6691 1
788 6854 1
788 7670 1
788 7788 1
788 7899 1
789 65 1
789 133 1
789 182 1
789 285 1
789 2036 1
789 2084 1
789 2515 1
789 2787 1
789 3063 1
789 3705 1
789 5136 1
789 5650 1
789 8156 1
789 9192 1
789 9287 1
789 9550 1
790 187 1
790 227 1
790 306 1
790 449 1
790 834 1
790 1451 1
790 1894 1
790 2015 1
790 4184 1
790 4891 1
790 6366 1
790 7554 1
790 7698 1
790 7980 1
790 8104 1
790 8701 1
790 9097 1
791 6 1
791 17 1
791 473 1
791 729 1
791 924 1
791 1957 1
791 2973 1
791 3988 1
791 7726 1
791 9685 1
792 4 1
792 235 1
792 589 1
792 617 1
792 1710 1
792 2814 1
792 3343 1
792 6429 1
793 14 1
793 105 1
793 189 1
793 212 1
793 2248 1
793 2763 1
793 3156 1
793 3289 1
793 3814 1
793 7261 1
793 7282 1
794 25 1
794 33 1
794 39 1
794 170 1
794 1149 1
794 1308 1
794 2104 1
794 2222 1
794 3260 1
794 3982 1
794 4193 1
794 4727 1
794 4964 1
794 5426 1
794 6887 1
794 7322 1
794 7623 1
794 8194 1
795 25 1
795 333 1
795 347 1
795 620 1
795 3005 1
795 3221 1
795 3257 1
795 3536 1
795 3675 1
795 3687 1
795 3819 1
795 4928 1
795 6248 1
795 6404 1
796 4 1
796 36 1
796 177 1
796 272 1
796 805 1
796 1153 1
796 2910 1
796 3578 1
796 4834 1
796 6157 1
796 6808 1
796 7537 1
796 8144 1
796 9247 1
797 11 1
797 34 1
797 481 1
797 728 1
797 1372 1
797 2619 1
797 3226 1
797 3720 1
797 5079 1
797 5127 1
797 5852 1
797 6175 1
797 6826 1
797 7825 1
797 7881 1
797 8365 1
797 8847 1
797 9918 1
797 9974 1
798 11 1
798 67 1
798 365 1
798 776 1
798 902 1
798 5515 1
799 130 1
799 497 1
799 610 1
799 751 1
799 1471 1
799 2817 1
799 3563 1
799 4288 1
799 6027 1
799 6274 1
799 7779 1
799 7810 1
799 8152 1
799 8644 1
800 89 1
800 163 1
800 180 1
800 700 1
800 1062 1
800 1239 1
800 5773 1
800 6851 1
800 7763 1
800 8330 1
800 9225 1
801 25 1
801 258 1
801 473 1
801 515 1
801 2235 1
801 2797 1
801 2882 1
801 3147 1
801 3196 1
801 6333 1
801 8043 1
801 9053 1
802 5 1
802 12 1
802 13 1
802 316 1
802 2454 1
802 2875 1
802 3934 1
802 5348 1
802 5449 1
802 5515 1
802 5915 1
802 6088 1
802 6098 1
802 6449 1
802 6700 1
802 8198 1
802 8207 1
802 9764 1
803 38 1
803 73 1
803 98 1
803 731 1
803 805 1
803 1041 1
803 2152 1
803 3307 1
803 3425 1
803 3591 1
803 5111 1
803 5906 1
803 6605 1
803 7100 1
803 7431 1
803 7807 1
803 8483 1
803 8732 1
804 33 1
804 60 1
804 66 1
804 373 1
804 3005 1
804 3435 1
804 4014 1
804 4589 1
804 6301 1
804 7941 1
804 8824 1
804 9445 1
804 9743 1
805 26 1
805 265 1
805 796 1
805 803 1
805 1749 1
805 3307 1
805 4223 1
805 4554 1
805 4643 1
805 4659 1
805 4921 1
805 5372 1
805 5428 1
805 7790 1
805 7838 1
805 9132 1
806 41 1
806 243 1
806 259 1
806 344 1
806 1234 1
806 1367 1
806 1897 1
806 3832 1
806 8672 1
806 8935 1
806 9044 1
807 10 1
807 60 1
807 236 1
807 277 1
808 202 1
808 306 1
808 366 1
808 743 1
808 1735 1
808 2695 1
808 6115 1
808 7769 1
809 9 1
809 18 1
809 25 1
809 138 1
809 945 1
809 1030 1
809 1966 1
809 2047 1
809 2149 1
809 2781 1
809 2939 1
809 3785 1
809 3907 1
809 4620 1
809 5232 1
809 7738 1
809 9363 1
810 20 1
810 490 1
810 591 1
810 651 1
810 813 1
810 862 1
810 1445 1
810 1842 1
810 2122 1
810 2570 1
810 2629 1
810 3118 1
810 4532 1
810 4728 1
810 7040 1
810 7181 1
811 28 1
811 115 1
811 345 1
811 484 1
811 1407 1
811 2250 1
811 2354 1
811 4016 1
811 4829 1
811 5444 1
811 7864 1
811 8225 1
812 74 1
812 91 1
812 547 1
812 706 1
812 3902 1
812 5490 1
812 7767 1
812 7973 1
813 20 1
813 41 1
813 693 1
813 810 1
813 1139 1
813 1767 1
813 1842 1
813 2839 1
813 3679 1
813 6189 1
814 18 1
814 25 1
814 41 1
814 202 1
814 1530 1
814 1937 1
814 2669 1
814 2948 1
814 3406 1
814 3694 1
814 3747 1
814 3959 1
814 4013 1
814 4101 1
814 5548 1
814 5608 1
814 6257 1
814 6532 1
814 6719 1
814 7281 1
814 7592 1
814 7829 1
814 7864 1
814 9202 1
814 9702 1
815 1 1
815 2 1
815 25 1
815 150 1
815 978 1
815 2573 1
815 2834 1
815 5486 1
815 7877 1
816 4 1
816 12 1
816 108 1
816 454 1
816 1192 1
817 181 1
817 197 1
817 340 1
817 505 1
817 1418 1
817 2554 1
817 2976 1
817 6941 1
817 8266 1
817 9824 1
818 28 1
818 42 1
818 186 1
818 433 1
818 986 1
818 1024 1
818 2375 1
818 3152 1
818 3300 1
818 3467 1
818 4054 1
818 4435 1
818 5988 1
818 7000 1
818 7978 1
818 8341 1
818 9110 1
819 89 1
819 114 1
819 202 1
819 628 1
819 927 1
819 965 1
819 1370 1
819 1414 1
819 1942 1
819 2052 1
819 2224 1
819 2504 1
819 3349 1
819 3609 1
819 5188 1
819 6726 1
819 7913 1
819 9011 1
819 9289 1
820 2 1
820 45 1
820 73 1
820 358 1
820 1199 1
820 1449 1
820 3300 1
820 3931 1
820 4038 1
820 4048 1
820 5696 1
820 6170 1
820 7450 1
820 9426 1
821 99 1
821 194 1
821 266 1
821 516 1
821 2103 1
821 3674 1
822 11 1
822 29 1
822 59 1
822 522 1
822 1659 1
822 2555 1
822 5052 1
822 6202 1
822 6375 1
822 7902 1
822 9454 1
822 9520 1
823 4 1
823 59 1
823 185 1
823 279 1
823 1328 1
823 1542 1
823 1860 1
823 2288 1
823 2938 1
823 3034 1
823 4120 1
823 8984 1
823 9432 1
824 3 1
824 30 1
824 221 1
824 695 1
824 1207 1
824 2100 1
824 2303 1
824 2709 1
824 5972 1
825 25 1
825 107 1
825 454 1
825 469 1
825 846 1
825 895 1
825 1011 1
825 1191 1
825 1259 1
825 1481 1
825 1804 1
825 1925 1
825 1973 1
825 3183 1
825 3294 1
825 3737 1
825 3776 1
825 3873 1
825 4318 1
825 4368 1
825 4754 1
825 5586 1
825 5938 1
825 6066 1
825 6072 1
825 6284 1
825 6585 1
825 6636 1
825 6696 1
825 7263 1
825 7403 1
825 7557 1
825 7620 1
825 8515 1
826 4 1
826 11 1
826 79 1
826 290 1
826 1216 1
826 1591 1
826 1653 1
826 1792 1
826 2082 1
826 2409 1
826 3688 1
826 4892 1
826 5786 1
826 7532 1
826 7970 1
826 8523 1
826 8734 1
826 9328 1
826 9829 1
827 103 1
827 411 1
827 462 1
827 637 1
827 1573 1
827 1649 1
827 2184 1
827 2921 1
827 3265 1
827 3828 1
827 4831 1
827 5858 1
827 7549 1
827 7666 1
828 2 1
828 11 1
828 167 1
828 705 1
828 1032 1
828 1510 1
828 1635 1
828 1699 1
828 3915 1
828 4360 1
828 4784 1
828 4945 1
828 5064 1
828 5645 1
828 7405 1
828 8213 1
828 8587 1
829 137 1
829 252 1
829 610 1
829 628 1
829 2074 1
829 2991 1
829 3542 1
829 5398 1
829 9942 1
830 1 1
830 30 1
830 566 1
830 629 1
830 866 1
830 3852 1
830 4828 1
830 5000 1
830 5742 1
830 6254 1
830 8468 1
830 8741 1
831 15 1
831 92 1
831 324 1
831 545 1
831 5522 1
831 7859 1
832 5 1
832 53 1
832 81 1
832 424 1
832 1301 1
832 1358 1
832 5628 1
832 5799 1
833 36 1
833 119 1
833 155 1
833 655 1
833 1159 1
833 1325 1
833 1721 1
833 2294 1
833 2639 1
833 3566 1
833 3585 1
833 4956 1
833 6224 1
833 6363 1
833 6408 1
833 9281 1
833 9988 1
834 36 1
834 333 1
834 391 1
834 790 1
834 926 1
834 1069 1
834 1115 1
834 1600 1
834 2146 1
834 2427 1
834 5254 1
834 5806 1
834 6611 1
834 7447 1
834 8359 1
834 9267 1
834 9718 1
834 9954 1
835 9 1
835 18 1
835 163 1
835 497 1
835 2333 1
835 3033 1
835 3802 1
835 5307 1
835 7928 1
836 2 1
836 39 1
836 319 1
836 698 1
836 1374 1
836 1406 1
836 1411 1
836 3157 1
836 3496 1
836 3770 1
836 4416 1
836 5564 1
837 1 1
837 50 1
837 223 1
837 224 1
837 1112 1
837 1187 1
837 1547 1
837 2138 1
837 2188 1
837 3884 1
837 4298 1
837 5026 1
837 6671 1
837 8361 1
838 4 1
838 74 1
838 431 1
838 594 1
838 915 1
838 1184 1
838 3457 1
838 4650 1
838 4786 1
838 6225 1
838 6389 1
838 7702 1
838 9158 1
838 9733 1
838 9755 1
839 188 1
839 399 1
839 475 1
839 693 1
839 980 1
839 1073 1
839 1204 1
839 1906 1
839 2701 1
839 2711 1
839 3191 1
839 4610 1
839 4812 1
839 6103 1
839 6840 1
839 7180 1
839 9663 1
840 27 1
840 113 1
840 205 1
840 226 1
840 3492 1
840 4337 1
840 4464 1
840 6857 1
840 8354 1
841 150 1
841 213 1
841 451 1
841 487 1
841 954 1
841 998 1
841 1425 1
841 2867 1
841 3604 1
841 3690 1
841 4011 1
841 4549 1
841 5056 1
841 5545 1
841 6834 1
841 7094 1
841 7879 1
841 8075 1
842 1 1
842 43 1
842 213 1
842 340 1
842 1268 1
842 1799 1
842 1982 1
842 2468 1
842 2903 1
842 3009 1
842 3049 1
842 3162 1
842 3327 1
842 3600 1
842 4808 1
842 5676 1
842 5865 1
842 6545 1
842 7340 1
842 7502 1
842 8617 1
843 35 1
843 82 1
843 129 1
843 131 1
843 2443 1
843 5837 1
844 21 1
844 154 1
844 217 1
844 231 1
844 935 1
844 966 1
844 1213 1
844 3075 1
844 4026 1
844 4035 1
844 7510 1
844 8408 1
844 8776 1
844 8894 1
845 10 1
845 27 1
845 91 1
845 254 1
845 1679 1
845 1954 1
845 2296 1
845 3689 1
845 4018 1
845 6469 1
845 6797 1
846 25 1
846 41 1
846 103 1
846 825 1
846 1011 1
846 1652 1
846 2396 1
846 3471 1
846 7015 1
847 36 1
847 52 1
847 354 1
847 422 1
847 952 1
847 1165 1
847 2057 1
847 5370 1
847 6905 1
847 6918 1
847 8690 1
847 8833 1
847 9294 1
847 9338 1
847 9913 1
848 10 1
848 185 1
848 204 1
848 649 1
848 1465 1
848 2238 1
848 2414 1
848 2645 1
848 3433 1
848 3868 1
848 3996 1
848 4222 1
848 4738 1
848 5180 1
848 6792 1
848 7764 1
848 9790 1
848 9886 1
849 12 1
849 137 1
849 332 1
849 421 1
849 955 1
849 994 1
849 1143 1
849 1205 1
849 1590 1
849 2047 1
849 2386 1
849 2575 1
849 3664 1
849 4067 1
849 4696 1
849 4886 1
849 5477 1
849 6064 1
849 6454 1
849 7278 1
849 8707 1
850 124 1
850 129 1
850 278 1
850 315 1
850 1052 1
850 1946 1
850 3124 1
850 3678 1
850 4744 1
850 5374 1
850 5840 1
850 7457 1
850 8528 1
851 19 1
851 215 1
851 233 1
851 236 1
851 1161 1
851 2173 1
851 2319 1
851 3015 1
851 3864 1
851 5966 1
852 4 1
852 11 1
852 18 1
852 737 1
852 906 1
852 1089 1
852 1276 1
852 1443 1
852 1489 1
852 2266 1
852 2340 1
852 2631 1
852 2857 1
852 4316 1
852 4581 1
852 4900 1
852 8270 1
852 9033 1
853 11 1
853 58 1
853 395 1
853 777 1
853 938 1
853 1188 1
853 2630 1
853 3089 1
853 3161 1
853 4166 1
853 4824 1
853 4861 1
853 5609 1
853 5803 1
853 6263 1
853 6304 1
853 7298 1
853 7401 1
853 7823 1
853 9177 1
854 127 1
854 150 1
854 207 1
854 323 1
854 974 1
854 2718 1
854 3136 1
854 5010 1
854 7252 1
854 7584 1
854 8862 1
854 9763 1
855 11 1
855 15 1
855 48 1
855 569 1
855 1126 1
855 1743 1
855 6194 1
856 66 1
856 141 1
856 421 1
856 677 1
856 2644 1
856 3955 1
856 4110 1
856 5120 1
857 80 1
857 146 1
857 278 1
857 625 1
857 3114 1
857 9770 1
858 11 1
858 67 1
858 577 1
858 590 1
858 907 1
858 1099 1
858 1156 1
858 1194 1
858 1347 1
858 1349 1
858 1584 1
858 1589 1
858 1592 1
858 1645 1
858 1743 1
858 1777 1
858 1795 1
858 2360 1
858 2474 1
858 2837 1
858 3763 1
858 4026 1
858 4307 1
858 4399 1
858 4513 1
858 4722 1
858 4902 1
858 5587 1
858 6156 1
858 6241 1
858 6371 1
858 7530 1
858 7662 1
858 7682 1
858 7914 1
858 8401 1
858 9260 1
858 9613 1
859 49 1
859 58 1
859 63 1
859 701 1
859 1716 1
859 4136 1
859 6907 1
859 9812 1
860 66 1
860 73 1
860 441 1
860 721 1
860 1478 1
860 1782 1
860 3582 1
860 3595 1
860 4164 1
860 4206 1
860 8632 1
861 2 1
861 118 1
861 385 1
861 661 1
861 1378 1
861 1488 1
861 1591 1
861 2050 1
861 2672 1
861 4607 1
861 4609 1
862 91 1
862 100 1
862 121 1
862 810 1
862 1015 1
862 3680 1
862 3995 1
862 4387 1
863 59 1
863 89 1
863 295 1
863 493 1
863 1121 1
863 1272 1
863 2121 1
863 6215 1
863 6641 1
863 7288 1
864 19 1
864 94 1
864 562 1
864 748 1
864 3145 1
864 3249 1
864 3677 1
864 9561 1
865 49 1
865 259 1
865 395 1
865 485 1
865 1016 1
865 1276 1
865 1470 1
865 1667 1
865 1703 1
865 2055 1
865 2368 1
865 3101 1
865 3161 1
865 3389 1
865 3412 1
865 3796 1
865 4214 1
865 4253 1
865 4496 1
865 5067 1
865 5543 1
865 5609 1
865 6465 1
865 6539 1
865 7520 1
865 7577 1
865 7971 1
865 8463 1
865 9184 1
865 9456 1
866 10 1
866 38 1
866 629 1
866 830 1
866 1138 1
866 2745 1
866 2897 1
866 3069 1
866 3886 1
866 5375 1
866 6084 1
866 7415 1
866 9048 1
866 9277 1
866 9594 1
867 11 1
867 18 1
867 36 1
867 430 1
867 1198 1
867 1484 1
867 1526 1
867 3068 1
867 3468 1
867 4016 1
867 5139 1
867 5157 1
867 8188 1
868 25 1
868 163 1
868 380 1
868 762 1
868 922 1
868 978 1
868 1319 1
868 1528 1
868 2592 1
868 2820 1
868 3179 1
868 3404 1
868 4546 1
868 4593 1
868 4627 1
868 4742 1
868 5181 1
868 5380 1
868 6185 1
868 6963 1
868 7605 1
868 8051 1
868 8330 1
868 8394 1
868 8415 1
868 9541 1
869 3 1
869 85 1
869 137 1
869 720 1
869 1027 1
869 1072 1
869 1170 1
869 1247 1
869 1869 1
869 2663 1
869 2748 1
869 2772 1
869 3937 1
869 6329 1
869 6726 1
869 8916 1
869 9421 1
870 13 1
870 14 1
870 44 1
870 456 1
870 1493 1
870 2748 1
871 5 1
871 11 1
871 17 1
871 57 1
871 876 1
871 991 1
871 1316 1
871 2142 1
871 2307 1
871 2939 1
871 4427 1
871 7031 1
871 7244 1
871 7381 1
871 8066 1
871 9339 1
872 52 1
872 194 1
872 273 1
872 738 1
872 1196 1
872 1235 1
872 3292 1
872 7755 1
872 9136 1
873 1 1
873 8 1
873 43 1
873 74 1
873 981 1
873 1435 1
873 1770 1
873 3200 1
873 3407 1
873 3785 1
873 4301 1
873 5338 1
873 9847 1
874 194 1
874 213 1
874 758 1
874 779 1
874 1025 1
874 2359 1
874 2517 1
874 3713 1
874 5293 1
874 5922 1
874 6493 1
874 7270 1
874 7410 1
874 7954 1
874 7996 1
874 9323 1
875 18 1
875 41 1
875 418 1
875 755 1
875 936 1
875 1569 1
875 3321 1
875 3999 1
875 5626 1
875 5846 1
875 6239 1
875 6660 1
875 7222 1
875 7987 1
876 4 1
876 41 1
876 172 1
876 871 1
876 1354 1
876 1681 1
876 4863 1
876 5054 1
876 5284 1
876 6332 1
877 18 1
877 180 1
877 202 1
877 465 1
877 937 1
877 1424 1
877 1680 1
877 1751 1
877 2355 1
877 3459 1
877 4568 1
877 4986 1
877 5178 1
877 5559 1
877 6659 1
877 6751 1
877 6939 1
877 9920 1
878 2 1
878 76 1
878 128 1
878 141 1
878 1148 1
878 1348 1
878 4757 1
878 7931 1
878 8249 1
879 13 1
879 17 1
879 187 1
879 538 1
879 1623 1
879 1635 1
879 2009 1
879 6675 1
879 9012 1
880 11 1
880 149 1
880 467 1
880 707 1
880 3755 1
880 4054 1
880 6280 1
880 7177 1
881 18 1
881 316 1
881 438 1
881 673 1
881 1176 1
881 1397 1
881 2051 1
881 2061 1
881 2101 1
881 2229 1
881 3176 1
881 3289 1
881 3336 1
881 4241 1
881 4639 1
881 5071 1
881 5565 1
881 5597 1
881 6026 1
881 6065 1
881 6392 1
881 7254 1
881 7639 1
881 7894 1
881 8248 1
881 9835 1
882 19 1
882 272 1
882 310 1
882 699 1
882 1054 1
882 1938 1
882 2599 1
882 2614 1
882 3333 1
882 3733 1
882 4366 1
882 5701 1
882 6034 1
882 7262 1
882 7917 1
882 8907 1
882 9106 1
882 9808 1
883 73 1
883 91 1
883 459 1
883 738 1
883 1305 1
883 1585 1
883 2207 1
883 3655 1
883 3969 1
883 4183 1
883 6449 1
883 7119 1
883 7137 1
883 8031 1
883 8191 1
884 2 1
884 9 1
884 13 1
884 273 1
884 1231 1
884 1963 1
884 3116 1
884 3553 1
884 6309 1
884 6455 1
884 7924 1
884 9507 1
885 11 1
885 82 1
885 171 1
885 418 1
885 953 1
885 1875 1
885 2370 1
885 2915 1
885 3018 1
885 3100 1
885 3128 1
885 3266 1
885 3708 1
885 3746 1
885 4127 1
885 4365 1
885 4591 1
885 4995 1
885 6158 1
885 6406 1
885 8215 1
885 8232 1
885 8529 1
885 8653 1
886 1 1
886 19 1
886 51 1
886 576 1
886 1857 1
886 4251 1
886 4618 1
886 6663 1
886 7730 1
886 9637 1
887 18 1
887 161 1
887 244 1
887 483 1
887 995 1
887 1026 1
887 1403 1
887 1518 1
887 1534 1
887 1691 1
887 2933 1
887 3904 1
887 5559 1
887 5577 1
887 7078 1
888 27 1
888 192 1
888 275 1
888 598 1
888 7482 1
888 8947 1
889 17 1
889 20 1
889 50 1
889 576 1
889 1034 1
889 1073 1
889 1258 1
889 1425 1
889 1647 1
889 1688 1
889 1693 1
889 1780 1
889 1819 1
889 1833 1
889 1977 1
889 2125 1
889 2186 1
889 2425 1
889 2586 1
889 2708 1
889 2950 1
889 3479 1
889 3620 1
889 4047 1
889 4505 1
889 5562 1
889 5598 1
889 5860 1
889 5879 1
889 5891 1
889 5954 1
889 6546 1
889 6717 1
889 6998 1
889 7638 1
889 7769 1
889 7979 1
889 8467 1
889 8540 1
889 9375 1
890 190 1
890 319 1
890 421 1
890 764 1
890 2237 1
890 2586 1
890 2913 1
890 5797 1
890 5933 1
890 6359 1
890 6400 1
890 6545 1
890 7366 1
890 8011 1
891 4 1
891 5 1
891 626 1
891 756 1
891 2697 1
891 2843 1
891 3305 1
891 4149 1
891 4395 1
891 4933 1
891 8506 1
892 41 1
892 49 1
892 74 1
892 640 1
892 898 1
892 2310 1
892 2706 1
892 2810 1
892 3278 1
892 3760 1
892 3919 1
892 4446 1
892 5024 1
892 6124 1
892 6209 1
893 43 1
893 73 1
893 133 1
893 308 1
893 1223 1
893 3588 1
893 4126 1
893 6031 1
893 9472 1
894 75 1
894 108 1
894 242 1
894 322 1
894 4966 1
894 7846 1
894 8536 1
895 1 1
895 325 1
895 581 1
895 825 1
895 1262 1
895 2249 1
895 2935 1
895 3294 1
895 5716 1
895 5859 1
895 6045 1
895 9199 1
895 9534 1
896 11 1
896 66 1
896 311 1
896 532 1
896 4024 1
896 8258 1
897 38 1
897 323 1
897 491 1
897 546 1
897 1127 1
897 1273 1
897 1513 1
897 1663 1
897 1694 1
897 2144 1
897 2516 1
897 2891 1
897 3661 1
897 4995 1
897 5689 1
897 5875 1
897 6079 1
897 6290 1
897 7991 1
897 8238 1
897 8410 1
897 8491 1
898 74 1
898 640 1
898 659 1
898 892 1
898 975 1
898 1139 1
898 2687 1
898 5048 1
898 5221 1
898 6145 1
898 7372 1
898 7835 1
898 9189 1
899 6 1
899 10 1
899 225 1
899 226 1
899 911 1
899 2560 1
899 3108 1
899 3614 1
899 5149 1
899 5812 1
899 6795 1
899 7495 1
899 9679 1
900 65 1
900 124 1
900 238 1
900 315 1
900 3462 1
900 9605 1
900 9720 1
901 97 1
901 163 1
901 323 1
901 516 1
901 1332 1
901 5830 1
902 50 1
902 235 1
902 509 1
902 798 1
902 1831 1
902 2165 1
902 3125 1
902 3455 1
902 4322 1
903 7 1
903 170 1
903 515 1
903 676 1
903 1077 1
903 4610 1
903 6953 1
904 18 1
904 25 1
904 38 1
904 339 1
904 923 1
904 2240 1
904 2904 1
904 3039 1
904 3561 1
904 4997 1
904 6296 1
904 6371 1
904 9312 1
905 20 1
905 73 1
905 123 1
905 300 1
905 1915 1
905 2583 1
905 3699 1
905 4686 1
905 5486 1
905 6746 1
905 8348 1
905 8729 1
905 8763 1
905 9647 1
906 14 1
906 43 1
906 261 1
906 852 1
906 915 1
906 1089 1
906 1308 1
906 1452 1
906 1693 1
906 2109 1
906 2275 1
906 2299 1
906 2432 1
906 2533 1
906 2534 1
906 2631 1
906 3641 1
906 3707 1
906 3856 1
906 4750 1
906 5355 1
906 5572 1
906 5687 1
906 6552 1
906 6572 1
906 6793 1
906 6830 1
906 7029 1
906 7037 1
906 7380 1
906 7772 1
906 7997 1
906 9055 1
906 9767 1
906 9843 1
907 1 1
907 3 1
907 628 1
907 858 1
907 2365 1
907 2496 1
907 3379 1
907 3660 1
907 4099 1
907 4413 1
907 4617 1
907 4756 1
907 9985 1
908 11 1
908 51 1
908 297 1
908 409 1
908 1640 1
908 1932 1
908 3437 1
908 4241 1
908 7990 1
908 8659 1
909 3 1
909 13 1
909 92 1
909 277 1
909 4904 1
909 6339 1
909 6686 1
909 7228 1
909 7672 1
909 9429 1
910 19 1
910 220 1
910 572 1
910 642 1
910 950 1
910 956 1
910 1475 1
910 1902 1
910 3045 1
910 3711 1
910 3817 1
910 5951 1
910 8091 1
911 9 1
911 10 1
911 61 1
911 899 1
911 1010 1
911 5812 1
912 11 1
912 116 1
912 247 1
912 258 1
912 2509 1
912 4473 1
912 6128 1
913 4 1
913 31 1
913 89 1
913 291 1
913 953 1
913 1284 1
913 1541 1
913 1554 1
913 1662 1
913 1939 1
913 2065 1
913 2139 1
913 2789 1
913 3130 1
913 3519 1
913 3539 1
913 3750 1
913 3847 1
913 4041 1
913 4352 1
913 4974 1
913 5487 1
913 6142 1
913 6520 1
913 7990 1
913 8013 1
913 9105 1
913 9841 1
914 49 1
914 261 1
914 357 1
914 557 1
914 1214 1
914 1392 1
914 1465 1
914 1819 1
914 2747 1
914 2765 1
914 2978 1
914 3870 1
914 4212 1
914 4589 1
914 7843 1
914 8148 1
914 8166 1
914 8481 1
915 17 1
915 431 1
915 838 1
915 906 1
915 1036 1
915 1089 1
915 1155 1
915 1280 1
915 1502 1
915 1611 1
915 2354 1
915 2430 1
915 2726 1
915 2827 1
915 3121 1
915 3215 1
915 3737 1
915 3954 1
915 4181 1
915 6063 1
915 6382 1
915 7383 1
915 8243 1
915 8658 1
915 8912 1
915 8985 1
915 9026 1
915 9032 1
916 9 1
916 207 1
916 462 1
916 710 1
916 2064 1
916 3129 1
916 3331 1
916 8124 1
916 9546 1
917 21 1
917 77 1
917 268 1
917 521 1
917 2435 1
917 7586 1
917 8664 1
917 9186 1
918 2 1
918 276 1
918 465 1
918 675 1
918 1286 1
918 2529 1
918 3587 1
918 4329 1
918 4371 1
918 5619 1
918 5705 1
918 6007 1
918 6504 1
918 9362 1
919 102 1
919 134 1
919 234 1
919 672 1
919 1271 1
919 1295 1
919 2565 1
919 5426 1
919 6232 1
919 6392 1
919 8030 1
920 1 1
920 45 1
920 132 1
920 548 1
920 982 1
920 1190 1
920 2239 1
920 3886 1
920 5862 1
920 7904 1
920 8175 1
920 9737 1
921 35 1
921 52 1
921 312 1
921 498 1
921 1242 1
921 1842 1
921 2920 1
921 2993 1
921 3245 1
921 4512 1
921 5926 1
921 6530 1
921 8445 1
922 2 1
922 163 1
922 549 1
922 868 1
922 1815 1
922 2820 1
922 2923 1
922 4145 1
922 4627 1
922 7401 1
922 7605 1
922 8394 1
923 25 1
923 266 1
923 531 1
923 904 1
923 1683 1
923 1960 1
923 2904 1
923 3090 1
923 4536 1
923 5186 1
923 7938 1
924 6 1
924 426 1
924 437 1
924 791 1
924 1023 1
924 1520 1
924 2109 1
924 2729 1
924 8970 1
924 9795 1
925 11 1
925 28 1
925 541 1
925 678 1
925 1014 1
925 1793 1
925 5442 1
925 7426 1
925 7720 1
925 7905 1
925 8390 1
925 8656 1
926 21 1
926 162 1
926 476 1
926 834 1
926 1821 1
926 2119 1
926 3156 1
926 4571 1
926 4608 1
927 5 1
927 11 1
927 640 1
927 819 1
927 1037 1
927 2052 1
927 2224 1
927 2250 1
927 2665 1
927 4605 1
927 5188 1
927 9393 1
928 131 1
928 197 1
928 446 1
928 447 1
928 2519 1
928 2982 1
929 99 1
929 141 1
929 238 1
929 677 1
929 968 1
929 1222 1
929 2048 1
929 2062 1
929 4400 1
929 4731 1
929 4882 1
929 5201 1
929 5283 1
929 5304 1
929 5660 1
929 5999 1
929 6498 1
929 6508 1
929 6585 1
929 7260 1
929 7286 1
929 8422 1
929 9772 1
929 9809 1
929 9813 1
929 9957 1
930 10 1
930 17 1
930 478 1
930 610 1
930 1060 1
930 1071 1
930 1295 1
930 1503 1
930 1606 1
930 2347 1
930 2401 1
930 3181 1
930 3629 1
930 4089 1
930 4281 1
930 4508 1
930 4700 1
930 5590 1
930 5843 1
930 7357 1
930 7808 1
930 8122 1
930 9539 1
930 9627 1
931 8 1
931 9 1
931 91 1
931 531 1
931 1003 1
931 1006 1
931 1381 1
931 1563 1
931 3456 1
931 3702 1
931 3752 1
931 3773 1
931 3785 1
931 4617 1
931 5615 1
931 5747 1
931 6822 1
931 7140 1
931 7227 1
931 7399 1
931 8611 1
931 8961 1
931 9930 1
932 33 1
932 57 1
932 290 1
932 642 1
932 2883 1
932 2913 1
932 3378 1
932 4167 1
932 4328 1
932 5050 1
932 5570 1
932 6089 1
932 6994 1
932 8740 1
932 8905 1
933 113 1
933 216 1
933 322 1
933 583 1
933 1671 1
933 1915 1
933 2215 1
933 2593 1
933 3141 1
933 3668 1
933 5198 1
933 5200 1
934 11 1
934 369 1
934 465 1
934 589 1
934 1247 1
934 3489 1
934 4721 1
934 6729 1
934 8264 1
934 9229 1
934 9245 1
935 21 1
935 27 1
935 231 1
935 844 1
935 1726 1
935 3429 1
935 3900 1
935 7079 1
935 9385 1
936 1 1
936 6 1
936 418 1
936 875 1
936 2863 1
937 2 1
937 180 1
937 342 1
937 877 1
937 1010 1
937 1310 1
937 1918 1
937 1936 1
937 2162 1
937 3626 1
937 3899 1
937 4295 1
937 4568 1
937 4832 1
937 4998 1
937 5961 1
937 6576 1
937 6619 1
937 7106 1
937 7230 1
937 9168 1
937 9644 1
938 5 1
938 25 1
938 49 1
938 853 1
938 1209 1
938 1256 1
938 1291 1
938 1903 1
938 1985 1
938 2061 1
938 2463 1
938 2630 1
938 3734 1
938 3766 1
938 4105 1
938 4190 1
938 5121 1
938 6000 1
938 6262 1
938 6373 1
938 6442 1
938 7537 1
938 7883 1
938 8506 1
939 38 1
939 303 1
939 353 1
939 628 1
939 1797 1
939 3105 1
939 3216 1
939 3565 1
939 4382 1
939 4904 1
939 5935 1
939 6353 1
939 6788 1
939 7006 1
939 7155 1
939 7817 1
939 8101 1
939 9325 1
939 9688 1
939 9973 1
940 73 1
940 259 1
940 298 1
940 618 1
940 1090 1
940 1221 1
940 1351 1
940 2931 1
940 3110 1
940 5474 1
940 7212 1
940 7551 1
940 7936 1
940 8525 1
940 8553 1
940 9395 1
940 9641 1
941 1 1
941 6 1
941 26 1
941 350 1
941 1092 1
941 1638 1
941 3855 1
941 4315 1
941 4870 1
941 4906 1
941 7615 1
941 7663 1
941 8165 1
941 8770 1
942 58 1
942 132 1
942 606 1
942 767 1
942 1001 1
942 1160 1
942 1602 1
942 1633 1
942 2317 1
942 2464 1
942 4491 1
942 7630 1
942 8932 1
943 9 1
943 33 1
943 461 1
943 604 1
943 2716 1
943 3744 1
943 4921 1
943 6415 1
943 6743 1
943 7602 1
943 8059 1
943 8385 1
943 9099 1
944 1 1
944 158 1
944 285 1
944 526 1
944 1297 1
944 1562 1
944 4345 1
944 5323 1
944 7621 1
944 7779 1
944 8495 1
945 225 1
945 317 1
945 474 1
945 809 1
945 1017 1
945 1283 1
945 1672 1
945 1768 1
945 2205 1
945 2643 1
945 2749 1
945 3990 1
945 4359 1
945 4748 1
945 4958 1
945 5037 1
945 5386 1
945 6228 1
945 8863 1
945 9180 1
945 9218 1
946 5 1
946 50 1
946 65 1
946 237 1
946 2068 1
946 4566 1
946 4710 1
946 4785 1
946 6249 1
946 6260 1
946 6340 1
946 7330 1
946 9423 1
947 5 1
947 12 1
947 324 1
947 329 1
947 1147 1
947 2987 1
947 3104 1
947 4338 1
947 4485 1
947 4865 1
947 5205 1
947 8882 1
948 2 1
948 361 1
948 776 1
948 785 1
948 4611 1
948 5991 1
949 17 1
949 359 1
949 404 1
949 622 1
949 1734 1
949 2192 1
949 2392 1
949 8744 1
950 19 1
950 120 1
950 411 1
950 910 1
950 1125 1
950 6658 1
950 7769 1
950 7908 1
950 8728 1
951 54 1
951 209 1
951 515 1
951 532 1
951 1186 1
951 3877 1
951 5733 1
951 9603 1
952 18 1
952 337 1
952 354 1
952 847 1
952 1388 1
952 2233 1
952 6150 1
952 7813 1
952 8858 1
953 4 1
953 418 1
953 885 1
953 913 1
953 1541 1
953 2370 1
953 3100 1
953 3649 1
953 4099 1
953 4127 1
953 4494 1
953 4591 1
953 5093 1
953 5497 1
953 5894 1
953 5936 1
953 5952 1
953 6326 1
953 7802 1
953 8211 1
954 42 1
954 372 1
954 634 1
954 841 1
954 1366 1
954 1989 1
954 2345 1
954 2819 1
954 3136 1
954 3730 1
954 5651 1
954 6075 1
955 10 1
955 216 1
955 786 1
955 849 1
955 994 1
955 1205 1
955 1642 1
955 2296 1
955 2328 1
955 2579 1
955 2622 1
955 2910 1
955 3089 1
955 3664 1
955 4651 1
955 6320 1
955 8502 1
955 8534 1
955 9391 1
955 9744 1
956 19 1
956 268 1
956 572 1
956 910 1
956 1238 1
956 1718 1
956 3848 1
956 4402 1
956 5624 1
956 8212 1
957 34 1
957 81 1
957 467 1
957 509 1
957 1506 1
957 1698 1
957 4114 1
957 5451 1
957 6883 1
957 7732 1
957 9731 1
957 9980 1
958 73 1
958 330 1
958 358 1
958 568 1
958 1363 1
958 2113 1
958 2343 1
958 2585 1
958 4841 1
958 4926 1
958 5134 1
958 5323 1
958 7621 1
958 8375 1
958 8547 1
959 5 1
959 43 1
959 209 1
959 266 1
959 1120 1
959 1696 1
959 2599 1
959 4299 1
959 5593 1
959 7633 1
959 9031 1
960 34 1
960 49 1
960 66 1
960 155 1
960 2259 1
960 2854 1
961 10 1
961 43 1
961 216 1
961 483 1
961 1677 1
961 2719 1
961 2806 1
961 3520 1
961 6322 1
961 9380 1
962 4 1
962 127 1
962 329 1
962 762 1
963 11 1
963 278 1
963 356 1
963 522 1
963 1109 1
963 1182 1
963 1445 1
963 1566 1
963 1578 1
963 2080 1
963 2118 1
963 2312 1
963 3765 1
963 4388 1
963 5328 1
963 6267 1
963 7969 1
963 8527 1
963 9697 1
964 2 1
964 97 1
964 331 1
964 715 1
964 1949 1
964 2022 1
964 3799 1
964 4246 1
964 4755 1
964 5137 1
964 6540 1
964 7948 1
964 8756 1
965 30 1
965 89 1
965 161 1
965 819 1
965 1367 1
965 1477 1
965 1942 1
965 2169 1
965 2542 1
965 3917 1
965 4042 1
965 4143 1
965 4772 1
965 5477 1
965 5511 1
965 6618 1
965 8085 1
965 9289 1
966 10 1
966 21 1
966 179 1
966 844 1
966 1036 1
966 1103 1
966 1874 1
966 2186 1
966 4384 1
966 4564 1
966 5126 1
966 6398 1
966 6961 1
966 7065 1
966 8632 1
966 9440 1
967 5 1
967 89 1
967 297 1
967 561 1
967 3901 1
967 6343 1
967 7894 1
968 141 1
968 225 1
968 580 1
968 929 1
968 2391 1
968 2533 1
968 4238 1
968 4551 1
968 5660 1
968 9809 1
968 9854 1
969 139 1
969 338 1
969 433 1
969 518 1
969 1085 1
969 3386 1
969 5629 1
969 5980 1
969 6574 1
969 7589 1
969 8245 1
969 9262 1
970 17 1
970 82 1
970 233 1
970 415 1
970 2222 1
970 2410 1
970 2468 1
970 3391 1
970 4853 1
970 5080 1
970 5379 1
970 8289 1
970 8537 1
971 43 1
971 238 1
971 364 1
971 699 1
971 1350 1
971 1393 1
971 1566 1
971 1614 1
971 2293 1
971 2605 1
971 3811 1
971 3987 1
971 4439 1
971 4622 1
971 4880 1
971 4920 1
971 5266 1
971 5832 1
971 5861 1
971 5883 1
971 5900 1
971 5945 1
971 6271 1
971 6540 1
971 6801 1
971 6810 1
971 6988 1
971 7494 1
971 8655 1
971 8866 1
972 35 1
972 171 1
972 185 1
972 443 1
972 1076 1
972 2070 1
972 2211 1
972 2938 1
972 3366 1
972 4367 1
972 8759 1
972 9196 1
973 27 1
973 462 1
973 486 1
973 510 1
973 1386 1
973 1399 1
973 1706 1
973 1945 1
973 2008 1
973 2285 1
973 3296 1
973 6127 1
973 8139 1
974 147 1
974 531 1
974 662 1
974 854 1
974 7799 1
975 17 1
975 659 1
975 764 1
975 898 1
975 2059 1
975 2131 1
975 3197 1
975 3978 1
975 4418 1
975 4726 1
975 4930 1
975 5221 1
975 6872 1
975 7098 1
975 8014 1
975 9503 1
976 6 1
976 9 1
976 506 1
976 708 1
976 3606 1
977 100 1
977 170 1
977 317 1
977 677 1
977 1900 1
977 1941 1
977 2256 1
977 2978 1
977 3375 1
977 3420 1
977 9528 1
978 10 1
978 380 1
978 815 1
978 868 1
978 2302 1
978 2641 1
978 3142 1
978 3404 1
978 4452 1
978 4546 1
978 4798 1
978 4886 1
978 7605 1
978 7919 1
978 8051 1
978 8415 1
978 9141 1
979 137 1
979 159 1
979 441 1
979 481 1
979 1047 1
979 1215 1
979 1300 1
979 1595 1
979 2427 1
979 2671 1
979 2785 1
979 3138 1
979 3598 1
979 4192 1
979 4451 1
979 5397 1
979 5862 1
979 6029 1
979 6906 1
979 8193 1
979 9011 1
979 9084 1
980 18 1
980 54 1
980 370 1
980 839 1
980 2099 1
980 2430 1
980 3180 1
980 4213 1
980 5798 1
980 6840 1
980 7166 1
980 7934 1
981 8 1
981 85 1
981 532 1
981 873 1
981 1335 1
981 1389 1
981 1708 1
981 2201 1
981 2288 1
981 3280 1
981 3906 1
981 4541 1
981 5285 1
981 6566 1
981 7088 1
982 4 1
982 46 1
982 699 1
982 920 1
982 1572 1
982 1745 1
982 1990 1
982 2043 1
982 2220 1
982 2729 1
982 2809 1
982 2890 1
982 2915 1
982 3771 1
982 4290 1
982 5302 1
982 5734 1
982 5802 1
982 5861 1
982 7364 1
982 7433 1
982 8232 1
982 8425 1
982 9462 1
983 41 1
983 249 1
983 268 1
983 629 1
983 1728 1
983 2251 1
983 2620 1
983 3903 1
983 5308 1
983 5730 1
983 5862 1
983 9999 1
984 10 1
984 12 1
984 244 1
984 643 1
984 1232 1
984 2992 1
984 7204 1
985 49 1
985 99 1
985 264 1
985 378 1
985 1084 1
985 1173 1
985 1450 1
985 1756 1
985 2237 1
985 2422 1
985 3772 1
985 4410 1
985 5318 1
985 5486 1
985 7798 1
985 9915 1
986 150 1
986 226 1
986 721 1
986 818 1
986 1038 1
986 1514 1
986 1598 1
986 3227 1
986 3234 1
986 3466 1
986 5240 1
986 7625 1
986 8037 1
986 8341 1
986 8350 1
987 21 1
987 115 1
987 173 1
987 298 1
987 1253 1
987 1556 1
987 1593 1
987 2306 1
987 2644 1
987 3291 1
987 3706 1
987 4058 1
987 4447 1
987 4583 1
987 4746 1
987 5028 1
987 5768 1
987 5989 1
987 6676 1
987 6686 1
987 8957 1
987 9617 1
987 9767 1
987 9836 1
988 66 1
988 364 1
988 391 1
988 502 1
988 1585 1
988 3829 1
988 5469 1
989 329 1
989 340 1
989 363 1
989 524 1
989 1225 1
989 1654 1
989 1890 1
989 1892 1
989 3128 1
989 3271 1
989 3762 1
989 7210 1
989 7402 1
989 9695 1
990 20 1
990 167 1
990 269 1
990 339 1
990 1018 1
990 1411 1
990 1466 1
990 1981 1
990 2236 1
990 2568 1
990 3967 1
990 4999 1
990 6787 1
990 7760 1
991 196 1
991 283 1
991 583 1
991 871 1
991 1053 1
991 1316 1
991 1494 1
991 1518 1
991 5981 1
991 6377 1
991 6923 1
991 7031 1
991 8191 1
991 8848 1
991 9270 1
992 174 1
992 379 1
992 443 1
992 526 1
992 2660 1
992 9144 1
993 60 1
993 92 1
993 522 1
993 564 1
993 1438 1
993 1502 1
993 1824 1
993 2112 1
993 2566 1
993 3306 1
993 5009 1
993 6134 1
993 6743 1
993 7133 1
993 8122 1
994 4 1
994 216 1
994 849 1
994 955 1
994 1590 1
994 2328 1
994 2386 1
994 2622 1
994 4691 1
994 4775 1
994 5191 1
994 5677 1
994 6288 1
994 6454 1
994 6940 1
994 7666 1
994 8753 1
994 8967 1
995 18 1
995 160 1
995 484 1
995 887 1
995 1361 1
995 1557 1
995 1742 1
995 1903 1
995 2684 1
995 2690 1
995 3753 1
995 4326 1
995 4571 1
995 4778 1
995 5159 1
995 5838 1
995 7483 1
995 7994 1
995 8132 1
995 8934 1
996 59 1
996 75 1
996 295 1
996 762 1
996 1754 1
996 1870 1
996 2190 1
996 3019 1
996 5555 1
996 7406 1
996 8079 1
997 133 1
997 265 1
997 297 1
997 709 1
997 1008 1
997 1013 1
997 1375 1
997 1809 1
997 2364 1
997 2447 1
997 2733 1
997 3671 1
997 4060 1
997 4564 1
997 6849 1
997 8018 1
997 8749 1
998 150 1
998 213 1
998 487 1
998 841 1
999 18 1
999 178 1
999 214 1
999 731 1
999 1334 1
999 4398 1
1000 5 1
1000 38 1
1000 491 1
1000 692 1
1000 6536 1
1001 92 1
1001 545 1
1001 788 1
1001 942 1
1001 1697 1
1001 1913 1
1001 2240 1
1001 4258 1
1001 4990 1
1001 5738 1
1001 6756 1
1001 8134 1
1001 8154 1
1002 69 1
1002 452 1
1002 506 1
1002 595 1
1002 1193 1
1002 1807 1
1002 3283 1
1002 3985 1
1002 4676 1
1002 4969 1
1002 5216 1
1002 6369 1
1003 168 1
1003 465 1
1003 549 1
1003 931 1
1003 1006 1
1003 1201 1
1003 1228 1
1003 3301 1
1003 6800 1
1003 7538 1
1003 8055 1
1004 57 1
1004 403 1
1004 438 1
1004 506 1
1004 2127 1
1004 6137 1
1004 7868 1
1004 8207 1
1004 8519 1
1005 97 1
1005 111 1
1005 281 1
1005 487 1
1005 1055 1
1005 2533 1
1005 3370 1
1005 8358 1
1006 54 1
1006 613 1
1006 931 1
1006 1003 1
1006 1860 1
1006 3485 1
1006 9282 1
1007 74 1
1007 91 1
1007 210 1
1007 695 1
1007 2297 1
1007 7867 1
1007 8399 1
1007 9298 1
1008 94 1
1008 265 1
1008 778 1
1008 997 1
1008 1132 1
1008 1713 1
1008 1743 1
1008 3443 1
1009 41 1
1009 134 1
1009 586 1
1009 610 1
1009 1480 1
1009 1687 1
1009 1867 1
1009 1995 1
1009 2338 1
1009 2525 1
1009 2886 1
1009 3058 1
1009 3719 1
1009 5271 1
1009 5333 1
1009 5339 1
1009 6210 1
1009 6466 1
1009 6963 1
1009 7687 1
1009 7865 1
1009 8561 1
1009 9255 1
1009 9501 1
1009 9746 1
1010 61 1
1010 583 1
1010 911 1
1010 937 1
1010 1826 1
1010 2152 1
1010 2168 1
1010 3129 1
1010 3696 1
1010 4241 1
1010 6582 1
1010 7700 1
1010 8516 1
1011 258 1
1011 454 1
1011 825 1
1011 846 1
1011 3021 1
1011 5553 1
1011 5594 1
1011 7586 1
1012 2 1
1012 26 1
1012 378 1
1012 427 1
1012 1048 1
1012 1631 1
1012 2528 1
1012 2595 1
1012 3752 1
1012 4279 1
1012 4409 1
1012 4456 1
1012 4564 1
1012 4820 1
1012 4955 1
1012 6520 1
1012 6746 1
1012 7283 1
1012 9553 1
1013 4 1
1013 83 1
1013 321 1
1013 997 1
1013 1565 1
1013 3672 1
1013 3969 1
1013 4152 1
1013 5306 1
1013 7377 1
1013 8398 1
1014 225 1
1014 259 1
1014 298 1
1014 925 1
1014 3558 1
1014 5832 1
1014 8251 1
1015 19 1
1015 51 1
1015 386 1
1015 862 1
1015 1381 1
1015 1429 1
1015 1469 1
1015 1634 1
1015 1808 1
1015 3225 1
1015 4137 1
1015 4582 1
1015 4641 1
1015 4701 1
1015 5244 1
1015 5505 1
1015 6131 1
1015 6407 1
1016 52 1
1016 105 1
1016 573 1
1016 865 1
1016 1844 1
1016 2523 1
1016 4968 1
1016 7476 1
1017 16 1
1017 41 1
1017 225 1
1017 945 1
1017 1045 1
1017 1283 1
1017 1365 1
1017 1971 1
1017 2749 1
1017 3395 1
1017 3483 1
1017 3524 1
1017 3651 1
1017 3771 1
1017 3941 1
1017 4071 1
1017 4266 1
1017 4794 1
1017 4817 1
1017 5135 1
1017 5303 1
1017 5575 1
1017 6311 1
1017 6432 1
1017 6562 1
1017 6610 1
1017 6652 1
1017 6654 1
1017 6839 1
1017 7080 1
1017 7368 1
1017 7374 1
1017 8146 1
1017 8267 1
1017 8847 1
1017 9678 1
1018 20 1
1018 167 1
1018 337 1
1018 990 1
1018 2069 1
1018 3667 1
1018 6331 1
1018 8101 1
1018 8196 1
1018 9389 1
1019 9 1
1019 92 1
1019 197 1
1019 402 1
1019 1113 1
1019 1550 1
1019 1825 1
1019 3845 1
1019 5560 1
1019 7289 1
1019 8508 1
1020 28 1
1020 141 1
1020 443 1
1020 626 1
1020 1650 1
1020 1912 1
1020 4194 1
1020 8849 1
1021 10 1
1021 30 1
1021 323 1
1021 545 1
1021 3212 1
1021 8006 1
1022 65 1
1022 216 1
1022 266 1
1022 616 1
1022 1033 1
1022 1120 1
1022 1696 1
1022 2741 1
1022 8255 1
1023 110 1
1023 154 1
1023 281 1
1023 924 1
1023 1266 1
1023 1514 1
1023 1907 1
1023 2096 1
1023 2460 1
1023 2602 1
1023 3831 1
1023 5209 1
1023 6626 1
1023 6860 1
1023 7074 1
1023 7700 1
1023 8731 1
1024 25 1
1024 28 1
1024 299 1
1024 818 1
1024 1388 1
1024 1650 1
1024 1669 1
1024 1986 1
1024 2030 1
1024 4419 1
1025 91 1
1025 465 1
1025 549 1
1025 874 1
1025 5159 1
1026 21 1
1026 91 1
1026 747 1
1026 887 1
1026 2070 1
1026 2532 1
1026 2557 1
1026 5338 1
1026 6656 1
1026 7490 1
1026 7497 1
1026 8988 1
1026 9088 1
1027 105 1
1027 390 1
1027 413 1
1027 869 1
1027 1072 1
1027 1209 1
1027 1443 1
1027 2461 1
1027 3510 1
1027 4860 1
1027 6726 1
1027 7594 1
1027 7826 1
1027 8559 1
1027 8819 1
1027 9736 1
1028 11 1
1028 66 1
1028 141 1
1028 459 1
1028 1241 1
1028 1327 1
1028 1342 1
1028 2346 1
1028 2870 1
1028 3233 1
1028 3334 1
1028 3338 1
1028 3490 1
1028 3692 1
1028 5123 1
1028 5194 1
1028 5613 1
1028 6475 1
1028 8303 1
1029 14 1
1029 29 1
1029 62 1
1029 230 1
1029 1197 1
1029 2166 1
1029 2774 1
1029 2937 1
1029 3529 1
1029 3861 1
1029 6167 1
1029 7031 1
1029 8174 1
1029 8794 1
1029 9325 1
1029 9366 1
1030 174 1
1030 394 1
1030 562 1
1030 809 1
1030 2316 1
1030 3907 1
1030 8823 1
1031 9 1
1031 81 1
1031 289 1
1031 445 1
1031 3512 1
1031 6339 1
1032 2 1
1032 261 1
1032 399 1
1032 828 1
1032 3587 1
1032 5321 1
1032 8587 1
1032 9012 1
1033 161 1
1033 266 1
1033 402 1
1033 1022 1
1033 1129 1
1033 1171 1
1033 1603 1
1033 2042 1
1033 2067 1
1033 2253 1
1033 2692 1
1033 3334 1
1033 4484 1
1033 4510 1
1033 4761 1
1033 5385 1
1033 5500 1
1033 5566 1
1033 6766 1
1033 6855 1
1033 8869 1
1033 9741 1
1034 435 1
1034 576 1
1034 670 1
1034 889 1
1034 2245 1
1034 2425 1
1034 3307 1
1034 3693 1
1034 4656 1
1034 5085 1
1034 7556 1
1034 8699 1
1034 8828 1
1035 10 1
1035 36 1
1035 115 1
1035 571 1
1035 2129 1
1035 2136 1
1035 3213 1
1035 3367 1
1035 4334 1
1035 4343 1
1035 5268 1
1035 5344 1
1035 5446 1
1035 6114 1
1035 7261 1
1036 1 1
1036 10 1
1036 915 1
1036 966 1
1036 2026 1
1036 2170 1
1036 2726 1
1036 3411 1
1036 3586 1
1036 4046 1
1036 5928 1
1036 6682 1
1036 6833 1
1036 6977 1
1036 8897 1
1036 8990 1
1037 5 1
1037 138 1
1037 155 1
1037 927 1
1037 1468 1
1037 2315 1
1037 2435 1
1037 2659 1
1037 4502 1
1037 6286 1
1037 6417 1
1037 7684 1
1037 7921 1
1037 8211 1
1038 248 1
1038 349 1
1038 607 1
1038 986 1
1038 1119 1
1038 1292 1
1038 1577 1
1038 1766 1
1038 1946 1
1038 2000 1
1038 2017 1
1038 2342 1
1038 3196 1
1038 3458 1
1038 4918 1
1038 4960 1
1038 5623 1
1038 5840 1
1038 7794 1
1038 7806 1
1038 8341 1
1038 8407 1
1038 8682 1
1038 9968 1
1039 14 1
1039 50 1
1039 209 1
1039 223 1
1039 1079 1
1039 6340 1
1039 8012 1
1039 9576 1
1040 11 1
1040 57 1
1040 202 1
1040 752 1
1040 1114 1
1040 1189 1
1040 1680 1
1040 2016 1
1040 3245 1
1040 4277 1
1040 5939 1
1040 5942 1
1041 66 1
1041 73 1
1041 123 1
1041 803 1
1041 1261 1
1041 1409 1
1041 1487 1
1041 1620 1
1041 1876 1
1041 2112 1
1041 2168 1
1041 2342 1
1041 2625 1
1041 3081 1
1041 3133 1
1041 3964 1
1041 4186 1
1041 4272 1
1041 4274 1
1041 5214 1
1041 5454 1
1041 5648 1
1041 5906 1
1041 7933 1
1041 8287 1
1041 9153 1
1041 9166 1
1041 9553 1
1042 46 1
1042 216 1
1042 768 1
1042 779 1
1042 1760 1
1042 2059 1
1042 2818 1
1042 2927 1
1042 3132 1
1042 3916 1
1042 4198 1
1043 11 1
1043 69 1
1043 177 1
1043 290 1
1043 1145 1
1043 1859 1
1043 2546 1
1043 6018 1
1043 6442 1
1043 6628 1
1043 7654 1
1043 7723 1
1044 2 1
1044 146 1
1044 165 1
1044 191 1
1044 1312 1
1044 1545 1
1044 1682 1
1044 2171 1
1044 2339 1
1044 2489 1
1044 2578 1
1044 3623 1
1044 4292 1
1044 4572 1
1044 5164 1
1044 5313 1
1044 6278 1
1044 7866 1
1044 8489 1
1044 8546 1
1044 9713 1
1045 236 1
1045 291 1
1045 523 1
1045 1017 1
1045 1365 1
1045 1862 1
1045 2093 1
1045 3651 1
1045 4815 1
1045 5730 1
1045 6311 1
1045 8146 1
1045 8949 1
1045 9742 1
1046 5 1
1046 27 1
1046 113 1
1046 254 1
1046 1152 1
1046 1270 1
1046 1523 1
1046 2622 1
1047 10 1
1047 727 1
1047 731 1
1047 979 1
1047 1595 1
1047 2114 1
1047 3182 1
1047 7963 1
1048 26 1
1048 31 1
1048 379 1
1048 1012 1
1048 1168 1
1048 1931 1
1048 3328 1
1049 24 1
1049 158 1
1049 338 1
1049 476 1
1049 2849 1
1049 3408 1
1050 4 1
1050 25 1
1050 431 1
1050 770 1
1050 2839 1
1050 3244 1
1050 4678 1
1050 5241 1
1050 5345 1
1050 6563 1
1050 8125 1
1051 110 1
1051 166 1
1051 282 1
1051 287 1
1051 4745 1
1051 5433 1
1051 7217 1
1051 9768 1
1052 9 1
1052 52 1
1052 60 1
1052 850 1
1052 1346 1
1052 1459 1
1052 1569 1
1052 1589 1
1052 2076 1
1052 3435 1
1052 4324 1
1052 4671 1
1052 5551 1
1052 5798 1
1052 7651 1
1052 8429 1
1052 8771 1
1052 8909 1
1052 9293 1
1053 34 1
1053 160 1
1053 269 1
1053 991 1
1053 1951 1
1053 2012 1
1053 2621 1
1053 6951 1
1053 8238 1
1054 185 1
1054 649 1
1054 762 1
1054 882 1
1054 1662 1
1054 2060 1
1054 4327 1
1054 5518 1
1054 6297 1
1054 7250 1
1054 8074 1
1054 9068 1
1054 9987 1
1055 69 1
1055 144 1
1055 384 1
1055 1005 1
1055 1831 1
1055 9216 1
1056 10 1
1056 49 1
1056 108 1
1056 388 1
1056 4869 1
1056 5665 1
1057 12 1
1057 102 1
1057 432 1
1057 460 1
1057 1296 1
1057 1489 1
1057 1523 1
1057 3742 1
1057 4072 1
1057 4248 1
1057 4511 1
1057 6478 1
1057 7385 1
1057 7448 1
1057 7571 1
1057 8110 1
1057 9118 1
1058 41 1
1058 97 1
1058 294 1
1058 782 1
1058 1118 1
1058 1665 1
1058 2092 1
1058 3897 1
1058 4915 1
1058 5970 1
1058 6493 1
1058 9928 1
1059 2 1
1059 59 1
1059 75 1
1059 265 1
1059 2153 1
1059 2285 1
1059 2524 1
1059 2775 1
1059 3584 1
1059 4986 1
1059 7902 1
1060 36 1
1060 610 1
1060 637 1
1060 930 1
1060 4573 1
1060 7498 1
1060 9487 1
1061 18 1
1061 95 1
1061 297 1
1061 431 1
1061 3790 1
1061 5083 1
1061 8964 1
1062 16 1
1062 173 1
1062 569 1
1062 800 1
1062 1197 1
1062 2155 1
1062 4367 1
1062 4399 1
1062 5956 1
1062 6613 1
1062 7448 1
1063 5 1
1063 25 1
1063 197 1
1063 563 1
1063 5672 1
1063 6749 1
1063 7126 1
1064 4 1
1064 66 1
1064 93 1
1064 721 1
1064 2027 1
1064 2097 1
1064 3185 1
1064 3379 1
1064 3846 1
1064 5021 1
1064 5717 1
1064 7136 1
1065 2 1
1065 4 1
1065 85 1
1065 749 1
1065 1319 1
1065 1469 1
1065 2351 1
1065 2503 1
1065 3197 1
1065 3408 1
1065 4327 1
1065 5618 1
1065 6222 1
1065 6818 1
1066 9 1
1066 54 1
1066 206 1
1066 325 1
1066 4429 1
1067 2 1
1067 173 1
1067 197 1
1067 540 1
1067 1486 1
1067 1552 1
1067 1560 1
1067 1674 1
1067 1984 1
1067 2018 1
1067 2234 1
1067 2265 1
1067 2451 1
1067 2878 1
1067 2885 1
1067 2901 1
1067 3202 1
1067 4150 1
1067 4922 1
1067 6288 1
1067 6471 1
1067 6946 1
1067 7211 1
1067 7233 1
1067 7407 1
1067 7408 1
1067 8127 1
1068 11 1
1068 146 1
1068 210 1
1068 372 1
1068 1269 1
1068 2054 1
1068 3865 1
1068 4109 1
1068 4708 1
1068 6073 1
1068 6317 1
1069 36 1
1069 97 1
1069 674 1
1069 834 1
1069 1236 1
1069 1515 1
1069 3867 1
1070 126 1
1070 130 1
1070 141 1
1070 225 1
1070 1569 1
1070 3824 1
1070 5941 1
1070 6264 1
1071 27 1
1071 33 1
1071 505 1
1071 930 1
1071 1549 1
1071 1899 1
1071 2401 1
1071 2500 1
1071 3212 1
1071 4277 1
1071 5632 1
1071 5678 1
1071 7121 1
1071 7600 1
1072 3 1
1072 390 1
1072 869 1
1072 1027 1
1072 1869 1
1072 7594 1
1072 8501 1
1073 103 1
1073 617 1
1073 839 1
1073 889 1
1073 2125 1
1073 3347 1
1073 4126 1
1073 4275 1
1073 8242 1
1074 11 1
1074 58 1
1074 213 1
1074 446 1
1074 1980 1
1074 4543 1
1074 5341 1
1074 5434 1
1074 7454 1
1075 2 1
1075 4 1
1075 171 1
1075 174 1
1075 1827 1
1075 2439 1
1075 3490 1
1075 3714 1
1075 4436 1
1075 4705 1
1075 4787 1
1075 5036 1
1075 5123 1
1075 6052 1
1075 7293 1
1075 7961 1
1075 8428 1
1076 17 1
1076 171 1
1076 746 1
1076 972 1
1076 1351 1
1076 3452 1
1076 4387 1
1076 6174 1
1076 6598 1
1076 7125 1
1076 8647 1
1077 41 1
1077 322 1
1077 676 1
1077 903 1
1077 1402 1
1077 8333 1
1078 60 1
1078 102 1
1078 368 1
1078 391 1
1078 9512 1
1079 2 1
1079 549 1
1079 699 1
1079 1039 1
1079 2553 1
1079 2565 1
1079 4082 1
1079 6420 1
1079 6464 1
1079 9500 1
1080 18 1
1080 227 1
1080 491 1
1080 620 1
1080 1150 1
1080 5818 1
1081 1 1
1081 38 1
1081 471 1
1081 553 1
1081 1343 1
1081 2147 1
1081 5095 1
1081 5604 1
1081 7251 1
1081 7348 1
1081 8530 1
1082 10 1
1082 220 1
1082 627 1
1082 766 1
1082 1416 1
1082 1764 1
1082 2130 1
1082 4140 1
1082 4259 1
1082 5584 1
1082 8263 1
1082 8719 1
1083 3 1
1083 82 1
1083 422 1
1083 524 1
1083 1288 1
1083 1677 1
1083 2559 1
1083 2983 1
1083 3111 1
1083 3176 1
1083 3318 1
1083 4282 1
1083 4631 1
1083 6003 1
1083 6266 1
1083 7869 1
1083 8384 1
1083 8784 1
1084 49 1
1084 69 1
1084 354 1
1084 985 1
1084 1110 1
1084 1173 1
1084 4353 1
1084 4605 1
1085 27 1
1085 139 1
1085 338 1
1085 969 1
1085 1400 1
1085 2493 1
1085 2580 1
1085 3195 1
1085 3806 1
1085 5613 1
1085 6506 1
1085 7155 1
1085 7777 1
1085 8385 1
1085 9172 1
1086 89 1
1086 133 1
1086 346 1
1086 627 1
1086 7479 1
1087 12 1
1087 103 1
1087 230 1
1087 630 1
1087 1723 1
1087 2083 1
1087 5655 1
1087 8147 1
1087 8923 1
1088 192 1
1088 226 1
1088 244 1
1088 539 1
1088 3140 1
1089 427 1
1089 852 1
1089 906 1
1089 915 1
1089 1202 1
1089 1512 1
1089 1611 1
1089 1936 1
1089 2042 1
1089 2275 1
1089 2354 1
1089 2827 1
1089 3047 1
1089 3329 1
1089 3336 1
1089 3956 1
1089 4215 1
1089 6490 1
1089 7139 1
1089 7702 1
1089 8195 1
1089 9117 1
1089 9327 1
1090 99 1
1090 153 1
1090 261 1
1090 940 1
1090 1221 1
1090 1298 1
1090 1504 1
1090 1788 1
1090 3993 1
1090 4517 1
1090 5254 1
1090 5518 1
1090 8612 1
1090 8876 1
1090 8952 1
1091 5 1
1091 102 1
1091 251 1
1091 451 1
1091 1941 1
1091 2142 1
1091 5117 1
1092 11 1
1092 268 1
1092 726 1
1092 941 1
1092 1638 1
1092 4870 1
1092 6467 1
1092 9747 1
1093 60 1
1093 179 1
1093 322 1
1093 464 1
1093 5709 1
1093 6074 1
1093 6174 1
1093 8296 1
1093 8358 1
1093 8473 1
1094 58 1
1094 76 1
1094 229 1
1094 527 1
1094 1770 1
1094 2325 1
1094 3240 1
1094 4012 1
1094 4134 1
1094 6545 1
1094 8228 1
1094 8774 1
1095 11 1
1095 33 1
1095 354 1
1095 492 1
1095 1334 1
1095 1373 1
1095 1601 1
1095 5009 1
1095 6502 1
1095 6887 1
1095 8814 1
1096 7 1
1096 11 1
1096 244 1
1096 395 1
1096 2324 1
1096 2714 1
1096 9525 1
1097 103 1
1097 477 1
1097 500 1
1097 524 1
1097 3369 1
1097 4396 1
1097 8953 1
1098 4 1
1098 11 1
1098 55 1
1098 57 1
1098 2539 1
1098 7108 1
1099 14 1
1099 74 1
1099 685 1
1099 858 1
1099 1194 1
1099 1570 1
1099 1645 1
1099 2535 1
1099 3423 1
1099 3532 1
1099 5274 1
1099 5827 1
1099 5973 1
1100 73 1
1100 300 1
1100 493 1
1100 788 1
1101 115 1
1101 153 1
1101 237 1
1101 541 1
1101 1558 1
1101 3201 1
1101 4486 1
1101 4957 1
1101 6303 1
1102 4 1
1102 32 1
1102 87 1
1102 192 1
1102 3094 1
1102 3836 1
1102 4436 1
1102 4948 1
1102 5693 1
1102 5731 1
1102 6875 1
1103 112 1
1103 158 1
1103 371 1
1103 966 1
1103 2419 1
1103 4564 1
1103 9286 1
1104 251 1
1104 275 1
1104 667 1
1104 714 1
1104 1962 1
1104 3106 1
1104 3177 1
1105 4 1
1105 17 1
1105 49 1
1105 89 1
1105 1531 1
1105 2081 1
1105 2460 1
1105 2738 1
1105 3266 1
1105 3653 1
1105 4365 1
1105 4463 1
1105 5013 1
1105 5461 1
1105 5504 1
1105 6143 1
1105 6436 1
1105 6990 1
1105 7642 1
1105 8509 1
1105 8595 1
1106 4 1
1106 123 1
1106 175 1
1106 281 1
1106 3584 1
1106 4347 1
1106 5521 1
1106 5810 1
1106 8048 1
1106 8652 1
1106 8908 1
1107 25 1
1107 31 1
1107 473 1
1107 777 1
1107 1311 1
1107 1639 1
1107 2370 1
1107 3219 1
1107 7468 1
1107 9382 1
1108 55 1
1108 203 1
1108 223 1
1108 403 1
1108 1228 1
1108 6927 1
1108 7649 1
1108 9568 1
1109 54 1
1109 97 1
1109 200 1
1109 963 1
1110 12 1
1110 69 1
1110 238 1
1110 1084 1
1110 3928 1
1111 29 1
1111 81 1
1111 245 1
1111 381 1
1111 1301 1
1111 2065 1
1111 2799 1
1111 6204 1
1112 2 1
1112 74 1
1112 493 1
1112 837 1
1112 3416 1
1112 3454 1
1112 3904 1
1112 7201 1
1112 8199 1
1112 8257 1
1113 9 1
1113 664 1
1113 728 1
1113 1019 1
1113 5131 1
1113 7105 1
1113 8343 1
1113 8955 1
1114 402 1
1114 644 1
1114 768 1
1114 1040 1
1114 2184 1
1114 2730 1
1114 3061 1
1114 4188 1
1114 5942 1
1114 5998 1
1114 9015 1
1114 9019 1
1114 9170 1
1115 20 1
1115 216 1
1115 645 1
1115 834 1
1115 7194 1
1115 7721 1
1116 60 1
1116 162 1
1116 298 1
1116 610 1
1116 1180 1
1116 1426 1
1116 2092 1
1116 2113 1
1116 3033 1
1116 3393 1
1116 3867 1
1116 4331 1
1116 4706 1
1116 4785 1
1116 6399 1
1116 9840 1
1117 19 1
1117 46 1
1117 289 1
1117 624 1
1117 1210 1
1117 2404 1
1117 2705 1
1117 3569 1
1117 7362 1
1117 7822 1
1117 9022 1
1118 41 1
1118 97 1
1118 259 1
1118 1058 1
1118 1382 1
1118 2714 1
1118 3392 1
1119 78 1
1119 247 1
1119 411 1
1119 1038 1
1119 1344 1
1119 1717 1
1119 2161 1
1119 3944 1
1119 4188 1
1119 8883 1
1119 9396 1
1120 266 1
1120 402 1
1120 959 1
1120 1022 1
1120 1696 1
1120 2819 1
1121 89 1
1121 94 1
1121 140 1
1121 863 1
1121 1264 1
1121 1272 1
1121 1654 1
1121 4774 1
1121 8320 1
1122 69 1
1122 89 1
1122 261 1
1122 459 1
1122 1130 1
1122 1434 1
1122 1483 1
1122 2006 1
1122 2272 1
1122 3170 1
1122 3835 1
1122 3947 1
1122 4151 1
1122 6217 1
1122 6702 1
1122 6890 1
1122 9413 1
1123 5 1
1123 27 1
1123 33 1
1123 368 1
1123 1920 1
1123 2448 1
1123 3936 1
1123 5292 1
1123 5414 1
1123 5448 1
1123 5950 1
1123 8143 1
1123 8297 1
1124 18 1
1124 73 1
1124 281 1
1124 421 1
1124 1288 1
1124 1404 1
1124 2730 1
1124 3176 1
1124 3946 1
1124 5149 1
1124 5257 1
1124 5957 1
1124 6786 1
1124 8972 1
1124 9534 1
1124 9994 1
1125 41 1
1125 70 1
1125 367 1
1125 950 1
1125 1134 1
1125 1812 1
1125 3229 1
1125 3535 1
1125 5647 1
1125 5918 1
1125 8728 1
1125 9220 1
1126 4 1
1126 548 1
1126 569 1
1126 855 1
1126 1456 1
1126 3407 1
1126 9389 1
1127 38 1
1127 75 1
1127 318 1
1127 897 1
1127 1384 1
1127 1663 1
1127 3540 1
1127 5044 1
1128 227 1
1128 273 1
1128 291 1
1128 480 1
1128 1174 1
1128 3449 1
1128 3458 1
1128 5330 1
1129 17 1
1129 161 1
1129 656 1
1129 1033 1
1129 1230 1
1129 1747 1
1129 2067 1
1129 4135 1
1130 69 1
1130 179 1
1130 389 1
1130 1122 1
1130 1921 1
1130 2737 1
1130 3170 1
1130 4091 1
1130 4705 1
1130 4998 1
1130 6518 1
1130 6907 1
1130 7007 1
1130 7323 1
1130 7382 1
1130 7420 1
1130 7962 1
1130 8530 1
1131 36 1
1131 41 1
1131 169 1
1131 483 1
1131 3204 1
1131 4309 1
1131 4514 1
1131 6088 1
1131 7499 1
1131 9432 1
1132 172 1
1132 173 1
1132 605 1
1132 1008 1
1132 1569 1
1132 2130 1
1132 2191 1
1132 2343 1
1132 4140 1
1132 6319 1
1132 6742 1
1132 7934 1
1132 9616 1
1133 19 1
1133 236 1
1133 378 1
1133 637 1
1133 4481 1
1133 4539 1
1133 5504 1
1133 5666 1
1133 6166 1
1133 6845 1
1134 42 1
1134 91 1
1134 96 1
1134 1125 1
1134 3486 1
1134 3846 1
1134 4010 1
1134 4504 1
1134 7536 1
1134 7750 1
1134 7927 1
1134 8518 1
1134 8716 1
1135 44 1
1135 89 1
1135 639 1
1135 714 1
1135 1798 1
1135 1962 1
1135 2456 1
1135 2564 1
1135 2711 1
1135 2805 1
1135 3444 1
1135 5640 1
1135 5834 1
1135 10000 1
1136 2 1
1136 3 1
1136 88 1
1136 183 1
1136 1331 1
1136 2429 1
1136 3709 1
1137 42 1
1137 249 1
1137 349 1
1137 385 1
1137 3118 1
1137 3960 1
1137 4937 1
1137 5317 1
1137 5563 1
1137 7590 1
1137 7814 1
1137 8204 1
1137 8978 1
1137 9835 1
1138 2 1
1138 10 1
1138 629 1
1138 866 1
1138 1486 1
1138 2079 1
1138 3575 1
1138 6461 1
1138 6509 1
1138 6810 1
1138 7063 1
1138 7495 1
1138 8473 1
1138 9109 1
1138 9451 1
1138 9811 1
1139 164 1
1139 391 1
1139 813 1
1139 898 1
1139 1742 1
1139 2243 1
1139 2311 1
1139 4028 1
1139 4363 1
1139 5048 1
1139 5480 1
1139 6897 1
1139 7945 1
1140 545 1
1140 686 1
1140 708 1
1140 721 1
1140 2173 1
1140 2210 1
1140 3328 1
1140 4903 1
1140 5217 1
1140 7629 1
1140 8220 1
1140 8222 1
1140 8449 1
1140 8847 1
1140 9326 1
1140 9594 1
1141 11 1
1141 113 1
1141 216 1
1141 492 1
1141 1416 1
1141 4124 1
1141 6164 1
1141 8423 1
1142 91 1
1142 162 1
1142 195 1
1142 453 1
1142 1409 1
1142 1586 1
1142 2640 1
1142 7470 1
1143 38 1
1143 340 1
1143 581 1
1143 849 1
1143 3387 1
1143 3599 1
1143 3664 1
1143 3709 1
1143 4007 1
1143 4628 1
1143 5735 1
1143 5767 1
1143 6070 1
1143 6806 1
1143 7462 1
1144 18 1
1144 55 1
1144 267 1
1144 325 1
1144 4541 1
1145 11 1
1145 273 1
1145 290 1
1145 1043 1
1145 1294 1
1145 1881 1
1145 2219 1
1145 2859 1
1145 3392 1
1145 3473 1
1145 3618 1
1145 5410 1
1145 5850 1
1145 6854 1
1145 7411 1
1145 8666 1
1145 9340 1
1146 49 1
1146 211 1
1146 255 1
1146 670 1
1146 1258 1
1146 1746 1
1146 1785 1
1146 2086 1
1146 2298 1
1146 2505 1
1146 5977 1
1146 7593 1
1146 9530 1
1147 19 1
1147 289 1
1147 324 1
1147 947 1
1147 1376 1
1147 1512 1
1147 1904 1
1147 2160 1
1147 2582 1
1147 3465 1
1147 4053 1
1147 4515 1
1147 5011 1
1147 5584 1
1147 6516 1
1147 7324 1
1147 7417 1
1147 8653 1
1147 9051 1
1148 99 1
1148 462 1
1148 701 1
1148 878 1
1148 1692 1
1148 1968 1
1148 2387 1
1148 7599 1
1148 8249 1
1148 8750 1
1149 4 1
1149 30 1
1149 46 1
1149 794 1
1149 1166 1
1149 3002 1
1149 3932 1
1150 18 1
1150 488 1
1150 650 1
1150 1080 1
1150 2506 1
1150 2657 1
1150 3453 1
1150 4202 1
1150 5029 1
1150 5807 1
1150 8921 1
1151 64 1
1151 354 1
1151 469 1
1151 572 1
1151 2159 1
1151 2429 1
1151 4353 1
1151 5633 1
1152 46 1
1152 113 1
1152 449 1
1152 1046 1
1152 1904 1
1153 5 1
1153 16 1
1153 223 1
1153 796 1
1153 1777 1
1153 5084 1
1153 8480 1
1153 8681 1
1154 1 1
1154 444 1
1154 578 1
1154 594 1
1154 1192 1
1154 1493 1
1154 3414 1
1154 3573 1
1154 4088 1
1154 4273 1
1154 4646 1
1154 5040 1
1154 6017 1
1154 7090 1
1154 8205 1
1155 2 1
1155 428 1
1155 637 1
1155 915 1
1155 1319 1
1155 1582 1
1155 6169 1
1156 386 1
1156 507 1
1156 630 1
1156 858 1
1156 1592 1
1156 2445 1
1156 3763 1
1156 4522 1
1156 5484 1
1156 5743 1
1156 6555 1
1156 6730 1
1156 7185 1
1156 8566 1
1156 9118 1
1156 9239 1
1157 85 1
1157 202 1
1157 422 1
1157 633 1
1157 4101 1
1157 4163 1
1157 5065 1
1158 17 1
1158 51 1
1158 268 1
1158 332 1
1158 6774 1
1158 8952 1
1158 9094 1
1159 9 1
1159 21 1
1159 314 1
1159 833 1
1159 1988 1
1159 3489 1
1159 3807 1
1159 4092 1
1159 4772 1
1159 6094 1
1159 6473 1
1159 6570 1
1159 7429 1
1159 7707 1
1159 9687 1
1160 66 1
1160 105 1
1160 132 1
1160 942 1
1160 1220 1
1160 1430 1
1160 3181 1
1160 5130 1
1160 7070 1
1160 9915 1
1161 19 1
1161 348 1
1161 569 1
1161 851 1
1161 3093 1
1161 4024 1
1161 4526 1
1161 5310 1
1161 6051 1
1161 6992 1
1161 8300 1
1161 9824 1
1162 10 1
1162 97 1
1162 219 1
1162 343 1
1162 1338 1
1162 1349 1
1162 1730 1
1162 1901 1
1162 2786 1
1162 2964 1
1162 5282 1
1162 5968 1
1162 6325 1
1162 8260 1
1162 9522 1
1162 9807 1
1163 1 1
1163 41 1
1163 51 1
1163 752 1
1163 2249 1
1163 2330 1
1163 2670 1
1163 2783 1
1163 3342 1
1163 3380 1
1163 3546 1
1163 4947 1
1163 5616 1
1163 6564 1
1163 7616 1
1163 8023 1
1163 8190 1
1163 8751 1
1163 9347 1
1163 9775 1
1163 9916 1
1164 26 1
1164 30 1
1164 601 1
1164 627 1
1164 1277 1
1164 2201 1
1164 2543 1
1164 4017 1
1164 5394 1
1164 5903 1
1164 6136 1
1164 6795 1
1165 36 1
1165 703 1
1165 723 1
1165 847 1
1165 1167 1
1165 1463 1
1165 2692 1
1165 4054 1
1166 89 1
1166 154 1
1166 732 1
1166 1149 1
1166 3283 1
1166 7351 1
1167 59 1
1167 665 1
1167 703 1
1167 1165 1
1167 1760 1
1167 2540 1
1167 3571 1
1167 4626 1
1167 4819 1
1167 5127 1
1167 5377 1
1167 5437 1
1167 5698 1
1167 6279 1
1167 7801 1
1167 8086 1
1168 26 1
1168 530 1
1168 719 1
1168 1048 1
1168 1236 1
1168 1488 1
1168 3867 1
1169 4 1
1169 17 1
1169 228 1
1169 300 1
1169 1329 1
1170 85 1
1170 428 1
1170 699 1
1170 869 1
1170 1503 1
1170 1782 1
1170 3706 1
1170 4290 1
1170 4577 1
1170 4953 1
1170 5028 1
1170 6450 1
1170 6457 1
1170 8555 1
1171 157 1
1171 210 1
1171 456 1
1171 1033 1
1171 1193 1
1171 1299 1
1171 1422 1
1171 5484 1
1171 6261 1
1171 6766 1
1171 6867 1
1171 7185 1
1171 9741 1
1172 20 1
1172 158 1
1172 227 1
1172 657 1
1172 1891 1
1172 2310 1
1172 2601 1
1172 2852 1
1172 8306 1
1173 99 1
1173 264 1
1173 985 1
1173 1084 1
1173 8035 1
1173 9034 1
1174 38 1
1174 98 1
1174 480 1
1174 1128 1
1174 2210 1
1174 2856 1
1174 3265 1
1174 3362 1
1174 3449 1
1174 4120 1
1174 4341 1
1174 4489 1
1174 5253 1
1174 5359 1
1174 7076 1
1175 10 1
1175 33 1
1175 61 1
1175 531 1
1176 117 1
1176 316 1
1176 611 1
1176 881 1
1176 1722 1
1176 3812 1
1176 8516 1
1176 9847 1
1177 25 1
1177 37 1
1177 80 1
1177 607 1
1177 3123 1
1177 3288 1
1177 3681 1
1177 4591 1
1177 4709 1
1177 4766 1
1177 5463 1
1177 6386 1
1177 6708 1
1177 9039 1
1177 9099 1
1178 52 1
1178 146 1
1178 303 1
1178 738 1
1178 1196 1
1178 1820 1
1178 5435 1
1178 7755 1
1178 7981 1
1179 36 1
1179 308 1
1179 642 1
1179 644 1
1179 2014 1
1179 2223 1
1179 3273 1
1179 3350 1
1179 5966 1
1179 6774 1
1179 8429 1
1180 54 1
1180 107 1
1180 298 1
1180 1116 1
1180 1772 1
1180 2092 1
1180 2467 1
1180 2530 1
1180 2881 1
1180 4079 1
1180 5183 1
1180 6328 1
1181 59 1
1181 83 1
1181 146 1
1181 217 1
1181 2867 1
1181 4729 1
1181 5011 1
1181 5051 1
1181 7110 1
1181 7412 1
1181 9769 1
1182 234 1
1182 257 1
1182 353 1
1182 963 1
1182 1505 1
1182 2428 1
1182 2482 1
1182 2880 1
1182 3056 1
1182 3158 1
1182 3812 1
1182 6041 1
1182 8871 1
1183 4 1
1183 68 1
1183 333 1
1183 431 1
1183 1208 1
1183 1304 1
1183 1949 1
1183 5814 1
1183 6132 1
1183 8599 1
1183 8644 1
1184 7 1
1184 339 1
1184 637 1
1184 838 1
1184 6389 1
1185 57 1
1185 69 1
1185 478 1
1185 546 1
1185 1307 1
1185 2583 1
1185 3689 1
1185 4085 1
1185 4947 1
1185 9633 1
1186 5 1
1186 209 1
1186 515 1
1186 951 1
1186 4290 1
1186 5733 1
1186 6689 1
1186 7606 1
1187 1 1
1187 107 1
1187 158 1
1187 837 1
1187 1886 1
1187 2188 1
1187 2772 1
1187 3495 1
1187 5027 1
1187 5996 1
1187 8081 1
1187 8930 1
1188 4 1
1188 58 1
1188 495 1
1188 853 1
1188 1212 1
1188 1750 1
1188 2004 1
1188 2376 1
1188 2887 1
1188 3006 1
1188 3517 1
1188 4332 1
1188 4930 1
1188 5357 1
1188 6269 1
1188 9739 1
1189 34 1
1189 78 1
1189 311 1
1189 1040 1
1189 1513 1
1189 1930 1
1189 2309 1
1189 2790 1
1189 3332 1
1189 3850 1
1189 4169 1
1189 4816 1
1189 5479 1
1189 5939 1
1189 5969 1
1189 7193 1
1189 9290 1
1189 9994 1
1190 64 1
1190 235 1
1190 658 1
1190 920 1
1190 1362 1
1191 2 1
1191 474 1
1191 727 1
1191 825 1
1191 2804 1
1191 3697 1
1191 4368 1
1191 4687 1
1191 5119 1
1192 9 1
1192 415 1
1192 816 1
1192 1154 1
1192 3414 1
1193 19 1
1193 227 1
1193 1002 1
1193 1171 1
1193 2001 1
1193 4661 1
1194 562 1
1194 685 1
1194 858 1
1194 1099 1
1194 1645 1
1194 1766 1
1194 1796 1
1194 2360 1
1194 2497 1
1194 3012 1
1194 3423 1
1194 4315 1
1194 4578 1
1194 4836 1
1194 4895 1
1194 5431 1
1194 5533 1
1194 7092 1
1194 7776 1
1194 8380 1
1194 9978 1
1195 26 1
1195 39 1
1195 153 1
1195 630 1
1195 1849 1
1195 1946 1
1195 2434 1
1195 2459 1
1195 3878 1
1195 3881 1
1195 4645 1
1195 5329 1
1195 5473 1
1195 5824 1
1195 6298 1
1195 6466 1
1195 7234 1
1195 7323 1
1195 7400 1
1195 7850 1
1195 7857 1
1195 8407 1
1195 9216 1
1195 9615 1
1195 9817 1
1195 9993 1
1196 1 1
1196 738 1
1196 872 1
1196 1178 1
1196 7755 1
1197 52 1
1197 230 1
1197 1029 1
1197 1062 1
1197 1231 1
1197 2155 1
1197 2496 1
1197 3272 1
1197 3705 1
1197 3781 1
1197 4367 1
1197 4427 1
1197 5492 1
1197 6613 1
1197 8229 1
1197 8346 1
1197 8733 1
1197 9339 1
1198 4 1
1198 179 1
1198 435 1
1198 867 1
1198 8654 1
1199 33 1
1199 45 1
1199 505 1
1199 820 1
1199 1371 1
1199 1607 1
1199 2448 1
1199 3634 1
1199 3931 1
1199 4698 1
1199 4721 1
1199 5785 1
1199 7887 1
1200 81 1
1200 359 1
1200 570 1
1200 711 1
1200 2204 1
1200 3376 1
1200 3564 1
1200 9676 1
1201 4 1
1201 465 1
1201 771 1
1201 1003 1
1201 1240 1
1201 1527 1
1201 4169 1
1201 5744 1
1201 6550 1
1201 6864 1
1201 9385 1
1201 9557 1
1202 18 1
1202 427 1
1202 650 1
1202 1089 1
1202 1244 1
1202 1250 1
1202 1956 1
1202 2005 1
1202 2045 1
1202 3047 1
1202 3251 1
1202 3403 1
1202 3426 1
1202 3726 1
1202 3981 1
1202 4196 1
1202 4445 1
1202 4510 1
1202 4633 1
1202 5287 1
1202 5858 1
1202 6225 1
1202 6378 1
1202 7369 1
1202 8944 1
1202 9543 1
1203 89 1
1203 173 1
1203 356 1
1203 447 1
1203 1255 1
1203 2034 1
1203 2764 1
1203 3524 1
1203 7926 1
1203 8351 1
1203 8375 1
1203 8759 1
1203 8850 1
1204 155 1
1204 399 1
1204 410 1
1204 839 1
1204 2482 1
1204 3191 1
1204 3943 1
1204 7359 1
1204 7996 1
1204 8655 1
1205 2 1
1205 208 1
1205 849 1
1205 955 1
1205 1763 1
1205 2049 1
1205 2910 1
1205 2995 1
1205 3079 1
1205 3083 1
1205 4759 1
1205 4815 1
1205 6764 1
1205 6784 1
1205 7015 1
1206 75 1
1206 155 1
1206 394 1
1206 509 1
1206 2165 1
1206 2357 1
1207 194 1
1207 221 1
1207 259 1
1207 824 1
1207 2100 1
1207 2303 1
1207 4376 1
1207 4851 1
1207 6986 1
1208 10 1
1208 43 1
1208 733 1
1208 1183 1
1208 1304 1
1208 2668 1
1208 4868 1
1209 2 1
1209 753 1
1209 938 1
1209 1027 1
1209 1883 1
1209 2836 1
1209 3318 1
1209 3510 1
1209 3696 1
1209 6304 1
1209 6349 1
1209 7594 1
1209 9703 1
1210 69 1
1210 131 1
1210 353 1
1210 1117 1
1210 1882 1
1210 3580 1
1211 4 1
1211 17 1
1211 38 1
1211 656 1
1211 1534 1
1211 1931 1
1211 3281 1
1211 3364 1
1211 4028 1
1211 4201 1
1211 4899 1
1211 5140 1
1211 5816 1
1211 6451 1
1212 69 1
1212 79 1
1212 465 1
1212 1188 1
1212 1340 1
1212 1373 1
1212 1667 1
1212 2376 1
1212 3365 1
1212 4076 1
1212 4924 1
1212 5532 1
1212 7508 1
1212 9530 1
1213 49 1
1213 231 1
1213 581 1
1213 844 1
1213 1408 1
1213 1427 1
1213 1944 1
1213 3059 1
1213 5037 1
1213 5055 1
1213 6039 1
1213 6629 1
1213 7268 1
1213 7945 1
1213 8117 1
1213 8265 1
1214 4 1
1214 408 1
1214 557 1
1214 914 1
1214 1251 1
1214 1291 1
1214 1489 1
1214 2244 1
1214 8481 1
1215 103 1
1215 147 1
1215 633 1
1215 979 1
1215 2671 1
1216 4 1
1216 143 1
1216 148 1
1216 826 1
1216 5249 1
1216 6959 1
1217 2 1
1217 116 1
1217 202 1
1217 772 1
1217 1507 1
1217 1764 1
1217 2182 1
1217 2325 1
1217 4670 1
1217 4960 1
1217 5794 1
1217 7148 1
1217 8582 1
1217 8838 1
1218 9 1
1218 91 1
1218 763 1
1218 774 1
1218 1406 1
1218 1541 1
1218 2292 1
1218 3201 1
1218 3395 1
1218 3807 1
1218 3985 1
1218 5005 1
1218 5079 1
1218 5345 1
1218 5415 1
1218 5438 1
1218 5611 1
1218 6044 1
1218 6188 1
1218 6601 1
1218 6783 1
1218 8103 1
1218 8140 1
1218 8513 1
1218 8650 1
1218 9289 1
1218 9501 1
1219 21 1
1219 147 1
1219 202 1
1219 354 1
1219 3200 1
1220 19 1
1220 91 1
1220 351 1
1220 1160 1
1220 1430 1
1220 1823 1
1220 2595 1
1220 3470 1
1220 4038 1
1220 7077 1
1220 8241 1
1221 89 1
1221 345 1
1221 940 1
1221 1090 1
1221 1298 1
1221 1351 1
1221 1574 1
1221 1788 1
1221 1801 1
1221 2367 1
1221 2721 1
1221 3110 1
1221 3749 1
1221 3993 1
1221 4356 1
1221 5031 1
1221 5170 1
1221 5334 1
1221 5501 1
1221 6479 1
1221 6752 1
1221 6856 1
1221 7402 1
1221 7788 1
1221 8244 1
1221 8427 1
1221 8620 1
1221 9145 1
1222 141 1
1222 187 1
1222 322 1
1222 929 1
1222 2048 1
1222 6082 1
1223 5 1
1223 308 1
1223 323 1
1223 893 1
1223 1289 1
1223 2273 1
1223 3325 1
1223 5668 1
1223 6031 1
1224 1 1
1224 38 1
1224 607 1
1224 737 1
1224 1279 1
1224 2502 1
1224 3588 1
1225 81 1
1225 144 1
1225 253 1
1225 989 1
1225 1892 1
1225 2624 1
1225 2707 1
1225 2781 1
1225 3155 1
1225 3235 1
1225 3271 1
1225 3786 1
1225 4049 1
1225 4235 1
1225 4876 1
1225 6037 1
1225 6425 1
1225 6607 1
1225 7039 1
1225 8010 1
1225 8072 1
1225 8361 1
1225 9030 1
1225 9853 1
1226 46 1
1226 91 1
1226 169 1
1226 179 1
1226 4549 1
1226 5459 1
1226 5905 1
1226 6812 1
1226 6884 1
1226 9023 1
1227 217 1
1227 322 1
1227 400 1
1227 740 1
1227 2080 1
1227 3434 1
1227 4623 1
1227 4774 1
1227 5903 1
1227 6979 1
1228 141 1
1228 403 1
1228 1003 1
1228 1108 1
1228 6927 1
1229 38 1
1229 260 1
1229 627 1
1229 682 1
1229 3267 1
1229 3592 1
1229 4814 1
1229 5950 1
1229 9242 1
1230 161 1
1230 307 1
1230 656 1
1230 1129 1
1230 1772 1
1230 2409 1
1230 2822 1
1230 3071 1
1230 3663 1
1230 6108 1
1231 2 1
1231 50 1
1231 884 1
1231 1197 1
1231 1333 1
1231 1444 1
1231 7324 1
1232 1 1
1232 558 1
1232 729 1
1232 984 1
1232 4570 1
1233 169 1
1233 202 1
1233 219 1
1233 330 1
1233 1604 1
1233 2320 1
1233 2727 1
1233 5963 1
1233 9452 1
1234 85 1
1234 259 1
1234 329 1
1234 806 1
1234 1389 1
1234 1516 1
1234 2108 1
1234 4739 1
1234 5226 1
1234 6970 1
1234 8420 1
1234 8576 1
1235 57 1
1235 194 1
1235 872 1
1235 1433 1
1235 1870 1
1235 1923 1
1235 1979 1
1235 2034 1
1235 2481 1
1235 3457 1
1235 5501 1
1235 7696 1
1235 8349 1
1236 97 1
1236 530 1
1236 1069 1
1236 1168 1
1236 1980 1
1236 3867 1
1236 4830 1
1237 12 1
1237 30 1
1237 489 1
1237 709 1
1237 2116 1
1237 4462 1
1238 407 1
1238 572 1
1238 725 1
1238 956 1
1238 3506 1
1238 3788 1
1238 4674 1
1239 180 1
1239 547 1
1239 758 1
1239 800 1
1239 3606 1
1239 5337 1
1240 2 1
1240 4 1
1240 192 1
1240 1201 1
1240 1527 1
1240 1740 1
1240 4461 1
1240 7924 1
1240 9025 1
1241 11 1
1241 130 1
1241 737 1
1241 1028 1
1241 1482 1
1241 2251 1
1241 2824 1
1241 3257 1
1241 3338 1
1241 3358 1
1241 3536 1
1241 4091 1
1241 4182 1
1241 4424 1
1241 4790 1
1241 4980 1
1241 5039 1
1241 5733 1
1241 6444 1
1241 6621 1
1241 6623 1
1241 6743 1
1241 6844 1
1241 7200 1
1242 31 1
1242 35 1
1242 131 1
1242 921 1
1242 2426 1
1242 3447 1
1242 5468 1
1242 6119 1
1242 6213 1
1242 6530 1
1242 7836 1
1242 8729 1
1242 9243 1
1243 1 1
1243 18 1
1243 330 1
1243 509 1
1243 1679 1
1243 2520 1
1243 6185 1
1244 18 1
1244 572 1
1244 626 1
1244 1202 1
1244 2045 1
1244 2722 1
1244 3047 1
1244 4510 1
1244 7369 1
1245 4 1
1245 182 1
1245 186 1
1245 345 1
1245 1453 1
1245 1552 1
1245 2300 1
1245 6571 1
1245 7520 1
1246 29 1
1246 33 1
1246 57 1
1246 167 1
1246 2860 1
1246 5605 1
1246 7972 1
1246 8278 1
1246 9575 1
1246 9637 1
1247 11 1
1247 89 1
1247 869 1
1247 934 1
1247 1478 1
1247 1484 1
1247 3246 1
1247 3926 1
1247 4125 1
1248 4 1
1248 19 1
1248 70 1
1248 394 1
1248 1771 1
1248 2357 1
1248 3363 1
1248 5117 1
1249 26 1
1249 60 1
1249 233 1
1249 718 1
1249 1275 1
1249 1865 1
1249 2348 1
1249 2440 1
1249 2567 1
1249 2980 1
1249 3285 1
1249 3666 1
1249 4346 1
1249 4990 1
1249 5234 1
1249 5978 1
1249 7296 1
1249 7396 1
1249 8308 1
1249 8426 1
1249 8902 1
1250 5 1
1250 427 1
1250 669 1
1250 1202 1
1250 2045 1
1250 3322 1
1250 3843 1
1250 4196 1
1250 4583 1
1250 4910 1
1250 5021 1
1250 7940 1
1250 8517 1
1250 8944 1
1250 9981 1
1251 17 1
1251 203 1
1251 557 1
1251 1214 1
1251 1790 1
1251 2134 1
1251 2316 1
1251 2446 1
1251 3327 1
1251 3733 1
1251 4869 1
1251 6846 1
1251 8053 1
1251 8558 1
1252 18 1
1252 154 1
1252 281 1
1252 342 1
1252 3295 1
1253 9 1
1253 30 1
1253 298 1
1253 987 1
1253 2650 1
1253 2740 1
1253 2791 1
1253 3706 1
1253 5210 1
1253 6204 1
1253 7758 1
1253 8048 1
1253 9626 1
1254 12 1
1254 74 1
1254 202 1
1254 633 1
1254 1302 1
1254 1355 1
1254 2638 1
1254 4355 1
1254 6323 1
1254 7816 1
1255 74 1
1255 447 1
1255 598 1
1255 1203 1
1255 3635 1
1255 4128 1
1255 8850 1
1255 8931 1
1256 25 1
1256 59 1
1256 692 1
1256 938 1
1256 2191 1
1256 2423 1
1256 2463 1
1256 2837 1
1256 3430 1
1257 2 1
1257 25 1
1257 113 1
1257 339 1
1257 1671 1
1257 2094 1
1257 2632 1
1257 2802 1
1257 2996 1
1257 3822 1
1257 3902 1
1257 4281 1
1257 4888 1
1257 5286 1
1257 5698 1
1257 7081 1
1257 7433 1
1257 7815 1
1257 8393 1
1257 9601 1
1257 9766 1
1257 9938 1
1257 9967 1
1258 249 1
1258 469 1
1258 889 1
1258 1146 1
1258 1688 1
1258 1977 1
1258 2353 1
1258 2584 1
1258 2986 1
1258 3213 1
1258 3282 1
1258 4348 1
1258 6696 1
1258 8776 1
1258 9627 1
1258 9765 1
1259 82 1
1259 166 1
1259 712 1
1259 825 1
1259 1481 1
1259 1999 1
1259 2751 1
1259 4112 1
1259 5050 1
1259 5610 1
1259 7507 1
1259 9027 1
1260 13 1
1260 17 1
1260 155 1
1260 397 1
1260 1418 1
1260 2301 1
1260 2732 1
1260 3206 1
1260 3392 1
1260 7892 1
1260 8552 1
1260 8736 1
1261 10 1
1261 49 1
1261 66 1
1261 1041 1
1261 1876 1
1261 1967 1
1261 2133 1
1261 2480 1
1261 2779 1
1261 3099 1
1261 3549 1
1261 4024 1
1261 4370 1
1261 7913 1
1261 9189 1
1262 19 1
1262 261 1
1262 278 1
1262 895 1
1262 2249 1
1262 9199 1
1263 60 1
1263 138 1
1263 179 1
1263 684 1
1263 1375 1
1263 1551 1
1263 3198 1
1263 6118 1
1263 9003 1
1264 89 1
1264 116 1
1264 452 1
1264 1121 1
1264 1928 1
1264 2539 1
1264 3442 1
1264 5835 1
1264 6083 1
1264 6419 1
1264 8564 1
1265 2 1
1265 94 1
1265 188 1
1265 532 1
1265 1431 1
1265 1722 1
1265 2580 1
1265 5604 1
1265 8397 1
1265 8718 1
1265 9621 1
1266 1 1
1266 110 1
1266 703 1
1266 1023 1
1266 2482 1
1266 4011 1
1266 4575 1
1266 5261 1
1266 5542 1
1266 6849 1
1266 7885 1
1266 8439 1
1266 9041 1
1267 4 1
1267 109 1
1267 349 1
1267 377 1
1267 3134 1
1267 5042 1
1267 7880 1
1268 9 1
1268 43 1
1268 193 1
1268 842 1
1268 1549 1
1268 1619 1
1268 2093 1
1268 3049 1
1268 3162 1
1268 3861 1
1268 4635 1
1268 5132 1
1268 5696 1
1268 6632 1
1268 7249 1
1268 9064 1
1268 9832 1
1269 9 1
1269 91 1
1269 210 1
1269 1068 1
1269 2752 1
1269 2962 1
1269 3512 1
1269 3802 1
1269 4135 1
1269 4233 1
1269 5909 1
1270 9 1
1270 113 1
1270 216 1
1270 1046 1
1270 1343 1
1270 3126 1
1270 4614 1
1270 5096 1
1270 7252 1
1270 7668 1
1270 7741 1
1271 134 1
1271 145 1
1271 187 1
1271 919 1
1271 1581 1
1271 1958 1
1271 3431 1
1271 4293 1
1271 4813 1
1271 8045 1
1271 9404 1
1272 10 1
1272 239 1
1272 863 1
1272 1121 1
1272 1815 1
1272 1924 1
1272 3853 1
1272 5440 1
1272 7391 1
1273 4 1
1273 81 1
1273 482 1
1273 897 1
1273 1401 1
1273 1686 1
1273 1901 1
1273 2064 1
1273 2516 1
1273 2577 1
1273 2654 1
1273 3661 1
1273 5583 1
1273 6018 1
1273 6096 1
1273 6827 1
1273 7908 1
1273 9822 1
1274 33 1
1274 566 1
1274 602 1
1274 652 1
1274 3104 1
1274 3410 1
1274 3825 1
1274 4278 1
1274 4297 1
1274 4663 1
1274 5068 1
1274 7400 1
1274 9083 1
1275 52 1
1275 73 1
1275 718 1
1275 1249 1
1275 1356 1
1275 1509 1
1275 1565 1
1275 3167 1
1275 3726 1
1275 4328 1
1275 4658 1
1275 6965 1
1275 7699 1
1275 9155 1
1275 9952 1
1276 18 1
1276 361 1
1276 852 1
1276 865 1
1276 1443 1
1276 1490 1
1276 1615 1
1276 4548 1
1276 4753 1
1276 4762 1
1276 6278 1
1277 55 1
1277 68 1
1277 210 1
1277 1164 1
1277 6200 1
1277 6996 1
1278 4 1
1278 305 1
1278 345 1
1278 655 1
1278 1561 1
1278 2021 1
1278 3134 1
1278 3377 1
1278 4898 1
1278 6245 1
1279 11 1
1279 15 1
1279 746 1
1279 1224 1
1279 3176 1
1279 3202 1
1280 4 1
1280 17 1
1280 49 1
1280 915 1
1280 2180 1
1280 2595 1
1280 3872 1
1280 4027 1
1280 4456 1
1280 9647 1
1281 19 1
1281 46 1
1281 73 1
1281 654 1
1281 1439 1
1281 1926 1
1281 2069 1
1281 2461 1
1281 2529 1
1281 3159 1
1281 3694 1
1281 4211 1
1281 4230 1
1281 5055 1
1281 5197 1
1281 5761 1
1281 5850 1
1281 6718 1
1281 7560 1
1281 8256 1
1282 65 1
1282 69 1
1282 608 1
1282 714 1
1282 2514 1
1282 2793 1
1282 2853 1
1282 5690 1
1282 5912 1
1283 9 1
1283 225 1
1283 945 1
1283 1017 1
1283 1571 1
1283 2749 1
1283 2945 1
1283 3012 1
1283 3651 1
1283 3661 1
1283 4071 1
1283 4096 1
1283 4184 1
1283 4217 1
1283 4236 1
1283 6150 1
1283 8219 1
1283 9860 1
1284 89 1
1284 465 1
1284 627 1
1284 913 1
1284 1628 1
1284 2105 1
1284 2281 1
1284 2656 1
1284 3038 1
1284 3130 1
1284 3716 1
1284 3847 1
1284 3966 1
1284 4569 1
1284 4874 1
1284 5682 1
1284 5704 1
1284 6373 1
1284 7172 1
1284 7897 1
1284 8320 1
1284 8864 1
1284 9984 1
1285 50 1
1285 180 1
1285 228 1
1285 322 1
1285 1964 1
1285 3659 1
1285 3700 1
1285 4013 1
1285 4519 1
1285 6440 1
1286 1 1
1286 276 1
1286 746 1
1286 918 1
1286 2208 1
1287 348 1
1287 377 1
1287 428 1
1287 596 1
1287 1790 1
1287 2382 1
1287 2952 1
1287 3120 1
1287 6023 1
1287 8252 1
1287 8456 1
1288 3 1
1288 18 1
1288 1083 1
1288 1124 1
1288 3594 1
1288 4282 1
1288 4560 1
1288 9238 1
1288 9647 1
1289 300 1
1289 323 1
1289 730 1
1289 1223 1
1289 2273 1
1289 2494 1
1289 2683 1
1289 3325 1
1289 5225 1
1289 7645 1
1290 19 1
1290 25 1
1290 228 1
1290 290 1
1290 1652 1
1290 2776 1
1290 4327 1
1290 4606 1
1290 6267 1
1290 6754 1
1290 7108 1
1291 4 1
1291 662 1
1291 938 1
1291 1214 1
1291 2394 1
1291 3068 1
1291 4663 1
1291 4843 1
1291 5138 1
1291 5513 1
1291 5656 1
1291 7683 1
1291 7818 1
1291 8114 1
1291 8919 1
1291 9050 1
1291 9147 1
1291 9629 1
1291 9708 1
1292 273 1
1292 349 1
1292 566 1
1292 1038 1
1292 1881 1
1292 2327 1
1292 3214 1
1292 5419 1
1292 7827 1
1292 9242 1
1293 9 1
1293 18 1
1293 250 1
1293 672 1
1293 1307 1
1293 1526 1
1293 2997 1
1293 3589 1
1293 3600 1
1293 3798 1
1293 3813 1
1293 4233 1
1293 5325 1
1293 5585 1
1293 6251 1
1293 6512 1
1293 6778 1
1293 7340 1
1293 8929 1
1294 259 1
1294 290 1
1294 708 1
1294 1145 1
1294 3362 1
1294 8084 1
1294 8170 1
1295 1 1
1295 491 1
1295 919 1
1295 930 1
1295 3629 1
1295 4179 1
1295 6232 1
1295 6349 1
1296 25 1
1296 251 1
1296 460 1
1296 1057 1
1296 1761 1
1296 2301 1
1296 7146 1
1297 1 1
1297 123 1
1297 760 1
1297 944 1
1297 1353 1
1297 1530 1
1297 2214 1
1297 2353 1
1297 3657 1
1297 4567 1
1297 5828 1
1297 6246 1
1297 6923 1
1297 6952 1
1297 7727 1
1297 8162 1
1298 498 1
1298 512 1
1298 1090 1
1298 1221 1
1298 1611 1
1298 4356 1
1299 210 1
1299 267 1
1299 334 1
1299 1171 1
1299 6261 1
1299 8694 1
1299 9173 1
1299 9741 1
1300 97 1
1300 441 1
1300 753 1
1300 979 1
1300 1866 1
1300 2777 1
1300 2785 1
1300 3918 1
1300 4340 1
1300 6318 1
1300 6428 1
1300 8071 1
1300 8177 1
1301 81 1
1301 289 1
1301 832 1
1301 1111 1
1301 2065 1
1301 3885 1
1301 4761 1
1301 5541 1
1301 8380 1
1301 8718 1
1302 22 1
1302 379 1
1302 633 1
1302 1254 1
1302 1454 1
1302 2218 1
1302 5335 1
1302 6452 1
1303 2 1
1303 67 1
1303 152 1
1303 340 1
1303 1656 1
1303 4138 1
1303 9879 1
1304 43 1
1304 733 1
1304 1183 1
1304 1208 1
1304 4170 1
1304 7704 1
1305 394 1
1305 459 1
1305 462 1
1305 883 1
1305 1360 1
1305 1564 1
1305 1916 1
1305 2032 1
1305 2613 1
1305 2914 1
1305 3013 1
1305 3655 1
1305 3683 1
1305 3927 1
1305 4118 1
1305 4219 1
1305 5954 1
1305 6199 1
1305 7037 1
1305 7491 1
1305 8272 1
1305 8482 1
1305 8745 1
1305 9337 1
1305 9411 1
1305 9840 1
1306 10 1
1306 250 1
1306 297 1
1306 770 1
1306 1916 1
1306 4330 1
1306 4556 1
1306 4737 1
1306 5937 1
1306 7427 1
1306 7471 1
1306 9036 1
1306 9711 1
1307 9 1
1307 25 1
1307 1185 1
1307 1293 1
1307 2303 1
1307 4173 1
1307 4237 1
1307 5665 1
1307 5877 1
1307 7047 1
1307 7240 1
1308 25 1
1308 170 1
1308 794 1
1308 906 1
1308 1532 1
1308 1720 1
1308 2299 1
1308 2352 1
1308 7269 1
1308 7916 1
1308 9411 1
1309 5 1
1309 28 1
1309 364 1
1309 411 1
1309 1704 1
1309 2167 1
1309 3285 1
1310 42 1
1310 180 1
1310 194 1
1310 937 1
1310 1918 1
1310 2485 1
1310 2614 1
1310 3608 1
1310 3618 1
1310 4467 1
1310 4694 1
1310 4973 1
1310 7725 1
1310 8560 1
1310 8651 1
1311 22 1
1311 504 1
1311 777 1
1311 1107 1
1311 1535 1
1311 2181 1
1311 3770 1
1311 5792 1
1311 6184 1
1311 7659 1
1311 8732 1
1312 2 1
1312 35 1
1312 195 1
1312 1044 1
1312 1591 1
1312 2361 1
1312 3623 1
1312 4331 1
1312 6189 1
1312 8446 1
1312 8766 1
1312 8936 1
1312 9713 1
1312 9920 1
1313 108 1
1313 174 1
1313 332 1
1313 340 1
1313 1581 1
1313 3096 1
1313 4513 1
1313 6435 1
1313 6537 1
1313 7617 1
1313 8993 1
1313 9551 1
1314 17 1
1314 89 1
1314 170 1
1314 787 1
1314 6032 1
1314 6161 1
1314 7922 1
1314 9573 1
1315 69 1
1315 98 1
1315 266 1
1315 776 1
1316 18 1
1316 633 1
1316 871 1
1316 991 1
1316 2150 1
1316 4385 1
1316 5860 1
1316 6328 1
1316 6511 1
1316 6895 1
1317 2 1
1317 17 1
1317 49 1
1317 442 1
1317 2873 1
1317 4360 1
1317 4411 1
1317 4791 1
1317 7430 1
1317 9799 1
1318 217 1
1318 304 1
1318 434 1
1318 665 1
1318 2085 1
1318 2166 1
1318 3810 1
1318 3840 1
1318 4030 1
1318 9978 1
1319 2 1
1319 868 1
1319 1065 1
1319 1155 1
1319 1529 1
1319 3143 1
1319 3197 1
1319 3504 1
1319 4592 1
1319 5952 1
1319 8136 1
1319 8979 1
1320 12 1
1320 18 1
1320 171 1
1320 523 1
1320 1632 1
1320 2280 1
1320 2603 1
1320 2681 1
1320 3951 1
1320 4695 1
1320 5325 1
1320 5759 1
1320 7665 1
1320 9107 1
1320 9285 1
1321 11 1
1321 44 1
1321 89 1
1321 96 1
1321 2083 1
1321 3277 1
1321 4482 1
1321 4500 1
1321 6469 1
1321 7054 1
1321 7280 1
1321 7873 1
1321 9634 1
1322 11 1
1322 137 1
1322 143 1
1322 248 1
1322 1747 1
1322 2017 1
1322 2304 1
1322 5512 1
1322 5647 1
1322 5693 1
1322 5738 1
1322 6176 1
1322 6397 1
1322 8162 1
1322 8621 1
1322 9082 1
1323 11 1
1323 57 1
1323 78 1
1323 544 1
1323 1399 1
1323 1788 1
1323 2037 1
1323 2052 1
1323 2182 1
1323 3860 1
1323 3862 1
1323 4565 1
1323 7236 1
1323 9868 1
1324 41 1
1324 50 1
1324 396 1
1324 453 1
1324 1755 1
1324 3003 1
1324 5162 1
1324 5961 1
1324 6625 1
1324 7903 1
1324 8677 1
1324 9403 1
1324 9556 1
1325 10 1
1325 620 1
1325 655 1
1325 833 1
1325 1615 1
1325 3591 1
1325 4057 1
1325 4349 1
1325 7849 1
1325 7894 1
1325 8010 1
1325 9335 1
1326 6 1
1326 9 1
1326 129 1
1326 179 1
1326 1549 1
1326 2907 1
1326 6829 1
1326 7738 1
1327 4 1
1327 5 1
1327 337 1
1327 1028 1
1328 30 1
1328 94 1
1328 474 1
1328 823 1
1328 1675 1
1328 1739 1
1328 2397 1
1328 5061 1
1328 9919 1
1329 300 1
1329 383 1
1329 722 1
1329 1169 1
1329 1471 1
1329 2151 1
1329 2358 1
1329 2442 1
1329 3164 1
1329 4528 1
1329 4615 1
1329 4927 1
1329 5768 1
1329 5853 1
1329 6949 1
1329 7636 1
1329 8007 1
1329 8429 1
1329 8578 1
1329 8633 1
1329 9596 1
1330 35 1
1330 131 1
1330 132 1
1330 304 1
1330 1993 1
1330 7668 1
1331 74 1
1331 145 1
1331 299 1
1331 1136 1
1331 1499 1
1331 2330 1
1331 2443 1
1331 2662 1
1331 2832 1
1331 3796 1
1331 4159 1
1331 4491 1
1331 4630 1
1331 4779 1
1331 5088 1
1331 6113 1
1331 7353 1
1331 8099 1
1331 8958 1
1332 163 1
1332 180 1
1332 395 1
1332 901 1
1332 1587 1
1332 1995 1
1332 2284 1
1332 6640 1
1332 6715 1
1332 7765 1
1332 8498 1
1332 8738 1
1333 571 1
1333 618 1
1333 651 1
1333 1231 1
1333 3057 1
1333 6581 1
1334 228 1
1334 538 1
1334 999 1
1334 1095 1
1334 1639 1
1334 3642 1
1334 3652 1
1334 5859 1
1334 6014 1
1334 8965 1
1335 147 1
1335 376 1
1335 539 1
1335 981 1
1335 1829 1
1335 1843 1
1335 6622 1
1335 7241 1
1336 174 1
1336 290 1
1336 562 1
1336 614 1
1336 3302 1
1336 3312 1
1336 3787 1
1336 4742 1
1336 5531 1
1336 5533 1
1337 161 1
1337 190 1
1337 267 1
1337 421 1
1337 2399 1
1337 3633 1
1337 5104 1
1338 42 1
1338 97 1
1338 471 1
1338 1162 1
1338 1731 1
1338 2121 1
1338 6469 1
1338 9037 1
1339 44 1
1339 76 1
1339 146 1
1339 361 1
1339 1423 1
1339 1682 1
1339 1759 1
1339 1770 1
1339 3622 1
1339 4433 1
1339 7577 1
1339 8826 1
1340 12 1
1340 465 1
1340 620 1
1340 1212 1
1340 2071 1
1340 2073 1
1340 2131 1
1340 2376 1
1340 2521 1
1340 3450 1
1340 4645 1
1340 4773 1
1340 4865 1
1340 6123 1
1340 6624 1
1340 7958 1
1340 8270 1
1340 8377 1
1341 2 1
1341 412 1
1341 600 1
1341 788 1
1341 2439 1
1341 2536 1
1341 8458 1
1341 9454 1
1342 89 1
1342 103 1
1342 122 1
1342 1028 1
1342 1869 1
1342 2187 1
1342 3334 1
1342 5923 1
1342 6716 1
1342 7128 1
1342 7159 1
1342 8624 1
1342 8779 1
1343 1 1
1343 89 1
1343 1081 1
1343 1270 1
1343 5095 1
1343 5450 1
1343 8761 1
1344 60 1
1344 270 1
1344 450 1
1344 1119 1
1344 2646 1
1344 9396 1
1345 9 1
1345 330 1
1345 342 1
1345 610 1
1345 5758 1
1345 7944 1
1345 8102 1
1346 434 1
1346 554 1
1346 665 1
1346 1052 1
1346 1452 1
1346 6512 1
1347 65 1
1347 221 1
1347 685 1
1347 858 1
1347 2020 1
1347 2402 1
1347 2608 1
1347 3207 1
1347 3291 1
1347 5684 1
1347 6086 1
1347 7203 1
1347 9361 1
1347 9754 1
1348 465 1
1348 620 1
1348 651 1
1348 878 1
1348 4538 1
1349 123 1
1349 219 1
1349 858 1
1349 1162 1
1349 4168 1
1349 5318 1
1349 6241 1
1349 7815 1
1349 7914 1
1349 9522 1
1350 427 1
1350 579 1
1350 715 1
1350 971 1
1350 1393 1
1350 2230 1
1350 2488 1
1350 2887 1
1350 3811 1
1350 4036 1
1350 4182 1
1350 4736 1
1350 4967 1
1350 5291 1
1350 7040 1
1350 9307 1
1351 585 1
1351 940 1
1351 1076 1
1351 1221 1
1351 1386 1
1351 1553 1
1351 1989 1
1351 7972 1
1351 8427 1
1352 9 1
1352 18 1
1352 186 1
1352 503 1
1352 2864 1
1352 3599 1
1352 7758 1
1353 123 1
1353 146 1
1353 181 1
1353 1297 1
1353 2951 1
1353 5043 1
1354 41 1
1354 89 1
1354 257 1
1354 876 1
1354 1681 1
1354 2403 1
1354 6285 1
1354 6968 1
1354 9418 1
1355 11 1
1355 378 1
1355 761 1
1355 1254 1
1355 1715 1
1355 4167 1
1355 4480 1
1355 5702 1
1355 6647 1
1355 6804 1
1355 7246 1
1355 8517 1
1355 8526 1
1355 9011 1
1355 9172 1
1355 9621 1
1355 9946 1
1356 283 1
1356 489 1
1356 718 1
1356 1275 1
1356 1509 1
1356 1816 1
1356 2116 1
1356 2869 1
1356 3006 1
1356 3254 1
1356 3801 1
1356 3887 1
1356 5555 1
1356 5823 1
1356 5843 1
1356 7870 1
1356 9200 1
1356 9705 1
1357 1 1
1357 34 1
1357 90 1
1357 2336 1
1357 2540 1
1357 5208 1
1357 5857 1
1357 7716 1
1357 7760 1
1357 9819 1
1358 5 1
1358 55 1
1358 459 1
1358 832 1
1358 2078 1
1358 2980 1
1358 4062 1
1358 4243 1
1358 6650 1
1358 6816 1
1358 9357 1
1359 26 1
1359 27 1
1359 388 1
1359 498 1
1359 2457 1
1359 4171 1
1359 5098 1
1360 32 1
1360 277 1
1360 462 1
1360 1305 1
1360 2914 1
1360 3559 1
1360 4118 1
1361 18 1
1361 154 1
1361 160 1
1361 995 1
1361 1557 1
1361 1762 1
1361 2138 1
1361 2221 1
1361 2527 1
1361 2543 1
1361 2551 1
1361 3206 1
1361 4280 1
1361 4636 1
1361 6198 1
1362 1 1
1362 658 1
1362 741 1
1362 1190 1
1362 1541 1
1362 1721 1
1362 1762 1
1362 1978 1
1362 2851 1
1362 3109 1
1362 3255 1
1362 5537 1
1362 5876 1
1362 7314 1
1362 8891 1
1363 10 1
1363 74 1
1363 358 1
1363 958 1
1363 1933 1
1363 2241 1
1363 2508 1
1363 2562 1
1363 2576 1
1363 2704 1
1363 2742 1
1363 4138 1
1363 4153 1
1363 4258 1
1363 4311 1
1363 4335 1
1363 4422 1
1363 5631 1
1363 5685 1
1363 6818 1
1363 7496 1
1363 9529 1
1364 9 1
1364 81 1
1364 249 1
1364 615 1
1364 2680 1
1364 3107 1
1364 4977 1
1364 6186 1
1364 8135 1
1364 9640 1
1365 16 1
1365 274 1
1365 1017 1
1365 1045 1
1365 1862 1
1365 1926 1
1365 2713 1
1365 4645 1
1365 5720 1
1365 5741 1
1365 6036 1
1365 9260 1
1365 9265 1
1366 17 1
1366 454 1
1366 634 1
1366 954 1
1366 1412 1
1366 2345 1
1367 30 1
1367 120 1
1367 806 1
1367 965 1
1367 2518 1
1368 18 1
1368 215 1
1368 378 1
1368 767 1
1369 29 1
1369 99 1
1369 205 1
1369 587 1
1369 1588 1
1369 1895 1
1369 2072 1
1369 2626 1
1369 3091 1
1369 5124 1
1369 7399 1
1369 9268 1
1369 9310 1
1369 9576 1
1370 38 1
1370 138 1
1370 291 1
1370 819 1
1370 1888 1
1370 1905 1
1370 2071 1
1370 2344 1
1370 2504 1
1370 3349 1
1370 5873 1
1370 5975 1
1370 5983 1
1370 6063 1
1370 6608 1
1370 6641 1
1370 7179 1
1370 7344 1
1370 8939 1
1370 9251 1
1370 9612 1
1370 9829 1
1371 35 1
1371 227 1
1371 422 1
1371 1199 1
1371 1489 1
1371 1666 1
1371 1702 1
1371 2351 1
1371 3954 1
1371 5847 1
1371 6699 1
1371 8846 1
1372 11 1
1372 66 1
1372 116 1
1372 797 1
1372 1387 1
1372 5852 1
1372 6258 1
1373 17 1
1373 69 1
1373 1095 1
1373 1212 1
1373 1649 1
1373 1896 1
1373 1952 1
1373 2762 1
1373 3568 1
1373 3885 1
1373 4675 1
1373 5291 1
1373 6800 1
1373 7153 1
1373 7303 1
1373 7466 1
1373 7508 1
1373 8814 1
1374 17 1
1374 238 1
1374 604 1
1374 836 1
1374 1406 1
1374 1852 1
1374 1864 1
1374 3759 1
1374 5490 1
1374 7085 1
1374 7470 1
1375 179 1
1375 746 1
1375 997 1
1375 1263 1
1375 1551 1
1376 1 1
1376 141 1
1376 284 1
1376 1147 1
1376 2109 1
1377 194 1
1377 301 1
1377 322 1
1377 582 1
1377 4148 1
1377 5334 1
1377 5643 1
1377 8257 1
1378 325 1
1378 641 1
1378 661 1
1378 861 1
1378 3091 1
1378 6117 1
1378 6713 1
1378 7060 1
1378 7898 1
1378 8001 1
1378 9380 1
1379 18 1
1379 19 1
1379 90 1
1379 141 1
1379 1446 1
1379 2478 1
1379 2484 1
1379 2487 1
1379 3442 1
1379 4778 1
1379 4931 1
1379 5082 1
1379 5148 1
1379 7837 1
1379 8553 1
1380 69 1
1380 250 1
1380 396 1
1380 498 1
1380 2405 1
1380 4438 1
1380 5324 1
1380 5882 1
1380 6620 1
1381 51 1
1381 465 1
1381 931 1
1381 1015 1
1381 2942 1
1381 3464 1
1381 5744 1
1381 9282 1
1381 9611 1
1381 9956 1
1382 18 1
1382 154 1
1382 667 1
1382 1118 1
1382 1500 1
1382 1752 1
1382 2233 1
1382 3346 1
1382 3987 1
1382 5345 1
1382 6144 1
1382 9120 1
1382 9795 1
1383 11 1
1383 497 1
1383 513 1
1383 544 1
1383 1458 1
1383 1539 1
1383 1889 1
1383 2380 1
1383 3510 1
1383 4261 1
1383 4597 1
1383 5049 1
1383 6159 1
1383 9300 1
1383 9595 1
1384 38 1
1384 101 1
1384 137 1
1384 1127 1
1384 1984 1
1384 2252 1
1384 2970 1
1384 4180 1
1384 4348 1
1384 6485 1
1384 9639 1
1385 10 1
1385 27 1
1385 49 1
1385 254 1
1385 2305 1
1385 3122 1
1385 4693 1
1385 4934 1
1385 5298 1
1385 7853 1
1386 186 1
1386 465 1
1386 973 1
1386 1351 1
1386 1636 1
1386 3119 1
1386 4265 1
1386 7072 1
1387 11 1
1387 61 1
1387 74 1
1387 1372 1
1387 1783 1
1387 5183 1
1387 5235 1
1387 6216 1
1387 7359 1
1388 18 1
1388 299 1
1388 952 1
1388 1024 1
1388 5760 1
1388 5964 1
1388 6040 1
1388 6647 1
1388 9563 1
1389 33 1
1389 85 1
1389 981 1
1389 1234 1
1389 3280 1
1389 3510 1
1389 3541 1
1389 3547 1
1389 3916 1
1389 5172 1
1389 8654 1
1389 8891 1
1389 9352 1
1390 5 1
1390 41 1
1390 91 1
1390 762 1
1390 2719 1
1390 3786 1
1390 4267 1
1390 6129 1
1391 5 1
1391 11 1
1391 465 1
1391 556 1
1391 2669 1
1391 3381 1
1391 7072 1
1392 17 1
1392 58 1
1392 433 1
1392 914 1
1392 1579 1
1392 1892 1
1392 1997 1
1392 2606 1
1392 5411 1
1393 43 1
1393 699 1
1393 971 1
1393 1350 1
1393 1410 1
1393 1560 1
1393 2587 1
1393 2605 1
1393 4108 1
1393 4622 1
1393 6122 1
1393 6200 1
1393 8371 1
1393 9201 1
1393 9579 1
1394 51 1
1394 59 1
1394 434 1
1394 665 1
1394 2094 1
1394 3046 1
1394 4083 1
1394 4375 1
1394 5899 1
1394 6036 1
1394 6146 1
1394 8051 1
1394 8285 1
1395 74 1
1395 301 1
1395 651 1
1395 659 1
1395 4255 1
1395 4672 1
1395 4968 1
1395 6181 1
1395 7666 1
1395 7706 1
1396 11 1
1396 58 1
1396 196 1
1396 487 1
1396 1440 1
1396 5563 1
1396 6427 1
1396 6488 1
1396 7212 1
1397 66 1
1397 131 1
1397 438 1
1397 881 1
1397 1426 1
1397 1787 1
1397 2120 1
1397 2302 1
1397 3281 1
1397 3715 1
1397 4241 1
1397 4639 1
1397 5042 1
1397 5728 1
1397 6111 1
1397 6404 1
1397 9911 1
1398 11 1
1398 66 1
1398 94 1
1398 398 1
1398 4792 1
1399 196 1
1399 354 1
1399 973 1
1399 1323 1
1399 8064 1
1399 9209 1
1400 27 1
1400 191 1
1400 480 1
1400 1085 1
1400 1775 1
1400 4161 1
1400 6042 1
1400 7788 1
1401 13 1
1401 50 1
1401 263 1
1401 1273 1
1401 1686 1
1401 2654 1
1401 3039 1
1401 3646 1
1401 3773 1
1401 3977 1
1401 4291 1
1401 4628 1
1401 4669 1
1401 4949 1
1401 6698 1
1401 7603 1
1401 7893 1
1401 8555 1
1402 41 1
1402 107 1
1402 525 1
1402 1077 1
1402 1580 1
1402 3798 1
1402 9687 1
1403 12 1
1403 103 1
1403 244 1
1403 887 1
1403 1518 1
1403 1628 1
1403 6706 1
1403 7184 1
1404 14 1
1404 49 1
1404 73 1
1404 1124 1
1404 1540 1
1404 1809 1
1404 1960 1
1404 2223 1
1404 2317 1
1404 2568 1
1404 3204 1
1404 3425 1
1404 3777 1
1404 4465 1
1404 4530 1
1404 5586 1
1404 8837 1
1404 9187 1
1404 9944 1
1405 14 1
1405 28 1
1405 50 1
1405 417 1
1405 1741 1
1405 1831 1
1405 2686 1
1405 3322 1
1405 3631 1
1405 6651 1
1405 6683 1
1406 695 1
1406 836 1
1406 1218 1
1406 1374 1
1406 3770 1
1406 8928 1
1407 28 1
1407 62 1
1407 412 1
1407 811 1
1407 7468 1
1407 8290 1
1407 9703 1
1407 9734 1
1408 231 1
1408 563 1
1408 583 1
1408 1213 1
1408 1427 1
1408 1914 1
1408 8265 1
1409 468 1
1409 605 1
1409 1041 1
1409 1142 1
1409 1586 1
1409 2046 1
1409 2121 1
1409 2640 1
1409 3374 1
1409 4720 1
1409 4917 1
1409 8316 1
1409 9684 1
1410 211 1
1410 232 1
1410 323 1
1410 1393 1
1410 2587 1
1410 3050 1
1410 9924 1
1411 310 1
1411 497 1
1411 836 1
1411 990 1
1411 2437 1
1411 3522 1
1411 9025 1
1411 9123 1
1412 35 1
1412 104 1
1412 290 1
1412 1366 1
1412 7723 1
1412 8045 1
1413 14 1
1413 114 1
1413 635 1
1413 726 1
1413 1757 1
1413 2607 1
1413 5248 1
1413 5644 1
1413 6527 1
1413 6589 1
1413 7636 1
1413 8464 1
1413 8580 1
1413 8873 1
1414 126 1
1414 141 1
1414 628 1
1414 819 1
1414 1552 1
1414 1642 1
1414 5329 1
1414 5436 1
1414 5945 1
1414 6065 1
1414 6273 1
1414 6886 1
1414 6982 1
1414 9308 1
1414 9615 1
1415 89 1
1415 103 1
1415 129 1
1415 556 1
1415 1749 1
1415 3305 1
1415 4275 1
1415 4891 1
1415 5170 1
1415 6875 1
1415 7535 1
1415 9490 1
1415 9671 1
1416 154 1
1416 534 1
1416 1082 1
1416 1141 1
1416 1764 1
1416 2189 1
1416 6349 1
1417 48 1
1417 175 1
1417 405 1
1417 574 1
1417 1429 1
1417 2580 1
1417 6281 1
1417 7165 1
1417 8154 1
1417 8159 1
1417 9152 1
1417 9309 1
1417 9924 1
1418 131 1
1418 197 1
1418 817 1
1418 1260 1
1418 2301 1
1418 2554 1
1418 2732 1
1418 6296 1
1418 8742 1
1418 8894 1
1419 4 1
1419 73 1
1419 131 1
1419 221 1
1419 3440 1
1419 3649 1
1419 4100 1
1419 4454 1
1419 4662 1
1419 5015 1
1419 6439 1
1419 9205 1
1419 9983 1
1420 17 1
1420 54 1
1420 70 1
1420 124 1
1420 5322 1
1421 17 1
1421 174 1
1421 276 1
1421 562 1
1422 90 1
1422 642 1
1422 709 1
1422 1171 1
1422 4459 1
1422 4520 1
1422 9461 1
1422 9741 1
1423 161 1
1423 361 1
1423 493 1
1423 1339 1
1423 2409 1
1424 12 1
1424 133 1
1424 174 1
1424 877 1
1424 5178 1
1424 8501 1
1424 9312 1
1424 9753 1
1425 12 1
1425 17 1
1425 841 1
1425 889 1
1425 1676 1
1425 2570 1
1425 5545 1
1425 8430 1
1425 8860 1
1425 9007 1
1426 4 1
1426 251 1
1426 1116 1
1426 1397 1
1426 1787 1
1426 3314 1
1426 5097 1
1426 6649 1
1426 7142 1
1426 8074 1
1426 8914 1
1427 29 1
1427 138 1
1427 1213 1
1427 1408 1
1427 2852 1
1427 4174 1
1427 5055 1
1427 6081 1
1427 7268 1
1427 7679 1
1427 8117 1
1427 8636 1
1428 3 1
1428 28 1
1428 85 1
1428 396 1
1428 1481 1
1428 1539 1
1428 1837 1
1428 2203 1
1428 2265 1
1428 3504 1
1428 4048 1
1428 4139 1
1428 4185 1
1428 4390 1
1428 4911 1
1428 6900 1
1428 9895 1
1429 51 1
1429 386 1
1429 1015 1
1429 1417 1
1429 1458 1
1429 1859 1
1429 1889 1
1429 3424 1
1429 3805 1
1429 3840 1
1429 3992 1
1429 4946 1
1429 5373 1
1429 6616 1
1429 7691 1
1429 8555 1
1429 8835 1
1430 132 1
1430 569 1
1430 1160 1
1430 1220 1
1430 3332 1
1431 18 1
1431 70 1
1431 147 1
1431 1265 1
1431 3863 1
1431 7004 1
1432 9 1
1432 11 1
1432 183 1
1432 546 1
1432 3619 1
1432 6026 1
1432 6365 1
1432 6967 1
1433 34 1
1433 77 1
1433 183 1
1433 1235 1
1433 2481 1
1433 4529 1
1433 5063 1
1433 5194 1
1433 5700 1
1433 8132 1
1434 258 1
1434 459 1
1434 685 1
1434 1122 1
1434 1672 1
1434 2262 1
1434 3360 1
1434 4096 1
1434 5576 1
1434 7663 1
1435 1 1
1435 10 1
1435 684 1
1435 873 1
1435 1759 1
1435 4758 1
1435 5338 1
1435 5921 1
1435 8286 1
1436 194 1
1436 277 1
1436 436 1
1436 474 1
1436 6011 1
1437 11 1
1437 50 1
1437 275 1
1437 544 1
1437 2874 1
1438 18 1
1438 52 1
1438 92 1
1438 993 1
1438 5826 1
1438 8631 1
1439 2 1
1439 171 1
1439 580 1
1439 1281 1
1439 1814 1
1439 3247 1
1439 4589 1
1440 9 1
1440 77 1
1440 377 1
1440 1396 1
1440 2615 1
1440 6488 1
1440 7201 1
1440 7640 1
1440 9785 1
1441 18 1
1441 19 1
1441 121 1
1441 146 1
1441 3219 1
1441 4782 1
1441 4799 1
1441 5987 1
1441 6221 1
1441 6441 1
1441 6984 1
1441 7580 1
1441 9581 1
1442 18 1
1442 378 1
1442 576 1
1442 766 1
1442 1444 1
1442 1533 1
1442 2634 1
1442 2765 1
1442 2917 1
1442 3473 1
1442 4712 1
1442 5155 1
1442 5706 1
1442 6022 1
1442 6152 1
1442 8544 1
1442 8591 1
1442 8747 1
1443 18 1
1443 852 1
1443 1027 1
1443 1276 1
1443 2266 1
1443 2308 1
1443 2330 1
1443 2574 1
1443 4581 1
1443 5894 1
1444 10 1
1444 137 1
1444 1231 1
1444 1442 1
1444 2727 1
1444 7487 1
1444 7708 1
1444 9523 1
1445 36 1
1445 637 1
1445 810 1
1445 963 1
1445 1915 1
1445 2845 1
1445 2947 1
1445 4284 1
1445 5255 1
1445 7093 1
1445 8549 1
1445 9201 1
1446 8 1
1446 383 1
1446 780 1
1446 1379 1
1446 1979 1
1446 2041 1
1446 2413 1
1446 4248 1
1446 5532 1
1446 8726 1
1447 9 1
1447 66 1
1447 197 1
1447 274 1
1447 2240 1
1447 2898 1
1447 6220 1
1447 7404 1
1448 250 1
1448 321 1
1448 465 1
1448 563 1
1448 2918 1
1448 3730 1
1448 5744 1
1448 6123 1
1448 7987 1
1448 8604 1
1448 9133 1
1449 25 1
1449 90 1
1449 141 1
1449 820 1
1449 3931 1
1450 399 1
1450 459 1
1450 502 1
1450 985 1
1450 1756 1
1450 4701 1
1450 8058 1
1451 5 1
1451 414 1
1451 449 1
1451 790 1
1451 1894 1
1451 2641 1
1451 3475 1
1451 3605 1
1451 4009 1
1451 4184 1
1451 4468 1
1451 4732 1
1451 5111 1
1451 5153 1
1451 5191 1
1451 5389 1
1451 8701 1
1451 9228 1
1452 14 1
1452 665 1
1452 906 1
1452 1346 1
1452 1815 1
1452 1866 1
1452 2009 1
1452 2232 1
1452 2860 1
1452 4444 1
1452 4944 1
1452 6201 1
1452 6378 1
1452 8845 1
1452 9465 1
1453 41 1
1453 94 1
1453 601 1
1453 1245 1
1453 2106 1
1453 2465 1
1453 3082 1
1453 5684 1
1454 134 1
1454 585 1
1454 630 1
1454 1302 1
1454 1515 1
1454 1675 1
1454 2524 1
1454 2600 1
1454 3443 1
1454 3976 1
1454 5335 1
1454 6143 1
1454 7768 1
1455 1 1
1455 73 1
1455 154 1
1455 556 1
1455 1719 1
1455 2495 1
1455 5568 1
1456 25 1
1456 26 1
1456 569 1
1456 1126 1
1456 2579 1
1456 2750 1
1456 3086 1
1456 3403 1
1456 4840 1
1456 5271 1
1456 5762 1
1456 9677 1
1457 9 1
1457 49 1
1457 196 1
1457 291 1
1457 2231 1
1457 2648 1
1457 2793 1
1457 3329 1
1457 5577 1
1457 7278 1
1458 700 1
1458 742 1
1458 1383 1
1458 1429 1
1458 1596 1
1458 1889 1
1458 3024 1
1458 3992 1
1458 5049 1
1458 6159 1
1458 6361 1
1458 6710 1
1458 8225 1
1459 9 1
1459 89 1
1459 144 1
1459 1052 1
1459 3345 1
1459 4324 1
1459 5367 1
1460 219 1
1460 329 1
1460 340 1
1460 524 1
1460 6069 1
1460 6476 1
1460 6815 1
1461 2 1
1461 108 1
1461 182 1
1461 399 1
1461 6025 1
1462 473 1
1462 498 1
1462 515 1
1462 725 1
1462 2821 1
1462 5900 1
1462 6988 1
1463 27 1
1463 202 1
1463 703 1
1463 1165 1
1463 2040 1
1463 3680 1
1463 4238 1
1463 4575 1
1464 9 1
1464 53 1
1464 442 1
1464 683 1
1464 3611 1
1464 8522 1
1465 649 1
1465 762 1
1465 848 1
1465 914 1
1465 1600 1
1465 2238 1
1465 2645 1
1465 3083 1
1465 3433 1
1465 3506 1
1465 4263 1
1465 4393 1
1465 4551 1
1465 4674 1
1465 5787 1
1465 5788 1
1465 6282 1
1465 7751 1
1465 8158 1
1465 8344 1
1465 8861 1
1465 9210 1
1465 9826 1
1466 269 1
1466 429 1
1466 481 1
1466 990 1
1466 2847 1
1466 3622 1
1466 3856 1
1466 4841 1
1466 5614 1
1466 6614 1
1466 7195 1
1466 8144 1
1466 9224 1
1466 9618 1
1466 9925 1
1467 3 1
1467 6 1
1467 175 1
1467 700 1
1467 3095 1
1467 6676 1
1467 8955 1
1468 303 1
1468 361 1
1468 380 1
1468 1037 1
1468 4253 1
1468 4337 1
1468 4464 1
1468 4670 1
1468 5251 1
1468 5381 1
1469 163 1
1469 589 1
1469 1015 1
1469 1065 1
1469 2032 1
1469 3225 1
1469 3343 1
1469 4641 1
1469 5426 1
1469 9646 1
1470 10 1
1470 92 1
1470 485 1
1470 865 1
1470 1977 1
1470 2368 1
1470 2617 1
1470 4025 1
1470 4131 1
1471 186 1
1471 300 1
1471 799 1
1471 1329 1
1471 1475 1
1471 9596 1
1472 11 1
1472 18 1
1472 110 1
1472 529 1
1472 3112 1
1472 5199 1
1472 6274 1
1473 19 1
1473 212 1
1473 219 1
1473 262 1
1473 2260 1
1473 2438 1
1473 2986 1
1473 3297 1
1473 3306 1
1473 5920 1
1473 6214 1
1473 7287 1
1473 8138 1
1473 8999 1
1474 4 1
1474 14 1
1474 35 1
1474 553 1
1474 1736 1
1474 2048 1
1474 7182 1
1475 33 1
1475 584 1
1475 910 1
1475 1471 1
1475 1872 1
1475 3539 1
1475 5714 1
1475 6335 1
1475 9364 1
1475 9997 1
1476 147 1
1476 205 1
1476 425 1
1476 547 1
1476 1855 1
1476 2839 1
1476 3160 1
1476 4717 1
1476 4818 1
1476 5673 1
1476 6841 1
1476 9014 1
1476 9232 1
1477 1 1
1477 165 1
1477 183 1
1477 965 1
1477 1822 1
1477 3464 1
1477 7076 1
1477 8377 1
1477 8413 1
1477 8712 1
1478 30 1
1478 614 1
1478 860 1
1478 1247 1
1478 4206 1
1478 6576 1
1479 2 1
1479 30 1
1479 139 1
1479 555 1
1479 4896 1
1480 34 1
1480 131 1
1480 185 1
1480 1009 1
1480 1930 1
1480 3790 1
1480 6897 1
1481 85 1
1481 825 1
1481 1259 1
1481 1428 1
1481 2075 1
1481 2751 1
1481 4368 1
1481 4437 1
1481 5153 1
1481 7511 1
1481 7533 1
1481 8387 1
1481 9516 1
1482 26 1
1482 130 1
1482 235 1
1482 1241 1
1482 3358 1
1482 3438 1
1482 3995 1
1482 4859 1
1482 5060 1
1482 6173 1
1482 6738 1
1482 7610 1
1482 9909 1
1483 170 1
1483 472 1
1483 584 1
1483 1122 1
1483 2513 1
1483 3035 1
1483 3170 1
1483 3526 1
1483 3544 1
1483 3947 1
1483 4504 1
1483 5238 1
1483 5278 1
1483 8209 1
1483 9792 1
1484 11 1
1484 26 1
1484 867 1
1484 1247 1
1484 3246 1
1484 6090 1
1484 9085 1
1485 10 1
1485 99 1
1485 101 1
1485 365 1
1485 2488 1
1485 5971 1
1485 8468 1
1485 9932 1
1486 2 1
1486 9 1
1486 1067 1
1486 1138 1
1486 1674 1
1486 2234 1
1486 3313 1
1486 3464 1
1486 3745 1
1486 4126 1
1486 4247 1
1486 6810 1
1486 6896 1
1486 7211 1
1487 2 1
1487 66 1
1487 274 1
1487 1041 1
1487 2498 1
1487 3964 1
1487 7933 1
1487 8980 1
1488 18 1
1488 719 1
1488 861 1
1488 1168 1
1488 3572 1
1488 3939 1
1489 852 1
1489 1057 1
1489 1214 1
1489 1371 1
1489 3653 1
1490 18 1
1490 353 1
1490 574 1
1490 1276 1
1490 2548 1
1490 4294 1
1490 4762 1
1490 5189 1
1490 6056 1
1490 8188 1
1490 8572 1
1490 8864 1
1491 10 1
1491 285 1
1491 545 1
1491 579 1
1491 2761 1
1491 6175 1
1491 6869 1
1491 7819 1
1492 131 1
1492 217 1
1492 289 1
1492 549 1
1492 2270 1
1492 3920 1
1493 454 1
1493 594 1
1493 870 1
1493 1154 1
1493 2068 1
1493 4088 1
1493 4497 1
1494 15 1
1494 232 1
1494 583 1
1494 991 1
1494 3599 1
1495 25 1
1495 67 1
1495 131 1
1495 592 1
1495 4138 1
1495 5804 1
1495 6100 1
1496 17 1
1496 25 1
1496 404 1
1496 755 1
1497 81 1
1497 374 1
1497 659 1
1497 673 1
1497 2638 1
1497 2958 1
1497 4844 1
1497 8625 1
1498 42 1
1498 146 1
1498 301 1
1498 511 1
1498 2216 1
1498 7135 1
1498 8254 1
1499 18 1
1499 30 1
1499 121 1
1499 1331 1
1499 3125 1
1499 5046 1
1499 5197 1
1499 6749 1
1500 9 1
1500 18 1
1500 202 1
1500 1382 1
1500 1563 1
1500 1680 1
1500 1930 1
1500 3500 1
1500 3829 1
1500 3933 1
1500 4401 1
1500 5720 1
1500 6972 1
1500 7117 1
1500 7587 1
1500 7695 1
1500 7837 1
1500 8424 1
1500 9295 1
1501 4 1
1501 73 1
1501 81 1
1501 218 1
1501 2150 1
1501 4472 1
1501 5455 1
1501 5603 1
1501 8858 1
1502 5 1
1502 25 1
1502 915 1
1502 993 1
1502 1632 1
1502 1763 1
1502 2381 1
1502 6004 1
1502 6188 1
1502 6191 1
1503 49 1
1503 699 1
1503 930 1
1503 1170 1
1503 1918 1
1503 2347 1
1504 9 1
1504 261 1
1504 683 1
1504 1090 1
1504 1637 1
1504 2206 1
1504 3525 1
1504 3756 1
1504 6596 1
1504 7650 1
1504 8309 1
1505 41 1
1505 234 1
1505 664 1
1505 1182 1
1505 1803 1
1505 2700 1
1505 3260 1
1505 4474 1
1505 7617 1
1505 7841 1
1506 11 1
1506 91 1
1506 508 1
1506 957 1
1506 1625 1
1506 1928 1
1506 2796 1
1506 3151 1
1506 4639 1
1506 5190 1
1506 8648 1
1506 8680 1
1507 2 1
1507 273 1
1507 553 1
1507 1217 1
1507 1610 1
1507 1736 1
1507 1781 1
1507 2304 1
1507 2699 1
1507 3381 1
1507 5581 1
1507 6322 1
1507 6430 1
1507 6474 1
1507 7148 1
1507 7349 1
1507 7724 1
1507 8057 1
1507 8130 1
1507 8189 1
1507 8878 1
1508 33 1
1508 495 1
1508 698 1
1508 724 1
1508 1907 1
1508 2975 1
1508 7742 1
1508 9631 1
1509 81 1
1509 718 1
1509 1275 1
1509 1356 1
1509 1863 1
1509 5843 1
1510 17 1
1510 97 1
1510 167 1
1510 828 1
1510 1635 1
1510 1908 1
1510 1910 1
1510 3362 1
1510 5873 1
1510 7383 1
1510 9265 1
1511 2 1
1511 12 1
1511 427 1
1511 650 1
1511 1727 1
1511 5234 1
1511 5342 1
1511 5627 1
1511 6350 1
1512 19 1
1512 478 1
1512 1089 1
1512 1147 1
1512 2275 1
1512 2432 1
1512 7611 1
1513 38 1
1513 417 1
1513 897 1
1513 1189 1
1513 1663 1
1513 3222 1
1513 3372 1
1513 4019 1
1513 4654 1
1513 4699 1
1513 5479 1
1513 6657 1
1513 7267 1
1513 7432 1
1513 7496 1
1513 9343 1
1513 9453 1
1513 9678 1
1514 258 1
1514 281 1
1514 986 1
1514 1023 1
1514 2255 1
1514 3831 1
1514 5001 1
1514 5725 1
1514 5925 1
1514 6006 1
1514 6626 1
1514 7002 1
1514 7281 1
1514 7748 1
1514 8512 1
1515 36 1
1515 663 1
1515 1069 1
1515 1454 1
1515 1664 1
1515 1794 1
1515 2348 1
1515 2998 1
1515 3218 1
1515 4549 1
1515 5020 1
1515 5633 1
1515 5929 1
1515 6062 1
1515 6143 1
1515 7048 1
1515 7454 1
1515 7716 1
1515 9148 1
1515 9442 1
1515 9717 1
1516 59 1
1516 108 1
1516 295 1
1516 1234 1
1516 1644 1
1516 2280 1
1516 3244 1
1516 4581 1
1516 6012 1
1517 43 1
1517 187 1
1517 231 1
1517 306 1
1517 1800 1
1517 2075 1
1517 7994 1
1518 25 1
1518 887 1
1518 991 1
1518 1403 1
1518 1691 1
1518 2659 1
1518 4838 1
1518 4993 1
1518 5317 1
1518 6131 1
1519 19 1
1519 83 1
1519 113 1
1519 175 1
1519 1780 1
1519 6314 1
1519 7306 1
1520 1 1
1520 9 1
1520 210 1
1520 924 1
1520 3496 1
1520 5694 1
1520 6412 1
1520 8920 1
1521 5 1
1521 17 1
1521 179 1
1521 224 1
1521 1656 1
1521 4932 1
1521 6055 1
1521 7309 1
1522 25 1
1522 146 1
1522 153 1
1522 212 1
1522 2605 1
1522 4256 1
1522 6481 1
1522 7968 1
1522 8007 1
1522 8113 1
1523 254 1
1523 716 1
1523 1046 1
1523 1057 1
1523 1967 1
1523 2095 1
1523 2873 1
1523 3934 1
1523 4072 1
1523 4739 1
1523 4939 1
1524 48 1
1524 195 1
1524 297 1
1524 785 1
1524 1853 1
1524 1951 1
1524 2988 1
1524 3070 1
1524 3270 1
1524 4132 1
1524 4743 1
1524 5703 1
1524 6305 1
1524 6615 1
1524 6819 1
1524 8092 1
1524 8372 1
1524 8494 1
1524 8794 1
1525 4 1
1525 17 1
1525 149 1
1525 177 1
1525 2180 1
1525 2212 1
1525 2436 1
1525 2929 1
1525 3090 1
1525 3434 1
1525 3854 1
1525 3979 1
1525 4074 1
1525 5391 1
1525 5670 1
1525 5895 1
1525 7161 1
1525 7307 1
1525 7559 1
1526 18 1
1526 210 1
1526 867 1
1526 1293 1
1526 1561 1
1526 2790 1
1526 4168 1
1526 5139 1
1526 6198 1
1526 7378 1
1526 8504 1
1526 9393 1
1527 162 1
1527 168 1
1527 1201 1
1527 1240 1
1527 9557 1
1528 35 1
1528 163 1
1528 547 1
1528 868 1
1528 2042 1
1528 2123 1
1528 2212 1
1528 3484 1
1528 3952 1
1528 4553 1
1528 7054 1
1528 7605 1
1528 8539 1
1528 8588 1
1528 9405 1
1528 9736 1
1529 59 1
1529 342 1
1529 655 1
1529 1319 1
1529 1832 1
1529 2174 1
1529 2196 1
1529 2828 1
1529 2893 1
1529 3143 1
1529 3597 1
1529 3710 1
1529 5289 1
1529 7521 1
1529 8136 1
1529 8327 1
1529 8696 1
1529 9160 1
1529 9234 1
1529 9450 1
1530 18 1
1530 137 1
1530 814 1
1530 1297 1
1530 1705 1
1530 2018 1
1530 3433 1
1530 3959 1
1530 4101 1
1530 5078 1
1530 5119 1
1530 6113 1
1530 6653 1
1530 6952 1
1530 7724 1
1530 7727 1
1530 8329 1
1530 9435 1
1530 9702 1
1530 9942 1
1531 4 1
1531 10 1
1531 632 1
1531 1105 1
1531 1716 1
1531 1723 1
1531 2081 1
1531 3220 1
1531 3238 1
1531 3461 1
1531 3550 1
1531 5312 1
1531 7025 1
1531 7919 1
1531 8166 1
1531 8985 1
1531 9617 1
1532 9 1
1532 25 1
1532 715 1
1532 1308 1
1532 1606 1
1532 1720 1
1532 2494 1
1532 2972 1
1532 4857 1
1532 5246 1
1532 5588 1
1532 6595 1
1532 8541 1
1532 8898 1
1532 8976 1
1533 222 1
1533 395 1
1533 656 1
1533 1442 1
1533 2765 1
1533 2917 1
1533 4477 1
1533 5375 1
1533 6292 1
1533 7125 1
1533 8544 1
1533 8647 1
1534 4 1
1534 38 1
1534 887 1
1534 1211 1
1534 1784 1
1535 89 1
1535 101 1
1535 777 1
1535 1311 1
1535 2473 1
1535 3263 1
1535 3487 1
1535 3571 1
1535 8447 1
1536 11 1
1536 41 1
1536 42 1
1536 245 1
1536 1871 1
1536 2918 1
1536 3402 1
1536 7678 1
1536 7781 1
1537 5 1
1537 21 1
1537 263 1
1537 521 1
1537 1689 1
1537 1807 1
1537 2981 1
1537 4104 1
1537 4368 1
1537 4856 1
1537 5379 1
1537 5540 1
1537 6160 1
1537 6216 1
1537 7036 1
1538 5 1
1538 28 1
1538 41 1
1538 592 1
1538 1795 1
1538 4466 1
1539 89 1
1539 184 1
1539 1383 1
1539 1428 1
1539 2076 1
1539 2520 1
1539 2689 1
1539 2803 1
1539 3003 1
1539 4730 1
1539 5553 1
1539 5886 1
1539 6005 1
1539 7469 1
1539 7584 1
1539 8153 1
1540 107 1
1540 110 1
1540 531 1
1540 1404 1
1540 2922 1
1540 6025 1
1540 7505 1
1540 9065 1
1540 9601 1
1541 913 1
1541 953 1
1541 1218 1
1541 1362 1
1541 1615 1
1541 4099 1
1541 9150 1
1542 208 1
1542 451 1
1542 705 1
1542 823 1
1542 1861 1
1542 4644 1
1542 8346 1
1542 9244 1
1543 9 1
1543 42 1
1543 194 1
1543 353 1
1543 7451 1
1543 8816 1
1544 1 1
1544 129 1
1544 133 1
1544 368 1
1544 2200 1
1544 3350 1
1544 9283 1
1545 2 1
1545 129 1
1545 329 1
1545 1044 1
1545 1750 1
1545 1968 1
1545 2685 1
1545 3284 1
1545 4911 1
1545 7652 1
1545 8256 1
1545 9098 1
1545 9933 1
1546 314 1
1546 349 1
1546 372 1
1546 448 1
1546 2221 1
1546 2623 1
1546 5828 1
1546 6523 1
1546 7037 1
1546 7895 1
1546 8840 1
1546 9016 1
1546 9178 1
1547 102 1
1547 187 1
1547 263 1
1547 837 1
1547 1601 1
1547 1661 1
1547 1851 1
1547 1907 1
1547 3884 1
1547 4015 1
1547 4428 1
1547 4540 1
1547 4678 1
1547 5948 1
1547 6385 1
1547 6812 1
1547 9330 1
1547 9778 1
1547 9876 1
1548 18 1
1548 55 1
1548 141 1
1548 459 1
1548 2842 1
1548 7750 1
1548 8186 1
1549 93 1
1549 1071 1
1549 1268 1
1549 1326 1
1549 7738 1
1549 7953 1
1549 8631 1
1550 92 1
1550 110 1
1550 602 1
1550 1019 1
1550 1981 1
1550 2271 1
1550 3954 1
1550 4777 1
1550 5560 1
1550 6142 1
1550 7289 1
1550 9315 1
1551 1 1
1551 4 1
1551 1263 1
1551 1375 1
1551 3198 1
1551 4780 1
1551 4885 1
1551 4948 1
1551 5259 1
1551 5932 1
1551 6805 1
1551 7014 1
1552 197 1
1552 1067 1
1552 1245 1
1552 1414 1
1552 1674 1
1552 4895 1
1553 49 1
1553 300 1
1553 319 1
1553 1351 1
1553 2308 1
1553 2382 1
1553 3297 1
1553 5175 1
1553 7225 1
1553 7561 1
1554 31 1
1554 83 1
1554 348 1
1554 913 1
1554 2128 1
1554 3461 1
1555 194 1
1555 266 1
1555 311 1
1555 387 1
1555 1960 1
1555 2272 1
1555 2326 1
1555 2535 1
1555 3503 1
1555 4208 1
1555 4922 1
1555 5351 1
1555 6677 1
1555 6890 1
1555 7249 1
1555 7372 1
1555 8373 1
1555 8565 1
1555 8909 1
1555 9139 1
1555 9669 1
1556 116 1
1556 157 1
1556 464 1
1556 987 1
1556 2652 1
1556 3291 1
1556 3676 1
1556 4058 1
1556 4129 1
1556 4583 1
1556 5990 1
1556 6102 1
1556 6478 1
1556 6906 1
1556 7057 1
1556 7645 1
1556 9140 1
1557 18 1
1557 410 1
1557 995 1
1557 1361 1
1557 2377 1
1557 2498 1
1557 2865 1
1557 3530 1
1557 3543 1
1557 4451 1
1557 5159 1
1557 5171 1
1557 6577 1
1557 6821 1
1557 7184 1
1557 8927 1
1557 9514 1
1557 9542 1
1558 153 1
1558 162 1
1558 213 1
1558 1101 1
1558 1860 1
1558 2182 1
1558 2739 1
1558 4486 1
1558 5774 1
1558 6866 1
1558 7469 1
1559 9 1
1559 348 1
1559 516 1
1559 533 1
1559 4376 1
1559 6550 1
1560 6 1
1560 156 1
1560 1067 1
1560 1393 1
1560 4631 1
1560 6074 1
1560 6122 1
1560 9578 1
1561 89 1
1561 305 1
1561 1278 1
1561 1526 1
1561 2164 1
1561 4794 1
1562 6 1
1562 134 1
1562 180 1
1562 944 1
1562 2331 1
1562 2854 1
1562 4312 1
1562 5861 1
1562 7562 1
1563 9 1
1563 729 1
1563 931 1
1563 1500 1
1563 2485 1
1563 4124 1
1563 6362 1
1563 8518 1
1563 9387 1
1563 9560 1
1564 10 1
1564 18 1
1564 138 1
1564 1305 1
1564 2613 1
1564 5150 1
1564 8272 1
1564 9945 1
1565 52 1
1565 375 1
1565 1013 1
1565 1275 1
1565 1685 1
1565 1714 1
1565 1722 1
1565 2458 1
1565 3672 1
1565 4638 1
1565 5753 1
1565 7341 1
1566 89 1
1566 238 1
1566 963 1
1566 971 1
1566 1949 1
1566 2153 1
1566 2293 1
1566 2312 1
1566 3121 1
1566 3449 1
1566 4302 1
1566 4901 1
1566 5160 1
1566 6968 1
1566 7487 1
1567 20 1
1567 91 1
1567 210 1
1567 645 1
1567 1647 1
1567 1933 1
1567 2163 1
1567 3597 1
1567 4252 1
1567 5869 1
1567 5923 1
1567 6057 1
1567 6666 1
1567 6969 1
1567 7100 1
1567 7443 1
1567 8590 1
1568 28 1
1568 146 1
1568 230 1
1568 569 1
1568 4399 1
1568 4413 1
1568 4811 1
1569 875 1
1569 1052 1
1569 1070 1
1569 1132 1
1569 3704 1
1569 6264 1
1569 6791 1
1570 21 1
1570 181 1
1570 761 1
1570 1099 1
1570 2417 1
1570 3186 1
1570 3533 1
1570 5685 1
1570 5942 1
1570 7721 1
1570 7951 1
1570 9297 1
1571 163 1
1571 205 1
1571 330 1
1571 1283 1
1571 2141 1
1571 2855 1
1571 2908 1
1571 3203 1
1571 3755 1
1571 3813 1
1571 3956 1
1571 6158 1
1571 6280 1
1571 6765 1
1571 8874 1
1571 8987 1
1572 4 1
1572 5 1
1572 92 1
1572 982 1
1572 1745 1
1572 1885 1
1572 1940 1
1572 1983 1
1572 1990 1
1572 2032 1
1572 2220 1
1572 2811 1
1572 3124 1
1572 3190 1
1572 3230 1
1572 3432 1
1572 3586 1
1572 3632 1
1572 3996 1
1572 4063 1
1572 4181 1
1572 4222 1
1572 4522 1
1572 5343 1
1572 6342 1
1572 6412 1
1572 7080 1
1572 7403 1
1572 8675 1
1572 9235 1
1573 153 1
1573 386 1
1573 462 1
1573 827 1
1573 3011 1
1573 5073 1
1573 8583 1
1574 4 1
1574 131 1
1574 658 1
1574 1221 1
1574 1597 1
1574 2721 1
1574 2851 1
1574 3148 1
1574 3251 1
1574 4775 1
1574 4861 1
1574 5434 1
1574 5475 1
1574 8244 1
1574 8625 1
1574 9092 1
1575 194 1
1575 266 1
1575 318 1
1575 629 1
1575 3018 1
1575 3708 1
1575 4665 1
1575 7059 1
1575 9602 1
1576 92 1
1576 195 1
1576 214 1
1576 394 1
1577 345 1
1577 359 1
1577 484 1
1577 1038 1
1577 5485 1
1577 7604 1
1577 9968 1
1578 49 1
1578 522 1
1578 564 1
1578 963 1
1578 1733 1
1578 2014 1
1578 2080 1
1578 2118 1
1578 3814 1
1578 5523 1
1578 5721 1
1578 6016 1
1578 6219 1
1578 6736 1
1578 6791 1
1578 8008 1
1578 9197 1
1579 17 1
1579 170 1
1579 634 1
1579 1392 1
1579 1987 1
1579 3303 1
1579 4187 1
1579 6276 1
1579 7292 1
1580 41 1
1580 94 1
1580 545 1
1580 1402 1
1580 3344 1
1580 5315 1
1580 6673 1
1580 7807 1
1580 7927 1
1581 17 1
1581 187 1
1581 1271 1
1581 1313 1
1581 3087 1
1581 3354 1
1581 5067 1
1581 8800 1
1581 8834 1
1581 9404 1
1582 396 1
1582 417 1
1582 510 1
1582 1155 1
1582 1802 1
1582 3286 1
1583 59 1
1583 273 1
1583 493 1
1583 519 1
1583 4849 1
1583 5004 1
1583 5303 1
1584 11 1
1584 187 1
1584 190 1
1584 858 1
1584 2333 1
1584 2837 1
1584 5174 1
1584 8375 1
1585 91 1
1585 738 1
1585 883 1
1585 988 1
1585 4224 1
1585 4734 1
1585 5152 1
1585 5870 1
1585 7986 1
1585 8957 1
1586 468 1
1586 605 1
1586 1142 1
1586 1409 1
1586 1961 1
1586 2120 1
1586 2277 1
1586 3241 1
1586 3746 1
1586 5337 1
1586 5641 1
1586 6168 1
1586 6186 1
1586 6643 1
1586 6698 1
1586 7013 1
1586 9591 1
1587 180 1
1587 292 1
1587 593 1
1587 1332 1
1587 1700 1
1587 3821 1
1587 4118 1
1587 4594 1
1587 5257 1
1587 5525 1
1587 7488 1
1587 7896 1
1587 8247 1
1587 8973 1
1588 99 1
1588 205 1
1588 587 1
1588 1369 1
1588 1822 1
1588 2062 1
1588 2220 1
1588 2324 1
1588 2626 1
1588 4095 1
1588 7490 1
1588 9268 1
1589 5 1
1589 297 1
1589 858 1
1589 1052 1
1589 2283 1
1589 3088 1
1589 4163 1
1589 4722 1
1589 6067 1
1590 4 1
1590 28 1
1590 849 1
1590 994 1
1590 2005 1
1590 2677 1
1590 4067 1
1590 9002 1
1590 9914 1
1591 11 1
1591 826 1
1591 861 1
1591 1312 1
1591 8523 1
1591 8734 1
1592 11 1
1592 630 1
1592 858 1
1592 1156 1
1592 4788 1
1593 9 1
1593 434 1
1593 683 1
1593 987 1
1593 1600 1
1593 1648 1
1593 2136 1
1593 2176 1
1593 2972 1
1593 3573 1
1593 3778 1
1593 3803 1
1594 6 1
1594 15 1
1594 57 1
1594 661 1
1594 1778 1
1594 2352 1
1594 3070 1
1594 4985 1
1594 6351 1
1595 41 1
1595 137 1
1595 979 1
1595 1047 1
1595 2145 1
1595 9254 1
1596 633 1
1596 739 1
1596 742 1
1596 1458 1
1596 5314 1
1596 6361 1
1596 7477 1
1596 8225 1
1596 8625 1
1597 4 1
1597 85 1
1597 282 1
1597 1574 1
1597 1769 1
1597 1783 1
1597 1873 1
1597 2682 1
1597 2707 1
1597 2915 1
1597 4333 1
1597 4900 1
1597 6334 1
1597 7641 1
1597 8956 1
1597 9502 1
1598 33 1
1598 148 1
1598 674 1
1598 986 1
1598 4864 1
1599 61 1
1599 92 1
1599 138 1
1599 277 1
1599 1613 1
1599 2818 1
1600 179 1
1600 834 1
1600 1465 1
1600 1593 1
1600 2179 1
1600 2645 1
1601 354 1
1601 495 1
1601 1095 1
1601 1547 1
1601 2778 1
1601 3053 1
1601 6502 1
1601 7334 1
1602 132 1
1602 180 1
1602 186 1
1602 942 1
1602 1633 1
1602 2966 1
1602 3331 1
1602 3980 1
1602 3984 1
1602 4688 1
1602 8068 1
1603 4 1
1603 144 1
1603 250 1
1603 1033 1
1603 1607 1
1603 2999 1
1603 5038 1
1603 6556 1
1604 169 1
1604 219 1
1604 330 1
1604 1233 1
1604 1888 1
1604 2648 1
1604 5529 1
1604 9810 1
1605 154 1
1605 257 1
1605 415 1
1605 649 1
1605 2449 1
1605 3236 1
1605 5160 1
1605 6430 1
1605 6958 1
1605 8130 1
1605 9842 1
1606 9 1
1606 122 1
1606 930 1
1606 1532 1
1606 2267 1
1606 2494 1
1606 5843 1
1607 45 1
1607 283 1
1607 1199 1
1607 1603 1
1607 2536 1
1607 3071 1
1607 4303 1
1607 5549 1
1607 7794 1
1608 81 1
1608 369 1
1608 452 1
1608 745 1
1608 1841 1
1608 4082 1
1608 4613 1
1608 6490 1
1609 61 1
1609 451 1
1609 487 1
1609 545 1
1609 5756 1
1609 8249 1
1609 8686 1
1609 8979 1
1610 1 1
1610 107 1
1610 181 1
1610 1507 1
1610 3337 1
1610 3348 1
1610 3478 1
1610 3862 1
1610 4089 1
1610 4580 1
1610 5294 1
1610 5492 1
1610 5652 1
1610 6093 1
1610 6474 1
1610 8278 1
1610 8281 1
1610 8717 1
1610 8878 1
1610 8945 1
1610 9387 1
1610 9749 1
1611 498 1
1611 915 1
1611 1089 1
1611 1298 1
1611 2864 1
1611 3113 1
1611 8634 1
1612 41 1
1612 76 1
1612 102 1
1612 276 1
1612 1703 1
1612 3229 1
1612 3910 1
1612 3994 1
1612 4498 1
1612 4518 1
1612 4650 1
1612 4863 1
1612 5786 1
1612 5813 1
1612 6762 1
1612 9139 1
1613 92 1
1613 93 1
1613 723 1
1613 1599 1
1613 1998 1
1613 2484 1
1613 3112 1
1613 3907 1
1613 4320 1
1613 7372 1
1613 7845 1
1614 123 1
1614 238 1
1614 684 1
1614 971 1
1614 2293 1
1614 2500 1
1614 4501 1
1614 5598 1
1615 699 1
1615 1276 1
1615 1325 1
1615 1541 1
1615 1924 1
1615 7456 1
1615 7707 1
1616 10 1
1616 214 1
1616 555 1
1616 682 1
1616 1765 1
1616 3008 1
1616 7098 1
1617 111 1
1617 557 1
1617 562 1
1617 680 1
1617 2405 1
1617 2990 1
1617 4727 1
1617 8514 1
1617 8692 1
1618 11 1
1618 45 1
1618 229 1
1618 626 1
1618 1793 1
1618 3139 1
1618 3837 1
1618 4749 1
1618 7426 1
1618 7871 1
1618 8173 1
1619 1 1
1619 123 1
1619 300 1
1619 1268 1
1619 1850 1
1619 3009 1
1619 4499 1
1619 5384 1
1619 5387 1
1619 5681 1
1619 6083 1
1619 7728 1
1619 9009 1
1619 9832 1
1620 1 1
1620 68 1
1620 123 1
1620 1041 1
1620 1767 1
1620 3137 1
1620 3193 1
1620 3818 1
1620 3964 1
1620 4272 1
1620 6089 1
1620 6448 1
1620 7096 1
1621 4 1
1621 29 1
1621 81 1
1621 106 1
1621 1974 1
1621 2225 1
1622 1 1
1622 25 1
1622 107 1
1622 284 1
1622 1910 1
1622 3990 1
1622 4967 1
1622 7070 1
1622 8091 1
1623 79 1
1623 147 1
1623 772 1
1623 879 1
1623 1856 1
1623 9368 1
1624 58 1
1624 63 1
1624 141 1
1624 147 1
1624 2515 1
1625 11 1
1625 18 1
1625 222 1
1625 1506 1
1625 2154 1
1625 2913 1
1625 2989 1
1625 3437 1
1625 4321 1
1625 6768 1
1625 8200 1
1625 9004 1
1625 9066 1
1625 9647 1
1626 113 1
1626 403 1
1626 462 1
1626 701 1
1626 1718 1
1626 1753 1
1626 1841 1
1626 1972 1
1626 2620 1
1626 2779 1
1626 3004 1
1626 3446 1
1626 3891 1
1626 4230 1
1626 4879 1
1626 5077 1
1626 5939 1
1626 6019 1
1626 6383 1
1626 6417 1
1626 6698 1
1626 7317 1
1626 7428 1
1626 7847 1
1626 7853 1
1627 9 1
1627 49 1
1627 90 1
1627 235 1
1627 2162 1
1627 2967 1
1627 3269 1
1627 4438 1
1627 5382 1
1628 39 1
1628 627 1
1628 1284 1
1628 1403 1
1628 2761 1
1628 2793 1
1628 3038 1
1628 4102 1
1628 4693 1
1628 4874 1
1628 5655 1
1628 6285 1
1628 7858 1
1629 3 1
1629 9 1
1629 413 1
1629 417 1
1629 2691 1
1629 6862 1
1629 9719 1
1630 33 1
1630 340 1
1630 490 1
1630 671 1
1630 2244 1
1630 4362 1
1630 4480 1
1630 5649 1
1630 7872 1
1631 11 1
1631 19 1
1631 378 1
1631 1012 1
1632 12 1
1632 25 1
1632 1320 1
1632 1502 1
1632 3561 1
1632 9230 1
1633 11 1
1633 186 1
1633 942 1
1633 1602 1
1633 1714 1
1633 7704 1
1633 9659 1
1634 60 1
1634 244 1
1634 633 1
1634 1015 1
1634 2961 1
1635 189 1
1635 828 1
1635 879 1
1635 1510 1
1635 2698 1
1635 2883 1
1635 5865 1
1635 7596 1
1636 138 1
1636 369 1
1636 465 1
1636 1386 1
1636 2687 1
1636 5914 1
1636 7109 1
1637 50 1
1637 77 1
1637 217 1
1637 1504 1
1637 3084 1
1637 3203 1
1637 7347 1
1637 8404 1
1638 27 1
1638 769 1
1638 941 1
1638 1092 1
1638 3054 1
1638 6743 1
1639 281 1
1639 502 1
1639 1107 1
1639 1334 1
1639 6195 1
1639 7176 1
1639 7392 1
1639 8217 1
1640 10 1
1640 19 1
1640 323 1
1640 908 1
1640 5108 1
1641 2 1
1641 32 1
1641 417 1
1641 550 1
1641 1679 1
1641 1978 1
1641 2071 1
1641 2140 1
1641 2234 1
1641 2300 1
1641 2585 1
1641 3720 1
1641 4093 1
1641 4835 1
1641 6249 1
1641 7414 1
1641 8525 1
1641 8725 1
1642 141 1
1642 587 1
1642 955 1
1642 1414 1
1642 2227 1
1642 3089 1
1642 4651 1
1642 4749 1
1642 6338 1
1642 6809 1
1642 7752 1
1642 7856 1
1642 8856 1
1643 162 1
1643 290 1
1643 443 1
1643 478 1
1643 2556 1
1643 2696 1
1643 2973 1
1643 3208 1
1643 3348 1
1643 3384 1
1643 3625 1
1643 4050 1
1643 4802 1
1643 6664 1
1643 7169 1
1643 7310 1
1643 9214 1
1644 317 1
1644 415 1
1644 601 1
1644 1516 1
1644 3186 1
1644 3550 1
1644 4573 1
1644 5629 1
1644 6574 1
1644 7476 1
1644 9622 1
1645 154 1
1645 858 1
1645 1099 1
1645 1194 1
1645 2535 1
1645 3012 1
1645 3977 1
1645 4315 1
1645 5097 1
1645 5274 1
1645 5431 1
1645 5687 1
1645 7580 1
1645 7933 1
1646 66 1
1646 243 1
1646 274 1
1646 345 1
1646 3000 1
1646 5308 1
1646 7500 1
1646 9478 1
1647 91 1
1647 300 1
1647 889 1
1647 1567 1
1647 2003 1
1647 2508 1
1647 2545 1
1647 3123 1
1647 4040 1
1647 4382 1
1647 4833 1
1647 5163 1
1647 5390 1
1647 7218 1
1647 7443 1
1647 9549 1
1648 9 1
1648 412 1
1648 683 1
1648 1593 1
1649 4 1
1649 325 1
1649 827 1
1649 1373 1
1649 4064 1
1649 7153 1
1649 8648 1
1650 28 1
1650 43 1
1650 1020 1
1650 1024 1
1650 2096 1
1650 5931 1
1650 6360 1
1651 50 1
1651 215 1
1651 258 1
1651 501 1
1651 4318 1
1651 7827 1
1652 4 1
1652 19 1
1652 846 1
1652 1290 1
1652 2001 1
1652 2396 1
1652 3151 1
1652 4372 1
1652 4606 1
1652 8346 1
1652 9228 1
1653 4 1
1653 9 1
1653 53 1
1653 826 1
1653 2082 1
1653 2679 1
1653 2972 1
1653 4892 1
1653 5061 1
1653 5246 1
1653 5471 1
1653 6595 1
1653 9968 1
1654 333 1
1654 340 1
1654 989 1
1654 1121 1
1654 2135 1
1654 5217 1
1655 11 1
1655 50 1
1655 85 1
1655 92 1
1655 4526 1
1655 4955 1
1655 6773 1
1656 5 1
1656 67 1
1656 1303 1
1656 1521 1
1656 4046 1
1657 163 1
1657 174 1
1657 225 1
1657 340 1
1657 2148 1
1657 2782 1
1657 3078 1
1657 3382 1
1657 3858 1
1657 4271 1
1657 4383 1
1657 5278 1
1657 5838 1
1657 6732 1
1657 8590 1
1657 8994 1
1657 9828 1
1657 9935 1
1658 20 1
1658 246 1
1658 277 1
1658 523 1
1658 1810 1
1658 2023 1
1658 3457 1
1658 3978 1
1658 4121 1
1658 4380 1
1658 4492 1
1658 4648 1
1658 4827 1
1658 5674 1
1658 5995 1
1658 6990 1
1658 7342 1
1658 9440 1
1659 103 1
1659 217 1
1659 404 1
1659 822 1
1659 1789 1
1659 1992 1
1659 2313 1
1659 6942 1
1660 17 1
1660 211 1
1660 285 1
1660 329 1
1660 3330 1
1661 59 1
1661 102 1
1661 723 1
1661 1547 1
1661 2318 1
1661 2440 1
1661 3545 1
1661 4015 1
1661 4065 1
1661 4440 1
1661 5998 1
1661 6302 1
1661 6361 1
1661 7530 1
1661 9484 1
1662 1 1
1662 213 1
1662 913 1
1662 1054 1
1662 2060 1
1662 2789 1
1662 3477 1
1662 3751 1
1662 4302 1
1662 6672 1
1662 7990 1
1662 8610 1
1663 38 1
1663 897 1
1663 1127 1
1663 1513 1
1663 3036 1
1663 3540 1
1664 148 1
1664 658 1
1664 663 1
1664 1515 1
1664 2851 1
1664 2998 1
1664 4783 1
1665 41 1
1665 174 1
1665 554 1
1665 1058 1
1665 2675 1
1665 9928 1
1666 113 1
1666 308 1
1666 532 1
1666 1371 1
1666 1702 1
1666 1945 1
1666 1957 1
1666 2366 1
1666 5649 1
1666 5782 1
1666 5847 1
1666 7023 1
1666 7063 1
1666 7556 1
1666 9416 1
1667 259 1
1667 690 1
1667 865 1
1667 1212 1
1667 2053 1
1667 2055 1
1667 2291 1
1667 2531 1
1667 3242 1
1667 4076 1
1667 4743 1
1667 9449 1
1668 1 1
1668 41 1
1668 42 1
1668 426 1
1668 2239 1
1668 2785 1
1668 3837 1
1668 4123 1
1668 4411 1
1668 5397 1
1669 28 1
1669 266 1
1669 307 1
1669 1024 1
1669 1898 1
1669 2672 1
1669 5594 1
1669 6750 1
1669 9882 1
1670 11 1
1670 281 1
1670 335 1
1670 757 1
1670 1834 1
1670 2038 1
1670 4119 1
1670 4137 1
1670 4582 1
1670 5113 1
1670 6103 1
1670 6547 1
1670 7611 1
1670 7913 1
1671 113 1
1671 308 1
1671 933 1
1671 1257 1
1671 8857 1
1672 18 1
1672 317 1
1672 945 1
1672 1434 1
1672 1895 1
1672 2050 1
1672 2388 1
1672 4075 1
1672 5576 1
1672 6517 1
1672 7111 1
1673 17 1
1673 499 1
1673 634 1
1673 706 1
1673 2694 1
1673 6522 1
1673 7189 1
1673 9697 1
1674 42 1
1674 1067 1
1674 1486 1
1674 1552 1
1674 2247 1
1674 4126 1
1674 4873 1
1674 6463 1
1674 7211 1
1674 7398 1
1674 9668 1
1675 108 1
1675 134 1
1675 1328 1
1675 1454 1
1675 3549 1
1676 5 1
1676 27 1
1676 338 1
1676 1425 1
1676 2192 1
1676 4255 1
1677 2 1
1677 273 1
1677 961 1
1677 1083 1
1677 1881 1
1677 3064 1
1678 22 1
1678 211 1
1678 619 1
1678 738 1
1678 2058 1
1678 2207 1
1678 4943 1
1678 6074 1
1678 6308 1
1678 8023 1
1679 111 1
1679 845 1
1679 1243 1
1679 1641 1
1679 2140 1
1679 3460 1
1679 3745 1
1679 4835 1
1679 9076 1
1680 202 1
1680 877 1
1680 1040 1
1680 1500 1
1680 1952 1
1680 6028 1
1680 7364 1
1681 4 1
1681 172 1
1681 876 1
1681 1354 1
1681 2011 1
1681 3174 1
1681 3476 1
1681 4601 1
1681 5369 1
1681 6280 1
1681 6505 1
1681 6916 1
1681 9324 1
1682 25 1
1682 76 1
1682 1044 1
1682 1339 1
1682 3634 1
1682 5164 1
1682 5453 1
1682 8589 1
1683 25 1
1683 209 1
1683 308 1
1683 923 1
1683 1731 1
1683 2172 1
1683 5206 1
1683 6112 1
1683 6670 1
1684 38 1
1684 43 1
1684 190 1
1684 626 1
1684 1788 1
1684 2660 1
1684 3193 1
1684 3421 1
1684 4081 1
1684 4194 1
1684 5144 1
1684 5239 1
1684 5893 1
1684 5935 1
1684 8097 1
1684 8612 1
1684 8910 1
1684 9080 1
1684 9943 1
1685 66 1
1685 172 1
1685 375 1
1685 1565 1
1685 3116 1
1685 3524 1
1685 3855 1
1685 5168 1
1685 5290 1
1685 6062 1
1686 179 1
1686 444 1
1686 1273 1
1686 1401 1
1687 70 1
1687 139 1
1687 586 1
1687 1009 1
1687 6921 1
1687 9233 1
1688 30 1
1688 259 1
1688 889 1
1688 1258 1
1688 1817 1
1689 5 1
1689 21 1
1689 50 1
1689 1537 1
1689 1807 1
1689 2135 1
1689 2981 1
1689 3685 1
1689 5817 1
1689 6017 1
1689 6235 1
1689 7083 1
1689 7809 1
1690 17 1
1690 100 1
1690 170 1
1690 243 1
1690 3179 1
1690 3298 1
1690 3963 1
1690 4771 1
1690 5215 1
1690 6639 1
1690 7460 1
1690 7673 1
1690 8324 1
1690 8452 1
1690 9583 1
1690 9665 1
1691 36 1
1691 333 1
1691 887 1
1691 1518 1
1691 2836 1
1691 4993 1
1691 6677 1
1692 10 1
1692 620 1
1692 744 1
1692 1148 1
1692 1961 1
1692 2022 1
1692 3207 1
1692 3221 1
1692 5538 1
1692 6793 1
1692 7355 1
1692 9335 1
1693 17 1
1693 654 1
1693 889 1
1693 906 1
1693 2127 1
1693 2341 1
1693 4269 1
1693 5886 1
1693 5927 1
1693 7979 1
1694 268 1
1694 340 1
1694 546 1
1694 897 1
1694 1776 1
1694 2054 1
1694 2144 1
1694 2620 1
1694 8106 1
1695 73 1
1695 131 1
1695 585 1
1695 692 1
1695 1707 1
1695 3199 1
1695 5489 1
1695 6122 1
1695 7840 1
1695 7861 1
1696 402 1
1696 959 1
1696 1022 1
1696 1120 1
1696 3427 1
1697 50 1
1697 545 1
1697 610 1
1697 1001 1
1697 5738 1
1697 5881 1
1697 6622 1
1697 7964 1
1697 8129 1
1697 9893 1
1698 351 1
1698 600 1
1698 637 1
1698 957 1
1698 5333 1
1698 8433 1
1698 9731 1
1699 3 1
1699 173 1
1699 705 1
1699 828 1
1699 1827 1
1699 3259 1
1699 4987 1
1699 6930 1
1699 8343 1
1700 32 1
1700 80 1
1700 721 1
1700 1587 1
1700 2027 1
1700 2242 1
1700 2808 1
1700 3774 1
1700 4526 1
1700 5074 1
1700 8068 1
1701 325 1
1701 361 1
1701 428 1
1701 657 1
1701 2267 1
1701 2755 1
1701 4204 1
1701 4827 1
1701 8831 1
1702 25 1
1702 532 1
1702 1371 1
1702 1666 1
1702 3135 1
1702 3507 1
1702 3637 1
1702 3880 1
1702 6000 1
1703 25 1
1703 759 1
1703 865 1
1703 1612 1
1703 3389 1
1703 3910 1
1703 5067 1
1703 6598 1
1703 9345 1
1703 9558 1
1704 25 1
1704 107 1
1704 408 1
1704 1309 1
1704 4262 1
1704 5185 1
1704 5825 1
1704 7684 1
1704 9598 1
1705 18 1
1705 315 1
1705 429 1
1705 1530 1
1705 2496 1
1705 2621 1
1705 4418 1
1705 4778 1
1705 5448 1
1705 8073 1
1706 78 1
1706 457 1
1706 486 1
1706 973 1
1706 2868 1
1706 2941 1
1706 4536 1
1706 4710 1
1706 7474 1
1706 7717 1
1706 8139 1
1706 9495 1
1707 1 1
1707 66 1
1707 73 1
1707 1695 1
1707 2965 1
1707 5105 1
1707 6106 1
1707 6122 1
1707 6437 1
1707 6999 1
1707 7067 1
1707 7338 1
1707 7861 1
1707 9489 1
1708 49 1
1708 497 1
1708 532 1
1708 981 1
1708 8100 1
1708 8484 1
1709 51 1
1709 137 1
1709 159 1
1709 490 1
1709 2254 1
1709 4520 1
1709 6269 1
1709 9887 1
1710 43 1
1710 393 1
1710 589 1
1710 792 1
1710 2108 1
1710 3933 1
1711 2 1
1711 9 1
1711 64 1
1711 68 1
1711 2931 1
1711 4494 1
1711 5363 1
1711 5869 1
1711 8019 1
1712 52 1
1712 62 1
1712 692 1
1712 750 1
1712 2013 1
1712 3749 1
1712 4463 1
1712 4703 1
1713 28 1
1713 310 1
1713 778 1
1713 1008 1
1713 1743 1
1713 1773 1
1713 2247 1
1713 3189 1
1713 3265 1
1713 3278 1
1713 3501 1
1713 4324 1
1713 7672 1
1714 125 1
1714 513 1
1714 1565 1
1714 1633 1
1714 2276 1
1714 2359 1
1714 2464 1
1714 3407 1
1714 3709 1
1714 3833 1
1714 3881 1
1714 4199 1
1714 4487 1
1714 5094 1
1714 5403 1
1714 6286 1
1714 6576 1
1714 6965 1
1714 7288 1
1714 7686 1
1714 9852 1
1715 154 1
1715 633 1
1715 761 1
1715 1355 1
1715 3959 1
1715 4167 1
1715 5314 1
1715 7246 1
1715 8332 1
1715 8517 1
1715 9883 1
1716 41 1
1716 564 1
1716 859 1
1716 1531 1
1716 7025 1
1717 11 1
1717 17 1
1717 30 1
1717 1119 1
1717 1784 1
1717 2161 1
1717 2568 1
1717 3016 1
1717 3030 1
1717 4087 1
1717 4959 1
1717 5776 1
1717 6571 1
1717 7477 1
1717 8942 1
1718 403 1
1718 462 1
1718 956 1
1718 1626 1
1718 3324 1
1718 3492 1
1718 3819 1
1718 6295 1
1718 8621 1
1719 1 1
1719 250 1
1719 602 1
1719 1455 1
1719 5639 1
1719 6171 1
1719 6270 1
1719 8221 1
1720 113 1
1720 319 1
1720 1308 1
1720 1532 1
1720 5773 1
1721 41 1
1721 362 1
1721 833 1
1721 1362 1
1721 1953 1
1721 2360 1
1721 2855 1
1721 3583 1
1721 8419 1
1722 483 1
1722 1176 1
1722 1265 1
1722 1565 1
1722 4638 1
1722 5257 1
1722 7341 1
1722 8397 1
1722 9847 1
1723 73 1
1723 411 1
1723 1087 1
1723 1531 1
1723 2631 1
1723 2977 1
1723 7075 1
1723 7544 1
1723 8317 1
1724 1 1
1724 17 1
1724 74 1
1724 618 1
1724 2355 1
1724 7626 1
1725 51 1
1725 74 1
1725 146 1
1725 339 1
1725 2028 1
1725 2070 1
1725 3412 1
1725 5310 1
1725 5947 1
1725 9444 1
1726 163 1
1726 299 1
1726 315 1
1726 935 1
1726 2441 1
1726 4283 1
1726 4717 1
1726 7818 1
1727 1 1
1727 41 1
1727 427 1
1727 1511 1
1727 1735 1
1727 2594 1
1727 3843 1
1727 8111 1
1728 11 1
1728 16 1
1728 41 1
1728 983 1
1728 2112 1
1728 3538 1
1728 7502 1
1729 41 1
1729 81 1
1729 134 1
1729 700 1
1729 1846 1
1729 3131 1
1729 3502 1
1729 3507 1
1729 5886 1
1729 6797 1
1729 9104 1
1730 97 1
1730 154 1
1730 329 1
1730 1162 1
1730 2964 1
1730 4668 1
1730 9483 1
1730 9894 1
1731 25 1
1731 97 1
1731 1338 1
1731 1683 1
1731 4260 1
1731 4309 1
1731 6112 1
1732 11 1
1732 77 1
1732 538 1
1732 540 1
1732 4043 1
1732 4374 1
1732 7136 1
1733 17 1
1733 25 1
1733 522 1
1733 1578 1
1733 2014 1
1733 6219 1
1734 9 1
1734 17 1
1734 277 1
1734 949 1
1734 2856 1
1734 3184 1
1734 4726 1
1734 8331 1
1734 8907 1
1734 9473 1
1735 454 1
1735 503 1
1735 808 1
1735 1727 1
1735 2977 1
1735 3898 1
1735 5340 1
1736 289 1
1736 553 1
1736 1474 1
1736 1507 1
1736 2048 1
1736 4332 1
1736 4339 1
1736 6151 1
1736 7701 1
1737 35 1
1737 141 1
1737 202 1
1737 219 1
1737 1897 1
1737 2300 1
1737 2519 1
1737 3066 1
1737 3095 1
1737 3131 1
1737 3648 1
1737 3697 1
1737 3828 1
1737 4679 1
1737 4759 1
1737 4833 1
1737 5561 1
1737 6982 1
1737 7222 1
1737 8278 1
1737 8931 1
1737 9565 1
1738 11 1
1738 104 1
1738 144 1
1738 158 1
1738 2124 1
1738 2438 1
1738 2609 1
1738 2919 1
1738 3874 1
1738 3924 1
1738 3975 1
1738 4286 1
1738 4412 1
1738 6455 1
1738 7132 1
1738 8701 1
1738 9123 1
1739 5 1
1739 94 1
1739 559 1
1739 1328 1
1739 2097 1
1739 2436 1
1739 2774 1
1739 2886 1
1739 6693 1
1739 6761 1
1739 6798 1
1739 6855 1
1739 6934 1
1740 2 1
1740 14 1
1740 419 1
1740 1240 1
1740 4461 1
1740 5494 1
1740 5933 1
1740 6937 1
1740 7573 1
1741 275 1
1741 359 1
1741 667 1
1741 1405 1
1741 2028 1
1741 2388 1
1741 3106 1
1741 7120 1
1741 7258 1
1741 8239 1
1741 9112 1
1742 42 1
1742 164 1
1742 995 1
1742 1139 1
1742 2174 1
1742 2237 1
1742 2715 1
1742 4462 1
1742 6359 1
1743 855 1
1743 858 1
1743 1008 1
1743 1713 1
1744 171 1
1744 323 1
1744 618 1
1744 747 1
1744 2549 1
1744 3014 1
1744 3373 1
1744 4789 1
1744 5508 1
1744 5550 1
1744 5596 1
1744 5952 1
1744 9418 1
1745 92 1
1745 169 1
1745 982 1
1745 1572 1
1745 1748 1
1745 1990 1
1745 2032 1
1745 2549 1
1745 2877 1
1745 3104 1
1745 3154 1
1745 3250 1
1745 3688 1
1745 5143 1
1745 6376 1
1745 8498 1
1745 8608 1
1746 91 1
1746 255 1
1746 670 1
1746 1146 1
1746 1912 1
1746 2949 1
1746 5872 1
1747 422 1
1747 655 1
1747 1129 1
1747 1322 1
1747 2017 1
1747 2311 1
1747 2332 1
1747 2517 1
1747 2912 1
1747 4994 1
1747 5256 1
1747 5512 1
1747 6847 1
1747 8532 1
1747 8822 1
1747 9628 1
1748 10 1
1748 233 1
1748 388 1
1748 1745 1
1748 1863 1
1748 1963 1
1748 2013 1
1748 2594 1
1748 4621 1
1748 5438 1
1748 5463 1
1748 8228 1
1748 9865 1
1749 5 1
1749 287 1
1749 805 1
1749 1415 1
1749 2319 1
1749 3307 1
1749 4554 1
1749 5658 1
1749 6772 1
1749 8304 1
1750 129 1
1750 329 1
1750 1188 1
1750 1545 1
1750 8155 1
1750 8409 1
1751 202 1
1751 226 1
1751 460 1
1751 877 1
1752 76 1
1752 392 1
1752 442 1
1752 1382 1
1752 1833 1
1752 2673 1
1753 93 1
1753 249 1
1753 403 1
1753 1626 1
1753 1972 1
1753 2227 1
1753 2335 1
1753 5727 1
1753 5793 1
1753 5997 1
1753 6152 1
1753 6299 1
1753 6412 1
1753 7932 1
1753 8082 1
1753 9077 1
1754 16 1
1754 41 1
1754 202 1
1754 996 1
1754 7257 1
1754 8548 1
1754 9398 1
1755 41 1
1755 126 1
1755 469 1
1755 1324 1
1755 3003 1
1755 5137 1
1755 9167 1
1755 9574 1
1756 459 1
1756 502 1
1756 985 1
1756 1450 1
1756 3643 1
1756 4226 1
1756 4410 1
1756 4975 1
1756 5859 1
1756 6981 1
1756 7628 1
1756 7842 1
1757 89 1
1757 291 1
1757 635 1
1757 1413 1
1757 1831 1
1757 2586 1
1757 2910 1
1757 3316 1
1757 5248 1
1757 6641 1
1757 6720 1
1757 8580 1
1758 11 1
1758 37 1
1758 73 1
1758 600 1
1758 3868 1
1758 6513 1
1759 361 1
1759 464 1
1759 1339 1
1759 1435 1
1759 2182 1
1759 7782 1
1760 46 1
1760 55 1
1760 1042 1
1760 1167 1
1761 166 1
1761 380 1
1761 768 1
1761 1296 1
1761 2246 1
1761 3175 1
1761 7154 1
1762 92 1
1762 160 1
1762 1361 1
1762 1362 1
1762 2138 1
1762 2527 1
1762 2551 1
1762 2640 1
1762 2670 1
1762 4258 1
1762 4825 1
1762 6658 1
1762 7199 1
1762 7472 1
1762 7812 1
1762 9195 1
1763 103 1
1763 329 1
1763 1205 1
1763 1502 1
1763 2995 1
1763 8607 1
1764 110 1
1764 1082 1
1764 1217 1
1764 1416 1
1764 3865 1
1764 4670 1
1765 10 1
1765 185 1
1765 510 1
1765 1616 1
1765 7019 1
1766 17 1
1766 349 1
1766 1038 1
1766 1194 1
1766 1796 1
1766 2099 1
1766 5937 1
1766 6526 1
1766 8674 1
1767 68 1
1767 481 1
1767 813 1
1767 1620 1
1767 3073 1
1767 3137 1
1767 3782 1
1767 3818 1
1767 5225 1
1768 33 1
1768 60 1
1768 584 1
1768 945 1
1768 2749 1
1769 81 1
1769 550 1
1769 781 1
1769 1597 1
1769 1783 1
1769 2037 1
1769 2183 1
1769 2371 1
1769 2418 1
1769 2569 1
1769 4539 1
1769 6061 1
1769 6978 1
1769 7361 1
1769 9856 1
1770 76 1
1770 873 1
1770 1094 1
1770 1339 1
1770 2218 1
1770 2325 1
1770 3035 1
1770 3240 1
1770 4134 1
1770 4181 1
1770 4845 1
1770 7428 1
1770 7625 1
1770 7688 1
1770 8629 1
1770 9553 1
1771 25 1
1771 414 1
1771 734 1
1771 1248 1
1771 1837 1
1771 1887 1
1771 2373 1
1771 5047 1
1771 5623 1
1771 6176 1
1772 107 1
1772 311 1
1772 1180 1
1772 1230 1
1772 1993 1
1772 2426 1
1772 2467 1
1772 3523 1
1772 9614 1
1773 617 1
1773 764 1
1773 778 1
1773 1713 1
1773 2031 1
1773 5466 1
1773 6191 1
1774 95 1
1774 378 1
1774 549 1
1774 584 1
1774 3182 1
1774 3367 1
1775 10 1
1775 27 1
1775 361 1
1775 1400 1
1775 3301 1
1775 5305 1
1775 7612 1
1776 147 1
1776 622 1
1776 695 1
1776 1694 1
1776 2054 1
1776 6444 1
1777 5 1
1777 281 1
1777 858 1
1777 1153 1
1777 4307 1
1777 5337 1
1777 8107 1
1777 8891 1
1777 9045 1
1778 11 1
1778 483 1
1778 671 1
1778 1594 1
1778 2384 1
1778 7151 1
1779 99 1
1779 329 1
1779 551 1
1779 577 1
1779 2979 1
1779 6147 1
1779 6489 1
1779 7191 1
1779 8607 1
1780 5 1
1780 9 1
1780 889 1
1780 1519 1
1780 2125 1
1780 3004 1
1780 7308 1
1780 9945 1
1781 2 1
1781 41 1
1781 417 1
1781 1507 1
1781 1885 1
1781 1953 1
1781 2041 1
1781 2079 1
1781 2304 1
1781 2772 1
1781 3830 1
1781 5025 1
1781 5680 1
1782 5 1
1782 441 1
1782 860 1
1782 1170 1
1782 2038 1
1782 6234 1
1782 8555 1
1782 9857 1
1783 81 1
1783 1387 1
1783 1597 1
1783 1769 1
1783 2122 1
1783 4246 1
1783 5183 1
1783 6690 1
1783 9211 1
1783 9856 1
1784 30 1
1784 335 1
1784 1534 1
1784 1717 1
1785 21 1
1785 137 1
1785 252 1
1785 1146 1
1785 2450 1
1785 2621 1
1785 3538 1
1785 3613 1
1785 3986 1
1785 5002 1
1785 5829 1
1785 5839 1
1785 5977 1
1786 92 1
1786 110 1
1786 330 1
1786 642 1
1786 2011 1
1786 2733 1
1786 3255 1
1786 7030 1
1786 7544 1
1787 4 1
1787 167 1
1787 1397 1
1787 1426 1
1787 4232 1
1787 4558 1
1787 4736 1
1788 1090 1
1788 1221 1
1788 1323 1
1788 1684 1
1788 2934 1
1788 4264 1
1788 8612 1
1788 9862 1
1789 45 1
1789 279 1
1789 368 1
1789 1659 1
1790 11 1
1790 209 1
1790 1251 1
1790 1287 1
1790 2188 1
1790 2382 1
1790 4123 1
1790 5401 1
1790 6428 1
1791 21 1
1791 57 1
1791 115 1
1791 731 1
1791 2538 1
1791 2685 1
1791 4080 1
1791 5283 1
1791 5695 1
1791 7852 1
1791 9975 1
1792 57 1
1792 194 1
1792 577 1
1792 826 1
1792 1989 1
1792 2270 1
1792 8386 1
1792 9412 1
1793 146 1
1793 626 1
1793 925 1
1793 1618 1
1793 1912 1
1793 2389 1
1793 5384 1
1793 7426 1
1794 12 1
1794 298 1
1794 686 1
1794 1515 1
1794 2348 1
1794 5381 1
1794 7454 1
1795 41 1
1795 128 1
1795 858 1
1795 1538 1
1795 4722 1
1795 8401 1
1795 8476 1
1795 8511 1
1795 8575 1
1795 9007 1
1795 9929 1
1796 137 1
1796 772 1
1796 1194 1
1796 1766 1
1796 2342 1
1796 2636 1
1796 2693 1
1796 4059 1
1796 5328 1
1796 6569 1
1796 6592 1
1796 6894 1
1796 6938 1
1797 18 1
1797 38 1
1797 628 1
1797 939 1
1797 2862 1
1797 3693 1
1797 4081 1
1797 4952 1
1797 6353 1
1798 33 1
1798 220 1
1798 359 1
1798 1135 1
1798 3970 1
1798 5133 1
1798 5177 1
1798 5640 1
1798 6578 1
1798 6774 1
1799 43 1
1799 340 1
1799 770 1
1799 842 1
1799 3267 1
1799 7876 1
1800 111 1
1800 195 1
1800 715 1
1800 1517 1
1801 345 1
1801 359 1
1801 610 1
1801 1221 1
1801 3036 1
1801 3783 1
1801 4722 1
1801 6380 1
1801 7434 1
1801 8940 1
1802 27 1
1802 49 1
1802 510 1
1802 1582 1
1802 2231 1
1802 3080 1
1802 5320 1
1802 5797 1
1803 81 1
1803 443 1
1803 590 1
1803 1505 1
1803 3165 1
1804 10 1
1804 137 1
1804 469 1
1804 825 1
1804 3294 1
1804 3737 1
1804 3776 1
1804 4754 1
1804 6636 1
1804 7022 1
1805 59 1
1805 110 1
1805 166 1
1805 210 1
1805 2618 1
1805 3103 1
1805 5988 1
1805 6771 1
1805 7141 1
1805 9806 1
1806 4 1
1806 154 1
1806 371 1
1806 724 1
1806 5986 1
1806 8951 1
1807 452 1
1807 1002 1
1807 1537 1
1807 1689 1
1807 2135 1
1807 4104 1
1807 4115 1
1807 4384 1
1807 4785 1
1807 5637 1
1808 19 1
1808 91 1
1808 257 1
1808 1015 1
1809 72 1
1809 257 1
1809 997 1
1809 1404 1
1809 1943 1
1809 2879 1
1809 3425 1
1809 3777 1
1809 4129 1
1809 4195 1
1809 4530 1
1809 6390 1
1809 6517 1
1809 7111 1
1809 9608 1
1809 9992 1
1810 5 1
1810 12 1
1810 523 1
1810 1658 1
1810 2115 1
1810 2455 1
1810 3978 1
1810 4121 1
1810 5496 1
1810 7771 1
1810 8971 1
1811 2 1
1811 25 1
1811 473 1
1811 515 1
1811 2143 1
1811 2581 1
1811 2769 1
1811 3028 1
1811 3275 1
1811 3371 1
1811 3552 1
1811 4984 1
1811 5245 1
1811 8668 1
1811 8713 1
1812 41 1
1812 507 1
1812 574 1
1812 1125 1
1813 57 1
1813 91 1
1813 130 1
1813 338 1
1813 2724 1
1813 2844 1
1813 5255 1
1813 5540 1
1813 6008 1
1813 6780 1
1813 7300 1
1813 8796 1
1814 171 1
1814 245 1
1814 580 1
1814 1439 1
1814 5897 1
1814 6344 1
1814 7845 1
1815 549 1
1815 922 1
1815 1272 1
1815 1452 1
1815 3444 1
1815 4264 1
1815 4404 1
1815 7855 1
1816 22 1
1816 283 1
1816 369 1
1816 1356 1
1816 3784 1
1817 5 1
1817 163 1
1817 695 1
1817 1688 1
1817 7763 1
1818 41 1
1818 459 1
1818 542 1
1818 545 1
1818 2289 1
1818 2407 1
1818 2431 1
1818 2598 1
1818 2987 1
1818 4261 1
1818 4831 1
1818 5311 1
1818 5973 1
1818 6232 1
1818 6350 1
1818 7819 1
1818 7992 1
1818 7998 1
1818 9548 1
1818 9959 1
1819 664 1
1819 754 1
1819 889 1
1819 914 1
1819 3394 1
1819 7734 1
1819 8077 1
1819 8098 1
1820 41 1
1820 303 1
1820 402 1
1820 1178 1
1820 2240 1
1820 2337 1
1820 2510 1
1820 3180 1
1820 3256 1
1820 5060 1
1820 7327 1
1820 9485 1
1821 162 1
1821 548 1
1821 553 1
1821 926 1
1821 4260 1
1821 5374 1
1821 7928 1
1821 8216 1
1822 165 1
1822 546 1
1822 1477 1
1822 1588 1
1822 2069 1
1822 4549 1
1822 6792 1
1822 7874 1
1822 9880 1
1823 10 1
1823 11 1
1823 351 1
1823 1220 1
1823 4711 1
1824 48 1
1824 92 1
1824 450 1
1824 993 1
1824 4363 1
1824 5663 1
1824 6134 1
1825 9 1
1825 271 1
1825 585 1
1825 1019 1
1825 2311 1
1825 3746 1
1825 4897 1
1825 5095 1
1825 5872 1
1825 7745 1
1825 8319 1
1825 8634 1
1826 9 1
1826 287 1
1826 346 1
1826 1010 1
1826 1939 1
1826 2107 1
1826 2294 1
1826 2485 1
1826 2789 1
1826 2792 1
1826 4070 1
1826 4948 1
1826 5452 1
1826 5764 1
1826 5932 1
1826 6453 1
1826 7091 1
1826 9928 1
1827 25 1
1827 155 1
1827 1075 1
1827 1699 1
1827 2505 1
1827 3490 1
1827 3687 1
1827 7223 1
1827 7522 1
1827 7780 1
1827 8050 1
1827 8120 1
1827 8948 1
1827 9715 1
1828 1 1
1828 41 1
1828 62 1
1828 393 1
1828 2895 1
1828 3126 1
1828 4509 1
1828 5432 1
1828 5580 1
1828 6628 1
1828 9406 1
1829 33 1
1829 103 1
1829 147 1
1829 1335 1
1829 2457 1
1829 7305 1
1830 17 1
1830 30 1
1830 434 1
1830 657 1
1830 1922 1
1830 2117 1
1830 4336 1
1830 5623 1
1830 6038 1
1830 8964 1
1831 902 1
1831 1055 1
1831 1405 1
1831 1757 1
1832 73 1
1832 129 1
1832 188 1
1832 1529 1
1832 2097 1
1832 2174 1
1832 3929 1
1832 4597 1
1832 5520 1
1832 7950 1
1832 8288 1
1832 8327 1
1833 99 1
1833 480 1
1833 889 1
1833 1752 1
1833 3287 1
1833 4341 1
1833 5879 1
1833 5936 1
1833 5954 1
1833 6717 1
1833 8928 1
1833 8938 1
1833 9178 1
1833 9777 1
1833 9904 1
1834 478 1
1834 578 1
1834 585 1
1834 1670 1
1834 2349 1
1834 2688 1
1834 3199 1
1834 6053 1
1834 6400 1
1834 9489 1
1835 2 1
1835 17 1
1835 89 1
1835 720 1
1835 4875 1
1835 7570 1
1835 8760 1
1835 9906 1
1835 9983 1
1836 9 1
1836 12 1
1836 47 1
1836 350 1
1836 2094 1
1836 5005 1
1836 6188 1
1836 7356 1
1836 9487 1
1837 192 1
1837 381 1
1837 1428 1
1837 1771 1
1837 7183 1
1838 20 1
1838 175 1
1838 211 1
1838 490 1
1839 1 1
1839 81 1
1839 265 1
1839 629 1
1839 2825 1
1839 4223 1
1839 5742 1
1839 6931 1
1839 8808 1
1840 454 1
1840 516 1
1840 529 1
1840 722 1
1840 2442 1
1840 3382 1
1840 7540 1
1841 91 1
1841 745 1
1841 1608 1
1841 1626 1
1841 2452 1
1841 4404 1
1841 6173 1
1841 8215 1
1842 92 1
1842 810 1
1842 813 1
1842 921 1
1842 2945 1
1842 2993 1
1842 4316 1
1842 4512 1
1842 4557 1
1843 147 1
1843 201 1
1843 699 1
1843 1335 1
1843 4555 1
1843 7927 1
1844 19 1
1844 33 1
1844 105 1
1844 1016 1
1844 2030 1
1844 2615 1
1844 5686 1
1844 5732 1
1844 9116 1
1845 94 1
1845 347 1
1845 380 1
1845 779 1
1845 2128 1
1845 2806 1
1845 4110 1
1845 6259 1
1845 6825 1
1845 7311 1
1845 9976 1
1846 41 1
1846 134 1
1846 194 1
1846 1729 1
1846 3819 1
1846 8825 1
1847 99 1
1847 116 1
1847 163 1
1847 662 1
1847 1848 1
1847 2387 1
1847 2968 1
1847 3368 1
1847 3437 1
1847 4342 1
1847 5171 1
1847 8720 1
1847 9786 1
1848 9 1
1848 527 1
1848 662 1
1848 1847 1
1848 5364 1
1848 9796 1
1849 19 1
1849 403 1
1849 630 1
1849 1195 1
1849 2459 1
1849 4405 1
1849 6538 1
1849 7095 1
1849 8212 1
1849 8223 1
1850 1 1
1850 300 1
1850 748 1
1850 1619 1
1850 3858 1
1850 4344 1
1850 8994 1
1851 41 1
1851 66 1
1851 563 1
1851 1547 1
1851 4229 1
1851 4251 1
1851 4890 1
1851 6385 1
1851 6604 1
1851 7879 1
1852 123 1
1852 366 1
1852 655 1
1852 1374 1
1852 1864 1
1852 3607 1
1852 4744 1
1852 5045 1
1852 8157 1
1852 9485 1
1853 227 1
1853 298 1
1853 496 1
1853 1524 1
1853 1984 1
1853 2988 1
1853 3705 1
1853 4335 1
1853 4974 1
1853 5682 1
1853 7598 1
1853 8494 1
1853 9067 1
1853 9287 1
1854 1 1
1854 25 1
1854 76 1
1854 759 1
1854 2823 1
1854 3668 1
1854 8973 1
1854 9211 1
1855 4 1
1855 36 1
1855 147 1
1855 1476 1
1855 3635 1
1855 3668 1
1855 3850 1
1855 4199 1
1855 7277 1
1855 9948 1
1856 357 1
1856 442 1
1856 772 1
1856 1623 1
1856 4690 1
1857 19 1
1857 148 1
1857 674 1
1857 886 1
1857 3551 1
1857 5248 1
1857 5600 1
1857 7407 1
1858 9 1
1858 26 1
1858 31 1
1858 91 1
1858 2107 1
1858 2466 1
1858 2521 1
1858 2970 1
1858 3530 1
1858 3690 1
1858 4084 1
1858 5630 1
1858 6559 1
1858 6859 1
1858 6882 1
1858 8602 1
1858 9789 1
1859 51 1
1859 69 1
1859 1043 1
1859 1429 1
1859 1890 1
1859 2784 1
1859 3424 1
1859 7737 1
1860 54 1
1860 823 1
1860 1006 1
1860 1558 1
1860 2288 1
1860 5774 1
1860 6866 1
1860 9432 1
1861 60 1
1861 126 1
1861 451 1
1861 1542 1
1861 3142 1
1861 7757 1
1862 76 1
1862 187 1
1862 1045 1
1862 1365 1
1862 2713 1
1862 3526 1
1862 7393 1
1862 7690 1
1862 8598 1
1862 8679 1
1862 9018 1
1863 81 1
1863 388 1
1863 1509 1
1863 1748 1
1863 2013 1
1863 3592 1
1864 123 1
1864 655 1
1864 1374 1
1864 1852 1
1864 3133 1
1865 233 1
1865 506 1
1865 521 1
1865 1249 1
1865 2894 1
1865 2957 1
1865 4052 1
1865 4115 1
1865 4249 1
1865 5116 1
1865 7745 1
1865 9050 1
1865 9320 1
1866 66 1
1866 665 1
1866 1300 1
1866 1452 1
1866 2139 1
1866 2498 1
1866 9759 1
1867 3 1
1867 161 1
1867 586 1
1867 1009 1
1867 2525 1
1867 2838 1
1867 4558 1
1867 6714 1
1868 69 1
1868 97 1
1868 458 1
1868 652 1
1868 2903 1
1869 175 1
1869 869 1
1869 1072 1
1869 1342 1
1869 5741 1
1870 57 1
1870 762 1
1870 996 1
1870 1235 1
1870 1923 1
1870 3902 1
1870 9724 1
1871 21 1
1871 249 1
1871 774 1
1871 1536 1
1871 2122 1
1871 5546 1
1871 6166 1
1872 4 1
1872 26 1
1872 149 1
1872 1475 1
1872 3724 1
1872 4868 1
1872 4938 1
1872 5223 1
1872 6859 1
1872 7017 1
1872 8305 1
1873 73 1
1873 263 1
1873 282 1
1873 1597 1
1873 2146 1
1873 2604 1
1873 2647 1
1873 6230 1
1873 6332 1
1873 7546 1
1873 8383 1
1874 4 1
1874 10 1
1874 238 1
1874 966 1
1874 2130 1
1874 3614 1
1874 3941 1
1874 4140 1
1874 4156 1
1874 5126 1
1874 5718 1
1874 6030 1
1874 6133 1
1874 7035 1
1874 8907 1
1874 9651 1
1874 9890 1
1874 9933 1
1875 1 1
1875 9 1
1875 11 1
1875 885 1
1875 2091 1
1875 2258 1
1875 2384 1
1875 5716 1
1875 6090 1
1876 89 1
1876 161 1
1876 1041 1
1876 1261 1
1876 4861 1
1876 7422 1
1876 7547 1
1876 8485 1
1877 18 1
1877 92 1
1877 703 1
1877 3045 1
1878 131 1
1878 138 1
1878 162 1
1878 337 1
1878 4620 1
1878 4793 1
1878 5462 1
1878 5718 1
1878 7394 1
1878 8542 1
1878 8693 1
1879 11 1
1879 68 1
1879 645 1
1879 724 1
1879 2509 1
1879 2624 1
1879 4091 1
1879 6886 1
1880 2 1
1880 35 1
1880 286 1
1880 297 1
1880 3317 1
1880 5606 1
1881 273 1
1881 1145 1
1881 1292 1
1881 1677 1
1881 2569 1
1881 2665 1
1881 2941 1
1881 3953 1
1881 4174 1
1881 4347 1
1881 4544 1
1881 5419 1
1881 8904 1
1882 9 1
1882 353 1
1882 403 1
1882 1210 1
1882 3580 1
1882 6082 1
1883 2 1
1883 76 1
1883 729 1
1883 1209 1
1883 2392 1
1883 3178 1
1883 3248 1
1883 5150 1
1883 6877 1
1883 9958 1
1884 132 1
1884 263 1
1884 381 1
1884 479 1
1884 2866 1
1884 2954 1
1884 4457 1
1884 7205 1
1885 92 1
1885 161 1
1885 1572 1
1885 1781 1
1885 2541 1
1885 3328 1
1885 5343 1
1886 33 1
1886 107 1
1886 176 1
1886 1187 1
1886 2188 1
1886 3427 1
1886 5746 1
1887 81 1
1887 414 1
1887 781 1
1887 1771 1
1887 5785 1
1887 6925 1
1887 8639 1
1887 9234 1
1887 9479 1
1888 169 1
1888 330 1
1888 1370 1
1888 1604 1
1888 2071 1
1888 2344 1
1888 2666 1
1888 3349 1
1888 4426 1
1888 6608 1
1888 9805 1
1889 742 1
1889 1383 1
1889 1429 1
1889 1458 1
1889 3365 1
1889 3424 1
1889 3757 1
1889 4620 1
1889 4946 1
1889 5049 1
1889 5884 1
1889 6754 1
1889 7529 1
1889 7646 1
1889 9538 1
1889 9787 1
1890 146 1
1890 329 1
1890 989 1
1890 1859 1
1890 2482 1
1890 2953 1
1890 3761 1
1890 3935 1
1890 4637 1
1890 5033 1
1890 5106 1
1890 6984 1
1890 7227 1
1891 20 1
1891 113 1
1891 409 1
1891 1172 1
1891 3025 1
1891 3630 1
1891 3691 1
1891 4316 1
1891 4879 1
1891 5672 1
1891 6584 1
1891 7039 1
1892 81 1
1892 989 1
1892 1225 1
1892 1392 1
1892 6153 1
1892 6425 1
1892 7768 1
1892 9645 1
1893 9 1
1893 17 1
1893 28 1
1893 357 1
1893 2791 1
1893 3723 1
1893 6675 1
1893 8328 1
1893 8809 1
1894 10 1
1894 414 1
1894 790 1
1894 1451 1
1894 2015 1
1894 2753 1
1894 2773 1
1894 4401 1
1894 5191 1
1894 6634 1
1895 18 1
1895 660 1
1895 1369 1
1895 1672 1
1895 3037 1
1895 3236 1
1895 5847 1
1895 9310 1
1896 42 1
1896 249 1
1896 681 1
1896 1373 1
1896 4050 1
1897 141 1
1897 467 1
1897 806 1
1897 1737 1
1897 3743 1
1897 5743 1
1897 6824 1
1897 7619 1
1897 8969 1
1898 28 1
1898 630 1
1898 699 1
1898 1669 1
1898 2282 1
1898 2383 1
1898 3059 1
1898 3316 1
1898 3384 1
1898 3979 1
1898 4559 1
1898 8172 1
1898 8412 1
1899 33 1
1899 34 1
1899 455 1
1899 1071 1
1899 2500 1
1899 2751 1
1899 6840 1
1900 129 1
1900 452 1
1900 677 1
1900 977 1
1900 3466 1
1901 51 1
1901 81 1
1901 1162 1
1901 1273 1
1901 2468 1
1901 2796 1
1901 5583 1
1901 9521 1
1902 9 1
1902 19 1
1902 183 1
1902 910 1
1902 7389 1
1902 8241 1
1903 1 1
1903 407 1
1903 938 1
1903 995 1
1903 1985 1
1903 4326 1
1903 7314 1
1904 25 1
1904 113 1
1904 1147 1
1904 1152 1
1905 2 1
1905 292 1
1905 465 1
1905 1370 1
1905 1927 1
1905 5983 1
1905 6485 1
1905 8885 1
1905 9251 1
1906 48 1
1906 138 1
1906 277 1
1906 839 1
1906 4561 1
1906 9663 1
1907 295 1
1907 1023 1
1907 1508 1
1907 1547 1
1907 3450 1
1907 5524 1
1907 8521 1
1907 9376 1
1908 3 1
1908 97 1
1908 513 1
1908 1510 1
1908 2621 1
1908 4625 1
1908 4704 1
1908 4737 1
1908 5514 1
1908 5873 1
1908 6461 1
1908 6760 1
1908 6871 1
1908 8171 1
1908 9114 1
1908 9481 1
1908 9744 1
1909 1 1
1909 5 1
1909 260 1
1909 774 1
1909 4776 1
1909 4889 1
1910 21 1
1910 284 1
1910 1510 1
1910 1622 1
1910 2914 1
1910 3754 1
1910 7914 1
1911 11 1
1911 24 1
1911 60 1
1911 349 1
1912 443 1
1912 1020 1
1912 1746 1
1912 1793 1
1913 545 1
1913 560 1
1913 601 1
1913 1001 1
1913 4577 1
1913 4946 1
1913 4953 1
1913 5645 1
1913 8820 1
1913 8849 1
1914 6 1
1914 28 1
1914 72 1
1914 1408 1
1914 1931 1
1914 8510 1
1914 8567 1
1914 8981 1
1914 9682 1
1915 113 1
1915 905 1
1915 933 1
1915 1445 1
1915 2947 1
1915 3076 1
1915 5198 1
1915 5516 1
1915 6011 1
1915 6093 1
1915 7093 1
1915 7448 1
1915 8513 1
1915 8549 1
1915 9130 1
1916 2 1
1916 29 1
1916 1305 1
1916 1306 1
1916 2601 1
1916 3228 1
1916 4219 1
1916 5186 1
1916 6853 1
1916 7886 1
1916 8116 1
1916 8704 1
1916 9305 1
1916 9833 1
1917 1 1
1917 94 1
1917 185 1
1917 267 1
1917 1932 1
1917 2801 1
1918 194 1
1918 937 1
1918 1310 1
1918 1503 1
1918 2100 1
1918 3029 1
1918 7230 1
1918 7725 1
1919 2 1
1919 25 1
1919 484 1
1919 780 1
1919 2337 1
1919 2772 1
1919 3713 1
1919 5196 1
1919 7685 1
1919 9607 1
1920 49 1
1920 265 1
1920 454 1
1920 1123 1
1920 5448 1
1920 5950 1
1920 6750 1
1921 41 1
1921 163 1
1921 586 1
1921 1130 1
1921 2971 1
1921 4289 1
1921 6850 1
1921 8138 1
1922 36 1
1922 290 1
1922 327 1
1922 1830 1
1922 2117 1
1922 3617 1
1922 3803 1
1922 6250 1
1922 6298 1
1922 6334 1
1922 6954 1
1923 57 1
1923 341 1
1923 1235 1
1923 1870 1
1923 2046 1
1923 2702 1
1923 6494 1
1923 8063 1
1923 9159 1
1923 9492 1
1923 9732 1
1924 49 1
1924 353 1
1924 1272 1
1924 1615 1
1924 1972 1
1924 2029 1
1924 3099 1
1924 3537 1
1924 4636 1
1924 4663 1
1924 5989 1
1924 7528 1
1924 7783 1
1924 7906 1
1924 8803 1
1925 25 1
1925 58 1
1925 107 1
1925 825 1
1925 2365 1
1925 5394 1
1925 6703 1
1925 8405 1
1926 274 1
1926 786 1
1926 1281 1
1926 1365 1
1926 3159 1
1926 4162 1
1927 18 1
1927 210 1
1927 465 1
1927 1905 1
1927 3602 1
1927 3910 1
1927 8227 1
1928 89 1
1928 91 1
1928 1264 1
1928 1506 1
1928 4276 1
1928 4305 1
1929 11 1
1929 18 1
1929 128 1
1929 171 1
1929 2637 1
1929 2829 1
1929 4812 1
1929 6321 1
1929 7042 1
1929 9581 1
1930 78 1
1930 1189 1
1930 1480 1
1930 1500 1
1930 4642 1
1930 5371 1
1930 5543 1
1930 9866 1
1931 72 1
1931 1048 1
1931 1211 1
1931 1914 1
1931 2962 1
1931 8981 1
1932 51 1
1932 94 1
1932 908 1
1932 1917 1
1932 2018 1
1932 3956 1
1933 14 1
1933 598 1
1933 1363 1
1933 1567 1
1933 4422 1
1933 5141 1
1934 155 1
1934 194 1
1934 235 1
1934 410 1
1934 2795 1
1934 2946 1
1935 4 1
1935 33 1
1935 149 1
1935 738 1
1935 2394 1
1935 5083 1
1935 5184 1
1935 8925 1
1935 9791 1
1936 2 1
1936 348 1
1936 937 1
1936 1089 1
1936 4116 1
1936 4998 1
1936 8446 1
1937 41 1
1937 418 1
1937 508 1
1937 814 1
1937 2194 1
1937 2662 1
1937 2703 1
1937 2926 1
1937 3598 1
1937 4006 1
1937 4703 1
1937 4878 1
1937 5168 1
1937 5771 1
1937 6079 1
1937 6939 1
1937 7202 1
1937 8315 1
1937 9397 1
1938 9 1
1938 89 1
1938 140 1
1938 882 1
1938 2245 1
1938 2672 1
1938 4371 1
1938 4635 1
1938 5356 1
1938 7101 1
1938 8478 1
1939 346 1
1939 353 1
1939 913 1
1939 1826 1
1939 2172 1
1939 2261 1
1939 2792 1
1939 3224 1
1939 3491 1
1939 3519 1
1939 4070 1
1939 4235 1
1939 4313 1
1939 4795 1
1939 5117 1
1939 5179 1
1939 5917 1
1939 6563 1
1939 7267 1
1939 7279 1
1939 8402 1
1940 4 1
1940 68 1
1940 204 1
1940 1572 1
1940 2552 1
1940 2984 1
1941 241 1
1941 560 1
1941 977 1
1941 1091 1
1942 18 1
1942 169 1
1942 819 1
1942 965 1
1942 4426 1
1942 7545 1
1943 13 1
1943 17 1
1943 187 1
1943 1809 1
1943 2007 1
1943 2507 1
1943 2543 1
1943 3456 1
1943 5012 1
1943 5470 1
1944 253 1
1944 581 1
1944 684 1
1944 1213 1
1945 99 1
1945 308 1
1945 973 1
1945 1666 1
1945 2088 1
1945 5215 1
1945 9259 1
1945 9826 1
1946 153 1
1946 850 1
1946 1038 1
1946 1195 1
1946 5570 1
1946 5821 1
1946 5840 1
1946 8407 1
1946 9157 1
1947 14 1
1947 28 1
1947 92 1
1947 713 1
1947 2374 1
1947 2597 1
1947 4293 1
1947 4499 1
1947 6856 1
1947 7234 1
1947 8347 1
1947 9408 1
1948 80 1
1948 333 1
1948 579 1
1948 625 1
1948 3041 1
1948 3748 1
1948 4329 1
1948 4390 1
1948 7196 1
1949 715 1
1949 964 1
1949 1183 1
1949 1566 1
1949 2547 1
1949 2900 1
1949 4103 1
1949 8628 1
1950 202 1
1950 316 1
1950 431 1
1950 633 1
1950 2534 1
1950 3714 1
1950 7443 1
1951 60 1
1951 776 1
1951 1053 1
1951 1524 1
1951 2012 1
1951 2414 1
1951 2699 1
1951 3119 1
1951 3525 1
1951 4432 1
1951 6575 1
1951 7374 1
1951 7488 1
1952 124 1
1952 202 1
1952 1373 1
1952 1680 1
1952 3568 1
1952 4675 1
1953 41 1
1953 782 1
1953 1721 1
1953 1781 1
1953 2278 1
1953 3279 1
1953 3715 1
1953 4518 1
1953 5231 1
1953 7805 1
1953 7985 1
1953 8923 1
1954 2 1
1954 89 1
1954 254 1
1954 845 1
1954 4273 1
1954 5002 1
1954 7370 1
1954 7514 1
1955 55 1
1955 227 1
1955 279 1
1955 427 1
1955 4321 1
1955 5576 1
1955 6424 1
1955 8854 1
1956 3 1
1956 24 1
1956 397 1
1956 1202 1
1956 3251 1
1956 3554 1
1956 5442 1
1957 273 1
1957 310 1
1957 791 1
1957 1666 1
1957 2973 1
1957 3229 1
1957 4077 1
1957 8112 1
1957 8389 1
1957 8535 1
1958 187 1
1958 436 1
1958 474 1
1958 1271 1
1958 3290 1
1958 4585 1
1958 7469 1
1959 6 1
1959 16 1
1959 102 1
1959 202 1
1959 9455 1
1960 266 1
1960 923 1
1960 1404 1
1960 1555 1
1960 2558 1
1960 5186 1
1960 6735 1
1960 7276 1
1960 8403 1
1960 8837 1
1961 211 1
1961 620 1
1961 1586 1
1961 1692 1
1961 2974 1
1961 3241 1
1961 5640 1
1961 6080 1
1962 608 1
1962 714 1
1962 1104 1
1962 1135 1
1962 3396 1
1962 4072 1
1963 233 1
1963 588 1
1963 884 1
1963 1748 1
1963 9781 1
1964 9 1
1964 228 1
1964 299 1
1964 1285 1
1964 2716 1
1964 2762 1
1964 2919 1
1964 3010 1
1964 4449 1
1964 5375 1
1964 5495 1
1964 5774 1
1964 5875 1
1964 6235 1
1964 6300 1
1964 6480 1
1964 7299 1
1964 7712 1
1964 7747 1
1964 8937 1
1965 4 1
1965 197 1
1965 208 1
1965 404 1
1965 3883 1
1965 5107 1
1965 6935 1
1966 18 1
1966 44 1
1966 138 1
1966 809 1
1966 3146 1
1966 4402 1
1966 4833 1
1966 5565 1
1966 8830 1
1967 60 1
1967 312 1
1967 1261 1
1967 1523 1
1967 6005 1
1967 6166 1
1968 53 1
1968 701 1
1968 1148 1
1968 1545 1
1968 8750 1
1969 37 1
1969 50 1
1969 334 1
1969 482 1
1969 6776 1
1969 8382 1
1970 3 1
1970 65 1
1970 564 1
1970 691 1
1970 3973 1
1970 4001 1
1970 7326 1
1970 9508 1
1971 41 1
1971 233 1
1971 283 1
1971 1017 1
1971 2066 1
1971 3306 1
1971 3651 1
1971 5221 1
1971 7207 1
1971 7231 1
1971 8831 1
1972 353 1
1972 1626 1
1972 1753 1
1972 1924 1
1972 2029 1
1972 2906 1
1972 7139 1
1972 8002 1
1972 8421 1
1973 242 1
1973 389 1
1973 464 1
1973 825 1
1973 3295 1
1973 4443 1
1974 81 1
1974 553 1
1974 570 1
1974 1621 1
1974 4748 1
1974 7349 1
1975 12 1
1975 76 1
1975 128 1
1975 365 1
1976 17 1
1976 121 1
1976 512 1
1976 763 1
1976 2684 1
1976 2909 1
1977 298 1
1977 889 1
1977 1258 1
1977 1470 1
1977 5134 1
1977 5874 1
1977 6696 1
1977 7052 1
1977 7272 1
1977 8353 1
1977 9502 1
1978 1 1
1978 741 1
1978 1362 1
1978 1641 1
1978 2140 1
1978 3720 1
1978 5218 1
1978 8276 1
1978 8891 1
1978 9442 1
1979 443 1
1979 581 1
1979 1235 1
1979 1446 1
1979 3749 1
1979 9880 1
1980 175 1
1980 372 1
1980 1074 1
1980 1236 1
1980 5362 1
1981 81 1
1981 724 1
1981 990 1
1981 1550 1
1981 2846 1
1981 2888 1
1981 4011 1
1981 9315 1
1982 9 1
1982 340 1
1982 745 1
1982 842 1
1982 2042 1
1982 2253 1
1982 2452 1
1982 2826 1
1982 3049 1
1982 3109 1
1982 3808 1
1982 4766 1
1982 5373 1
1982 6399 1
1982 7301 1
1982 7576 1
1982 7980 1
1982 7998 1
1982 8177 1
1982 8434 1
1982 8637 1
1983 16 1
1983 122 1
1983 338 1
1983 1572 1
1983 4063 1
1983 5247 1
1983 7671 1
1984 419 1
1984 1067 1
1984 1384 1
1984 1853 1
1985 43 1
1985 706 1
1985 938 1
1985 1903 1
1985 2035 1
1985 2602 1
1985 4530 1
1985 6528 1
1985 6622 1
1985 7180 1
1985 8168 1
1985 9392 1
1986 74 1
1986 205 1
1986 390 1
1986 1024 1
1986 2030 1
1986 2294 1
1986 2388 1
1986 2777 1
1986 3137 1
1986 3462 1
1986 4232 1
1986 4936 1
1986 5154 1
1986 5636 1
1986 6075 1
1986 6089 1
1986 6094 1
1986 6757 1
1986 6914 1
1986 8390 1
1986 8929 1
1986 9098 1
1986 9116 1
1986 9196 1
1986 9286 1
1986 9794 1
1987 25 1
1987 345 1
1987 634 1
1987 1579 1
1987 2084 1
1987 2362 1
1987 3195 1
1987 3949 1
1987 6276 1
1987 7713 1
1987 7854 1
1987 9433 1
1987 9527 1
1987 9759 1
1988 133 1
1988 246 1
1988 253 1
1988 1159 1
1988 4092 1
1988 5476 1
1989 74 1
1989 954 1
1989 1351 1
1989 1792 1
1989 3416 1
1989 3511 1
1989 4711 1
1989 8789 1
1990 91 1
1990 982 1
1990 1572 1
1990 1745 1
1990 2807 1
1990 2809 1
1990 3493 1
1990 3662 1
1990 4537 1
1990 6609 1
1990 6758 1
1990 6972 1
1990 8158 1
1990 8498 1
1990 8801 1
1990 9028 1
1991 2 1
1991 31 1
1991 77 1
1991 633 1
1991 2122 1
1991 7575 1
1992 1 1
1992 332 1
1992 623 1
1992 1659 1
1993 151 1
1993 472 1
1993 1330 1
1993 1772 1
1994 9 1
1994 35 1
1994 399 1
1994 459 1
1994 3610 1
1994 3908 1
1994 4267 1
1994 4306 1
1994 4503 1
1994 4764 1
1994 5709 1
1994 7486 1
1995 163 1
1995 787 1
1995 1009 1
1995 1332 1
1995 2525 1
1995 3206 1
1995 4683 1
1995 4711 1
1995 4880 1
1995 5798 1
1995 6187 1
1995 6640 1
1995 7199 1
1995 7481 1
1996 11 1
1996 211 1
1996 290 1
1996 365 1
1996 2132 1
1996 2522 1
1996 3838 1
1996 3981 1
1996 4096 1
1996 5801 1
1996 6479 1
1996 8334 1
1996 9117 1
1997 18 1
1997 41 1
1997 433 1
1997 1392 1
1997 5411 1
1997 7093 1
1997 7648 1
1998 105 1
1998 154 1
1998 203 1
1998 1613 1
1998 2516 1
1998 3042 1
1998 3423 1
1998 8842 1
1998 9135 1
1998 9213 1
1999 17 1
1999 531 1
1999 705 1
1999 1259 1
1999 2952 1
1999 3976 1
1999 4112 1
1999 5198 1
1999 5531 1
1999 5599 1
1999 6507 1
2000 18 1
2000 248 1
2000 588 1
2000 1038 1
2001 4 1
2001 19 1
2001 1193 1
2001 1652 1
2001 3151 1
2001 6955 1
2001 7807 1
2002 54 1
2002 356 1
2002 457 1
2002 714 1
2002 3372 1
2002 3619 1
2002 4204 1
2002 4961 1
2002 7295 1
2002 8169 1
2002 9332 1
2003 9 1
2003 91 1
2003 329 1
2003 1647 1
2003 2596 1
2003 8015 1
2003 8539 1
2003 8588 1
2003 9479 1
2004 4 1
2004 269 1
2004 495 1
2004 1188 1
2004 2277 1
2004 2348 1
2004 2676 1
2004 2902 1
2004 3007 1
2004 4089 1
2004 5438 1
2004 6791 1
2004 7050 1
2004 8218 1
2004 8370 1
2004 9635 1
2004 9660 1
2005 11 1
2005 642 1
2005 1202 1
2005 1590 1
2005 2045 1
2005 2632 1
2005 2877 1
2005 6573 1
2005 6680 1
2005 7835 1
2005 7988 1
2006 40 1
2006 211 1
2006 237 1
2006 1122 1
2006 2133 1
2006 2215 1
2006 3287 1
2006 3504 1
2006 3821 1
2006 5019 1
2006 6817 1
2006 9113 1
2006 9552 1
2006 9587 1
2007 17 1
2007 453 1
2007 700 1
2007 1943 1
2007 8595 1
2008 28 1
2008 194 1
2008 486 1
2008 973 1
2008 3341 1
2009 13 1
2009 228 1
2009 879 1
2009 1452 1
2009 3478 1
2009 4944 1
2010 33 1
2010 41 1
2010 50 1
2010 97 1
2010 2960 1
2010 4467 1
2010 5959 1
2010 6133 1
2010 6336 1
2010 6397 1
2010 6903 1
2010 7134 1
2010 8472 1
2011 4 1
2011 642 1
2011 1681 1
2011 1786 1
2011 2488 1
2011 2944 1
2011 3188 1
2011 3480 1
2011 3703 1
2011 4336 1
2011 9212 1
2012 160 1
2012 459 1
2012 1053 1
2012 1951 1
2012 6951 1
2012 8238 1
2012 8309 1
2012 8521 1
2013 750 1
2013 1712 1
2013 1748 1
2013 1863 1
2013 4528 1
2014 186 1
2014 1179 1
2014 1578 1
2014 1733 1
2014 2019 1
2014 2118 1
2014 3060 1
2014 3098 1
2014 3228 1
2014 5161 1
2014 5721 1
2014 7431 1
2014 8812 1
2014 9715 1
2015 10 1
2015 661 1
2015 790 1
2015 1894 1
2015 2753 1
2015 2961 1
2016 57 1
2016 194 1
2016 634 1
2016 1040 1
2016 4769 1
2016 5307 1
2016 6140 1
2016 6919 1
2016 9325 1
2017 179 1
2017 1038 1
2017 1322 1
2017 1747 1
2017 2176 1
2017 2311 1
2017 2517 1
2017 2912 1
2017 5512 1
2017 5581 1
2017 6397 1
2017 7060 1
2017 8308 1
2017 8879 1
2017 9537 1
2018 42 1
2018 1067 1
2018 1530 1
2018 1932 1
2018 3454 1
2018 3505 1
2018 3956 1
2018 4826 1
2018 7010 1
2018 7388 1
2019 146 1
2019 231 1
2019 780 1
2019 2014 1
2019 3226 1
2019 3228 1
2019 3521 1
2019 3581 1
2019 5161 1
2019 6763 1
2019 7865 1
2019 8156 1
2019 8585 1
2019 8627 1
2019 9348 1
2019 9715 1
2019 9807 1
2020 51 1
2020 65 1
2020 396 1
2020 1347 1
2020 4822 1
2020 5856 1
2020 6838 1
2020 8175 1
2020 9459 1
2021 4 1
2021 305 1
2021 655 1
2021 1278 1
2021 2816 1
2021 5554 1
2021 6405 1
2021 7872 1
2021 7923 1
2021 9538 1
2021 9554 1
2021 9849 1
2022 10 1
2022 142 1
2022 964 1
2022 1692 1
2022 3809 1
2022 4005 1
2023 5 1
2023 20 1
2023 355 1
2023 1658 1
2023 6990 1
2024 10 1
2024 162 1
2024 197 1
2024 353 1
2024 2543 1
2024 6943 1
2024 9064 1
2024 9312 1
2025 116 1
2025 123 1
2025 469 1
2025 772 1
2025 2281 1
2025 3795 1
2025 4760 1
2025 4788 1
2025 9618 1
2026 297 1
2026 462 1
2026 473 1
2026 1036 1
2026 2170 1
2026 2504 1
2026 3081 1
2026 3656 1
2026 4141 1
2026 4191 1
2026 4295 1
2026 4611 1
2026 5392 1
2026 5991 1
2026 6556 1
2026 8996 1
2026 9997 1
2027 541 1
2027 721 1
2027 1064 1
2027 1700 1
2027 3185 1
2027 3774 1
2027 3846 1
2027 4616 1
2027 5509 1
2027 5902 1
2028 146 1
2028 180 1
2028 1725 1
2028 1741 1
2028 3565 1
2028 8291 1
2029 1 1
2029 353 1
2029 1924 1
2029 1972 1
2029 5534 1
2029 6843 1
2030 33 1
2030 1024 1
2030 1844 1
2030 1986 1
2030 2267 1
2030 2615 1
2030 4160 1
2030 5179 1
2030 6594 1
2030 9175 1
2031 17 1
2031 443 1
2031 764 1
2031 1773 1
2031 3169 1
2031 4593 1
2031 5478 1
2031 5921 1
2032 1305 1
2032 1469 1
2032 1572 1
2032 1745 1
2032 2296 1
2032 4087 1
2032 5547 1
2032 8173 1
2033 18 1
2033 169 1
2033 235 1
2033 644 1
2033 3002 1
2033 6063 1
2033 7301 1
2033 7966 1
2033 8124 1
2033 8665 1
2034 134 1
2034 340 1
2034 1203 1
2034 1235 1
2034 2764 1
2034 3311 1
2034 3401 1
2034 5287 1
2034 6962 1
2034 7679 1
2034 9146 1
2035 10 1
2035 180 1
2035 530 1
2035 1985 1
2035 3136 1
2035 3146 1
2035 4057 1
2035 5790 1
2035 6880 1
2036 19 1
2036 182 1
2036 362 1
2036 789 1
2036 2201 1
2036 3035 1
2036 3601 1
2036 6079 1
2037 11 1
2037 18 1
2037 1323 1
2037 1769 1
2037 2561 1
2037 2674 1
2037 3647 1
2037 4312 1
2037 5441 1
2037 6801 1
2037 7528 1
2037 8344 1
2038 281 1
2038 478 1
2038 1670 1
2038 1782 1
2038 2142 1
2038 3000 1
2039 6 1
2039 41 1
2039 417 1
2039 478 1
2039 6401 1
2040 17 1
2040 183 1
2040 197 1
2040 1463 1
2041 385 1
2041 661 1
2041 1446 1
2041 1781 1
2041 2079 1
2041 2149 1
2041 2157 1
2041 2413 1
2041 2671 1
2041 3960 1
2041 4248 1
2041 4531 1
2041 4719 1
2041 5532 1
2042 1033 1
2042 1089 1
2042 1528 1
2042 1982 1
2042 2212 1
2042 2253 1
2042 4113 1
2042 6920 1
2042 7410 1
2042 7565 1
2043 18 1
2043 358 1
2043 404 1
2043 982 1
2043 2890 1
2043 4094 1
2043 4200 1
2043 5756 1
2043 6058 1
2043 6230 1
2043 6837 1
2043 9684 1
2044 12 1
2044 74 1
2044 437 1
2044 650 1
2044 2256 1
2044 5530 1
2044 5653 1
2044 6330 1
2044 6449 1
2044 6586 1
2044 7248 1
2044 7948 1
2044 9673 1
2044 9681 1
2045 1202 1
2045 1244 1
2045 1250 1
2045 2005 1
2045 2747 1
2045 5287 1
2046 81 1
2046 468 1
2046 1409 1
2046 1923 1
2046 3374 1
2046 5791 1
2046 7202 1
2046 8651 1
2047 17 1
2047 522 1
2047 809 1
2047 849 1
2047 2939 1
2047 3462 1
2047 4158 1
2047 6387 1
2048 929 1
2048 1222 1
2048 1474 1
2048 1736 1
2048 2278 1
2048 2655 1
2049 5 1
2049 587 1
2049 630 1
2049 1205 1
2049 2800 1
2049 3173 1
2049 3484 1
2049 4524 1
2049 5879 1
2049 6764 1
2049 8752 1
2050 2 1
2050 317 1
2050 861 1
2050 1672 1
2050 5262 1
2050 5265 1
2050 8789 1
2051 340 1
2051 524 1
2051 673 1
2051 881 1
2051 2414 1
2051 3754 1
2051 9166 1
2052 114 1
2052 819 1
2052 927 1
2052 1323 1
2052 2572 1
2052 3309 1
2052 3380 1
2052 3517 1
2052 4094 1
2052 7236 1
2052 7307 1
2053 307 1
2053 343 1
2053 690 1
2053 1667 1
2053 2531 1
2053 2635 1
2053 2679 1
2053 3242 1
2053 3399 1
2053 6129 1
2053 6325 1
2053 8064 1
2053 9449 1
2054 14 1
2054 1068 1
2054 1694 1
2054 1776 1
2054 2073 1
2054 4325 1
2054 6317 1
2054 6444 1
2054 8685 1
2055 60 1
2055 179 1
2055 865 1
2055 1667 1
2055 3412 1
2056 33 1
2056 154 1
2056 176 1
2056 613 1
2056 3020 1
2056 3046 1
2056 4752 1
2056 6036 1
2056 6507 1
2056 7293 1
2056 7601 1
2056 9062 1
2057 52 1
2057 219 1
2057 258 1
2057 847 1
2057 2491 1
2057 3282 1
2057 3346 1
2057 5400 1
2057 7912 1
2057 8416 1
2058 22 1
2058 97 1
2058 187 1
2058 1678 1
2058 2689 1
2058 9452 1
2058 9564 1
2059 92 1
2059 216 1
2059 975 1
2059 1042 1
2059 3546 1
2059 3600 1
2059 3818 1
2059 3925 1
2059 4483 1
2059 5167 1
2059 6215 1
2059 7516 1
2059 9283 1
2059 9748 1
2060 185 1
2060 762 1
2060 1054 1
2060 1662 1
2060 7250 1
2060 8610 1
2061 2 1
2061 24 1
2061 881 1
2061 938 1
2061 2101 1
2061 2630 1
2061 8024 1
2061 9053 1
2062 99 1
2062 788 1
2062 929 1
2062 1588 1
2062 4662 1
2062 5070 1
2062 5193 1
2062 6585 1
2062 6622 1
2062 7286 1
2062 7505 1
2062 7510 1
2063 11 1
2063 38 1
2063 504 1
2063 741 1
2063 3074 1
2063 3712 1
2064 663 1
2064 710 1
2064 916 1
2064 1273 1
2065 81 1
2065 913 1
2065 1111 1
2065 1301 1
2065 3610 1
2065 4905 1
2065 5541 1
2065 7284 1
2065 9264 1
2065 9757 1
2066 38 1
2066 41 1
2066 251 1
2066 1971 1
2066 2872 1
2066 4588 1
2066 5815 1
2066 6993 1
2066 7413 1
2066 9241 1
2067 49 1
2067 175 1
2067 1033 1
2067 1129 1
2067 2196 1
2067 2844 1
2067 3435 1
2067 5661 1
2067 8483 1
2067 9433 1
2068 65 1
2068 115 1
2068 946 1
2068 1493 1
2068 2386 1
2068 2949 1
2068 3071 1
2068 5669 1
2068 6220 1
2068 9371 1
2068 9423 1
2069 165 1
2069 1018 1
2069 1281 1
2069 1822 1
2069 3304 1
2069 4507 1
2069 5689 1
2069 8862 1
2069 9389 1
2069 9858 1
2070 146 1
2070 972 1
2070 1026 1
2070 1725 1
2070 2545 1
2070 4285 1
2071 1340 1
2071 1370 1
2071 1641 1
2071 1888 1
2071 2073 1
2071 3450 1
2071 3611 1
2071 7606 1
2071 9944 1
2072 18 1
2072 29 1
2072 205 1
2072 1369 1
2072 3105 1
2072 3216 1
2072 4344 1
2073 1 1
2073 1340 1
2073 2054 1
2073 2071 1
2073 2131 1
2073 2212 1
2073 2663 1
2073 3707 1
2073 4737 1
2073 4865 1
2073 5519 1
2073 7083 1
2073 7574 1
2073 9111 1
2073 9770 1
2074 18 1
2074 329 1
2074 628 1
2074 829 1
2074 2166 1
2074 2524 1
2074 2991 1
2074 4195 1
2074 4516 1
2074 4709 1
2074 6201 1
2074 7046 1
2075 25 1
2075 349 1
2075 1481 1
2075 1517 1
2075 2460 1
2075 4078 1
2075 5947 1
2076 9 1
2076 547 1
2076 1052 1
2076 1539 1
2076 2803 1
2076 3514 1
2076 3625 1
2076 4177 1
2076 6196 1
2076 6496 1
2076 8620 1
2076 9897 1
2077 41 1
2077 54 1
2077 235 1
2077 256 1
2077 2133 1
2077 2189 1
2077 2816 1
2077 9326 1
2078 1 1
2078 55 1
2078 606 1
2078 1358 1
2078 2980 1
2079 20 1
2079 1138 1
2079 1781 1
2079 2041 1
2079 4248 1
2080 278 1
2080 963 1
2080 1227 1
2080 1578 1
2080 3434 1
2080 7969 1
2080 7970 1
2081 4 1
2081 89 1
2081 1105 1
2081 1531 1
2082 9 1
2082 194 1
2082 826 1
2082 1653 1
2082 2406 1
2082 2845 1
2082 3163 1
2082 3202 1
2082 3688 1
2082 3969 1
2082 4892 1
2082 5499 1
2082 5506 1
2082 8977 1
2083 3 1
2083 103 1
2083 1087 1
2083 1321 1
2083 6814 1
2083 7362 1
2083 9234 1
2083 9247 1
2084 15 1
2084 634 1
2084 789 1
2084 1987 1
2084 3505 1
2084 3705 1
2084 3913 1
2084 4208 1
2084 5449 1
2084 6237 1
2084 9192 1
2084 9287 1
2084 9440 1
2084 9550 1
2084 9759 1
2085 50 1
2085 469 1
2085 665 1
2085 1318 1
2085 2403 1
2085 3840 1
2085 4030 1
2085 4887 1
2085 5734 1
2085 6482 1
2085 7066 1
2085 8404 1
2085 8885 1
2086 49 1
2086 211 1
2086 289 1
2086 1146 1
2086 2494 1
2086 4039 1
2086 4735 1
2086 5752 1
2086 6737 1
2086 9299 1
2087 11 1
2087 42 1
2087 210 1
2087 300 1
2087 4133 1
2087 5030 1
2087 6073 1
2087 6876 1
2088 110 1
2088 308 1
2088 462 1
2088 1945 1
2088 6759 1
2088 9826 1
2089 75 1
2089 481 1
2089 541 1
2089 636 1
2090 465 1
2090 693 1
2090 707 1
2090 771 1
2090 4555 1
2090 5265 1
2090 5332 1
2091 4 1
2091 11 1
2091 602 1
2091 1875 1
2091 2258 1
2091 2264 1
2091 3482 1
2091 3999 1
2091 4716 1
2091 5436 1
2091 7877 1
2091 9308 1
2092 294 1
2092 1058 1
2092 1116 1
2092 1180 1
2092 2246 1
2092 3356 1
2092 4706 1
2092 8533 1
2092 8953 1
2092 9690 1
2093 196 1
2093 208 1
2093 1045 1
2093 1268 1
2093 2334 1
2093 4856 1
2093 5132 1
2093 7185 1
2093 7249 1
2093 7415 1
2093 9161 1
2094 320 1
2094 1257 1
2094 1394 1
2094 1836 1
2094 4083 1
2094 5005 1
2094 9766 1
2094 9949 1
2095 18 1
2095 137 1
2095 254 1
2095 1523 1
2095 3026 1
2095 5686 1
2095 7891 1
2096 281 1
2096 549 1
2096 1023 1
2096 1650 1
2096 2924 1
2097 138 1
2097 1064 1
2097 1739 1
2097 1832 1
2097 2850 1
2097 5517 1
2097 5717 1
2097 5979 1
2097 6637 1
2098 153 1
2098 155 1
2098 297 1
2098 410 1
2098 2377 1
2098 3665 1
2098 5664 1
2098 5898 1
2098 7465 1
2099 9 1
2099 443 1
2099 980 1
2099 1766 1
2099 5058 1
2099 8945 1
2100 85 1
2100 824 1
2100 1207 1
2100 1918 1
2100 3154 1
2100 4305 1
2100 6966 1
2100 7655 1
2100 7862 1
2101 5 1
2101 514 1
2101 881 1
2101 2061 1
2101 2706 1
2101 4609 1
2101 5200 1
2101 6395 1
2101 8024 1
2102 6 1
2102 9 1
2102 124 1
2102 594 1
2102 2426 1
2102 3628 1
2102 4268 1
2102 9315 1
2102 9560 1
2103 11 1
2103 281 1
2103 636 1
2103 821 1
2103 4971 1
2103 6452 1
2104 2 1
2104 19 1
2104 33 1
2104 794 1
2104 3639 1
2104 8834 1
2104 9593 1
2105 73 1
2105 310 1
2105 627 1
2105 1284 1
2105 2656 1
2105 3448 1
2105 4569 1
2105 5070 1
2105 9531 1
2106 41 1
2106 169 1
2106 241 1
2106 1453 1
2106 3139 1
2106 3209 1
2106 6991 1
2107 26 1
2107 346 1
2107 1826 1
2107 1858 1
2108 163 1
2108 685 1
2108 1234 1
2108 1710 1
2108 6095 1
2108 7988 1
2108 8824 1
2108 9760 1
2108 9983 1
2109 655 1
2109 906 1
2109 924 1
2109 1376 1
2109 7997 1
2109 8840 1
2110 2 1
2110 25 1
2110 520 1
2110 565 1
2110 2720 1
2110 9639 1
2111 97 1
2111 98 1
2111 187 1
2111 354 1
2111 2419 1
2111 2588 1
2111 3059 1
2111 3567 1
2111 4093 1
2111 4596 1
2111 5876 1
2111 7097 1
2112 49 1
2112 993 1
2112 1041 1
2112 1728 1
2113 162 1
2113 665 1
2113 958 1
2113 1116 1
2113 9345 1
2113 9558 1
2114 10 1
2114 188 1
2114 684 1
2114 1047 1
2114 4783 1
2114 4813 1
2115 5 1
2115 313 1
2115 523 1
2115 1810 1
2115 3900 1
2115 5077 1
2115 5496 1
2115 6772 1
2116 94 1
2116 489 1
2116 1237 1
2116 1356 1
2116 3102 1
2116 3837 1
2116 6038 1
2116 6308 1
2116 6578 1
2116 6632 1
2117 173 1
2117 290 1
2117 1830 1
2117 1922 1
2117 3617 1
2117 3795 1
2117 5162 1
2117 5706 1
2117 6250 1
2117 6568 1
2117 6768 1
2117 7550 1
2117 8095 1
2118 522 1
2118 963 1
2118 1578 1
2118 2014 1
2118 2312 1
2118 4305 1
2118 8067 1
2118 9257 1
2118 9710 1
2119 52 1
2119 161 1
2119 592 1
2119 926 1
2120 155 1
2120 586 1
2120 1397 1
2120 1586 1
2120 7013 1
2120 8446 1
2121 295 1
2121 863 1
2121 1338 1
2121 1409 1
2121 2768 1
2121 2873 1
2121 7288 1
2121 8316 1
2121 9478 1
2122 810 1
2122 1783 1
2122 1871 1
2122 1991 1
2122 2507 1
2122 4030 1
2122 4246 1
2122 4388 1
2122 7181 1
2122 7559 1
2122 8600 1
2123 2 1
2123 50 1
2123 550 1
2123 1528 1
2123 2759 1
2124 21 1
2124 218 1
2124 519 1
2124 1738 1
2124 2609 1
2124 2875 1
2124 3615 1
2124 4259 1
2124 4377 1
2124 4763 1
2124 6888 1
2124 7795 1
2124 7809 1
2124 8123 1
2124 8310 1
2124 8440 1
2125 486 1
2125 889 1
2125 1073 1
2125 1780 1
2125 4033 1
2125 8242 1
2126 131 1
2126 213 1
2126 238 1
2126 677 1
2126 3456 1
2126 6755 1
2127 398 1
2127 611 1
2127 1004 1
2127 1693 1
2127 2341 1
2127 4218 1
2128 347 1
2128 539 1
2128 1554 1
2128 1845 1
2128 3045 1
2129 54 1
2129 148 1
2129 449 1
2129 1035 1
2129 6600 1
2130 294 1
2130 1082 1
2130 1132 1
2130 1874 1
2130 4140 1
2130 4259 1
2130 6401 1
2130 6742 1
2130 7168 1
2130 8829 1
2130 9466 1
2131 45 1
2131 975 1
2131 1340 1
2131 2073 1
2131 2521 1
2131 6460 1
2131 6559 1
2132 1 1
2132 63 1
2132 322 1
2132 1996 1
2132 4096 1
2132 5418 1
2132 8180 1
2133 10 1
2133 1261 1
2133 2006 1
2133 2077 1
2133 2134 1
2133 3287 1
2133 3422 1
2133 8896 1
2133 9064 1
2134 259 1
2134 301 1
2134 1251 1
2134 2133 1
2134 2305 1
2134 3558 1
2134 4423 1
2134 5226 1
2134 8050 1
2134 8420 1
2134 8442 1
2135 340 1
2135 1654 1
2135 1689 1
2135 1807 1
2135 3685 1
2135 7271 1
2136 59 1
2136 571 1
2136 1035 1
2136 1593 1
2136 3573 1
2136 3803 1
2136 4373 1
2136 6727 1
2137 74 1
2137 238 1
2137 677 1
2137 727 1
2137 2493 1
2137 3017 1
2137 3258 1
2137 4245 1
2137 4421 1
2137 5097 1
2137 6514 1
2137 6662 1
2137 6993 1
2137 7062 1
2137 7852 1
2137 9717 1
2137 9874 1
2138 1 1
2138 837 1
2138 1361 1
2138 1762 1
2138 2823 1
2138 2928 1
2138 4280 1
2138 5443 1
2138 6488 1
2138 8996 1
2138 9346 1
2139 572 1
2139 665 1
2139 913 1
2139 1866 1
2139 3539 1
2139 4178 1
2139 5363 1
2139 5712 1
2139 5880 1
2139 5904 1
2139 6640 1
2139 7373 1
2139 8505 1
2140 2 1
2140 1641 1
2140 1679 1
2140 1978 1
2140 2539 1
2140 2608 1
2140 3336 1
2140 6492 1
2141 2 1
2141 163 1
2141 386 1
2141 1571 1
2141 2855 1
2141 2902 1
2141 5134 1
2141 7423 1
2141 8874 1
2142 396 1
2142 871 1
2142 1091 1
2142 2038 1
2143 2 1
2143 18 1
2143 486 1
2143 1811 1
2144 38 1
2144 346 1
2144 897 1
2144 1694 1
2145 25 1
2145 179 1
2145 724 1
2145 1595 1
2145 6107 1
2145 9254 1
2146 191 1
2146 263 1
2146 834 1
2146 1873 1
2146 2427 1
2146 3130 1
2146 4507 1
2146 5409 1
2146 5806 1
2146 5821 1
2146 7522 1
2146 7868 1
2147 1 1
2147 9 1
2147 73 1
2147 1081 1
2147 5888 1
2147 7459 1
2147 8979 1
2147 9534 1
2148 9 1
2148 225 1
2148 317 1
2148 1657 1
2148 3382 1
2148 4448 1
2148 5622 1
2148 6457 1
2149 9 1
2149 18 1
2149 809 1
2149 2041 1
2149 3172 1
2149 6908 1
2149 9363 1
2150 17 1
2150 32 1
2150 1316 1
2150 1501 1
2150 2446 1
2150 4385 1
2150 8414 1
2150 9150 1
2151 49 1
2151 275 1
2151 372 1
2151 1329 1
2151 3043 1
2151 3164 1
2151 3873 1
2151 4270 1
2151 5663 1
2151 8150 1
2152 3 1
2152 633 1
2152 803 1
2152 1010 1
2153 89 1
2153 389 1
2153 1059 1
2153 1566 1
2153 2524 1
2153 3385 1
2153 4531 1
2153 5003 1
2153 8272 1
2153 9040 1
2154 164 1
2154 222 1
2154 427 1
2154 1625 1
2154 2913 1
2154 2983 1
2154 9099 1
2154 9918 1
2154 9964 1
2155 10 1
2155 11 1
2155 1062 1
2155 1197 1
2155 2511 1
2155 2787 1
2155 2818 1
2155 4113 1
2155 4367 1
2155 5122 1
2155 6802 1
2155 8596 1
2156 33 1
2156 51 1
2156 197 1
2156 505 1
2156 2459 1
2156 2475 1
2156 3194 1
2156 3356 1
2156 3896 1
2156 4017 1
2156 5109 1
2156 5503 1
2156 5680 1
2156 6501 1
2156 7506 1
2156 8309 1
2156 8613 1
2156 8821 1
2157 60 1
2157 442 1
2157 539 1
2157 2041 1
2157 2799 1
2157 3039 1
2157 3756 1
2157 4733 1
2158 41 1
2158 190 1
2158 402 1
2158 755 1
2158 2698 1
2158 5974 1
2158 8290 1
2159 34 1
2159 186 1
2159 671 1
2159 1151 1
2159 2490 1
2159 3581 1
2159 8578 1
2160 9 1
2160 122 1
2160 324 1
2160 1147 1
2160 2877 1
2160 3570 1
2160 7324 1
2161 2 1
2161 17 1
2161 1119 1
2161 1717 1
2161 3944 1
2161 3970 1
2161 5938 1
2161 6396 1
2161 6916 1
2161 9396 1
2162 2 1
2162 10 1
2162 937 1
2162 1627 1
2162 3669 1
2162 3777 1
2162 3899 1
2162 5208 1
2162 5729 1
2162 8219 1
2162 8788 1
2162 9407 1
2162 9500 1
2162 9853 1
2163 50 1
2163 246 1
2163 377 1
2163 1567 1
2163 2171 1
2163 2501 1
2163 9015 1
2164 305 1
2164 451 1
2164 786 1
2164 1561 1
2165 84 1
2165 509 1
2165 902 1
2165 1206 1
2165 7685 1
2166 391 1
2166 1029 1
2166 1318 1
2166 2074 1
2166 9366 1
2167 49 1
2167 610 1
2167 773 1
2167 1309 1
2167 2464 1
2167 3458 1
2167 4908 1
2167 8680 1
2168 59 1
2168 61 1
2168 1010 1
2168 1041 1
2168 6135 1
2168 9275 1
2169 4 1
2169 92 1
2169 298 1
2169 965 1
2169 2312 1
2169 2647 1
2169 2949 1
2169 3733 1
2169 3826 1
2169 3827 1
2169 4298 1
2169 4523 1
2169 5197 1
2169 5342 1
2169 5346 1
2169 6779 1
2169 7055 1
2169 8021 1
2169 9165 1
2169 9243 1
2169 9370 1
2169 9988 1
2170 297 1
2170 473 1
2170 1036 1
2170 2026 1
2170 3347 1
2170 3411 1
2170 3625 1
2170 3656 1
2170 4141 1
2170 4295 1
2170 4448 1
2170 4471 1
2170 4683 1
2170 5321 1
2170 5595 1
2170 6253 1
2170 6833 1
2170 6997 1
2170 7863 1
2170 8996 1
2171 2 1
2171 28 1
2171 1044 1
2171 2163 1
2171 2581 1
2171 9779 1
2172 25 1
2172 757 1
2172 1683 1
2172 1939 1
2172 3224 1
2172 3864 1
2172 5206 1
2172 6209 1
2172 7267 1
2173 9 1
2173 721 1
2173 851 1
2173 1140 1
2173 4164 1
2173 5080 1
2173 5902 1
2173 7096 1
2174 5 1
2174 1529 1
2174 1742 1
2174 1832 1
2174 2237 1
2174 6215 1
2174 9845 1
2175 30 1
2175 229 1
2175 370 1
2175 774 1
2176 9 1
2176 252 1
2176 1593 1
2176 2017 1
2176 3573 1
2176 4073 1
2176 4895 1
2176 6387 1
2176 9097 1
2177 46 1
2177 148 1
2177 449 1
2177 466 1
2177 3991 1
2177 4338 1
2177 8527 1
2177 9400 1
2178 89 1
2178 479 1
2178 641 1
2178 653 1
2178 2995 1
2178 3699 1
2178 4292 1
2179 28 1
2179 179 1
2179 337 1
2179 1600 1
2179 2400 1
2179 3838 1
2180 17 1
2180 194 1
2180 1280 1
2180 1525 1
2180 2929 1
2180 3872 1
2180 6975 1
2180 7889 1
2181 2 1
2181 194 1
2181 674 1
2181 1311 1
2181 3127 1
2181 3498 1
2181 5425 1
2181 9574 1
2182 1217 1
2182 1323 1
2182 1558 1
2182 1759 1
2182 2321 1
2182 3860 1
2182 4420 1
2182 4659 1
2183 4 1
2183 81 1
2183 781 1
2183 1769 1
2183 2871 1
2183 8849 1
2183 9625 1
2184 637 1
2184 759 1
2184 827 1
2184 1114 1
2185 25 1
2185 305 1
2185 526 1
2185 759 1
2185 2204 1
2185 2898 1
2185 3377 1
2185 3707 1
2185 6076 1
2185 6969 1
2185 8765 1
2185 8969 1
2185 9088 1
2186 2 1
2186 10 1
2186 889 1
2186 966 1
2186 2577 1
2186 3479 1
2186 3610 1
2186 4157 1
2186 4187 1
2186 4330 1
2186 4615 1
2186 6795 1
2186 6961 1
2186 7191 1
2186 8238 1
2186 8695 1
2186 9175 1
2186 9177 1
2186 9559 1
2187 7 1
2187 103 1
2187 122 1
2187 1342 1
2187 2247 1
2187 2469 1
2187 5923 1
2187 6057 1
2188 837 1
2188 1187 1
2188 1790 1
2188 1886 1
2189 154 1
2189 301 1
2189 1416 1
2189 2077 1
2189 3160 1
2189 3279 1
2189 6645 1
2190 41 1
2190 75 1
2190 707 1
2190 996 1
2190 4191 1
2190 5263 1
2190 6109 1
2190 6229 1
2190 6512 1
2191 59 1
2191 413 1
2191 1132 1
2191 1256 1
2191 3545 1
2191 3839 1
2191 6092 1
2191 6248 1
2191 9453 1
2192 57 1
2192 622 1
2192 949 1
2192 1676 1
2192 2931 1
2192 3689 1
2192 4826 1
2192 6674 1
2193 2 1
2193 9 1
2193 22 1
2193 683 1
2193 2691 1
2193 2798 1
2193 3163 1
2193 3528 1
2193 5548 1
2193 6443 1
2193 6969 1
2193 7240 1
2193 7484 1
2193 8900 1
2194 33 1
2194 51 1
2194 339 1
2194 1937 1
2194 3184 1
2194 3269 1
2194 3732 1
2194 4557 1
2194 4878 1
2194 5004 1
2194 8930 1
2195 162 1
2195 308 1
2195 370 1
2195 421 1
2195 5876 1
2196 49 1
2196 59 1
2196 1529 1
2196 2067 1
2197 34 1
2197 233 1
2197 267 1
2197 537 1
2197 3092 1
2197 3326 1
2197 3474 1
2197 3562 1
2197 4354 1
2197 4992 1
2197 5240 1
2197 6116 1
2197 8141 1
2198 89 1
2198 124 1
2198 230 1
2198 315 1
2198 5430 1
2198 7197 1
2199 60 1
2199 348 1
2199 356 1
2199 553 1
2200 9 1
2200 129 1
2200 538 1
2200 1544 1
2200 5130 1
2200 6014 1
2200 7832 1
2201 31 1
2201 981 1
2201 1164 1
2201 2036 1
2201 3775 1
2201 7658 1
2201 7936 1
2202 51 1
2202 53 1
2202 173 1
2202 699 1
2202 2206 1
2202 2578 1
2202 2713 1
2202 2928 1
2202 2950 1
2202 4595 1
2202 5276 1
2202 5556 1
2202 5776 1
2202 6153 1
2202 7984 1
2202 9343 1
2202 9660 1
2202 9798 1
2203 3 1
2203 115 1
2203 273 1
2203 1428 1
2203 2593 1
2203 4897 1
2203 7274 1
2203 7275 1
2204 24 1
2204 457 1
2204 1200 1
2204 2185 1
2204 3564 1
2204 5645 1
2205 194 1
2205 433 1
2205 543 1
2205 945 1
2205 3247 1
2205 6180 1
2205 6183 1
2205 7000 1
2205 7576 1
2205 8819 1
2205 9695 1
2205 9947 1
2206 53 1
2206 84 1
2206 1504 1
2206 2202 1
2206 2378 1
2206 3615 1
2206 9780 1
2207 89 1
2207 738 1
2207 883 1
2207 1678 1
2207 3969 1
2207 4224 1
2207 4451 1
2207 8287 1
2208 59 1
2208 276 1
2208 563 1
2208 1286 1
2209 5 1
2209 9 1
2209 19 1
2209 179 1
2209 2271 1
2209 3534 1
2209 4580 1
2209 5204 1
2209 7436 1
2209 8192 1
2209 8573 1
2209 8884 1
2209 9860 1
2210 1 1
2210 19 1
2210 1140 1
2210 1174 1
2210 2492 1
2210 2661 1
2210 3492 1
2210 5291 1
2210 6161 1
2211 129 1
2211 185 1
2211 471 1
2211 972 1
2211 8585 1
2212 1525 1
2212 1528 1
2212 2042 1
2212 2073 1
2212 2253 1
2212 3484 1
2212 4113 1
2212 7574 1
2213 11 1
2213 39 1
2213 287 1
2213 364 1
2213 2892 1
2213 2930 1
2213 3515 1
2213 5088 1
2213 6388 1
2213 6655 1
2213 6752 1
2213 9591 1
2214 68 1
2214 73 1
2214 254 1
2214 1297 1
2214 6952 1
2214 7643 1
2215 85 1
2215 679 1
2215 933 1
2215 2006 1
2215 2653 1
2215 3640 1
2215 4254 1
2215 5452 1
2215 6146 1
2216 123 1
2216 135 1
2216 780 1
2216 1498 1
2216 3303 1
2216 4170 1
2216 4818 1
2216 5673 1
2216 7135 1
2217 42 1
2217 89 1
2217 190 1
2217 279 1
2217 2649 1
2217 5803 1
2217 8799 1
2218 22 1
2218 75 1
2218 1302 1
2218 1770 1
2218 7572 1
2219 2 1
2219 266 1
2219 788 1
2219 1145 1
2219 2251 1
2219 2374 1
2219 2439 1
2219 2512 1
2219 4804 1
2219 6163 1
2219 6489 1
2219 6854 1
2219 8362 1
2219 8530 1
2219 8684 1
2219 9642 1
2220 554 1
2220 982 1
2220 1572 1
2220 1588 1
2220 3632 1
2220 3854 1
2220 7473 1
2220 8494 1
2221 372 1
2221 674 1
2221 1361 1
2221 1546 1
2221 3722 1
2221 5242 1
2221 7037 1
2221 7895 1
2221 7981 1
2221 8660 1
2221 9194 1
2222 25 1
2222 200 1
2222 794 1
2222 970 1
2222 2371 1
2222 2410 1
2222 2633 1
2222 4853 1
2222 6630 1
2223 50 1
2223 118 1
2223 1179 1
2223 1404 1
2223 9765 1
2224 105 1
2224 780 1
2224 819 1
2224 927 1
2224 2734 1
2224 5806 1
2225 8 1
2225 561 1
2225 782 1
2225 1621 1
2225 4314 1
2225 5187 1
2225 7643 1
2225 8623 1
2225 9524 1
2225 9991 1
2226 267 1
2226 345 1
2226 423 1
2226 738 1
2226 8411 1
2227 18 1
2227 587 1
2227 1642 1
2227 1753 1
2227 6240 1
2227 7752 1
2228 20 1
2228 179 1
2228 319 1
2228 663 1
2228 2541 1
2228 5299 1
2228 6107 1
2228 6661 1
2228 8347 1
2228 8465 1
2228 8492 1
2228 9464 1
2229 60 1
2229 417 1
2229 585 1
2229 881 1
2229 8678 1
2230 427 1
2230 715 1
2230 747 1
2230 1350 1
2230 2943 1
2230 3101 1
2231 49 1
2231 507 1
2231 1457 1
2231 1802 1
2231 3601 1
2231 3918 1
2231 8326 1
2232 105 1
2232 189 1
2232 326 1
2232 1452 1
2232 2560 1
2232 2659 1
2232 2847 1
2232 7532 1
2232 8618 1
2232 9329 1
2233 18 1
2233 337 1
2233 952 1
2233 1382 1
2233 3088 1
2233 6000 1
2233 6150 1
2233 7044 1
2233 8837 1
2233 9120 1
2234 2 1
2234 1067 1
2234 1486 1
2234 1641 1
2234 2563 1
2234 3046 1
2234 3782 1
2235 25 1
2235 51 1
2235 339 1
2235 801 1
2235 2797 1
2235 2948 1
2235 3007 1
2235 3066 1
2235 4665 1
2235 5349 1
2235 5599 1
2235 5603 1
2235 6223 1
2235 6381 1
2235 6802 1
2235 7597 1
2235 7648 1
2235 8028 1
2235 9068 1
2235 9435 1
2235 9508 1
2235 9533 1
2236 25 1
2236 78 1
2236 339 1
2236 990 1
2236 8559 1
2236 8859 1
2237 890 1
2237 985 1
2237 1742 1
2237 2174 1
2237 4410 1
2237 5435 1
2237 6359 1
2237 7366 1
2237 8011 1
2238 25 1
2238 649 1
2238 848 1
2238 1465 1
2238 2547 1
2238 3892 1
2238 5371 1
2238 5782 1
2238 7068 1
2238 8065 1
2239 1 1
2239 501 1
2239 920 1
2239 1668 1
2240 904 1
2240 1001 1
2240 1447 1
2240 1820 1
2240 8154 1
2241 21 1
2241 74 1
2241 601 1
2241 1363 1
2241 2704 1
2241 6853 1
2241 7204 1
2241 7617 1
2241 9198 1
2242 137 1
2242 225 1
2242 273 1
2242 1700 1
2242 2808 1
2242 2853 1
2242 3248 1
2242 3528 1
2242 5674 1
2242 6748 1
2242 7518 1
2243 10 1
2243 11 1
2243 532 1
2243 1139 1
2243 5122 1
2243 6238 1
2243 7166 1
2243 7519 1
2243 8641 1
2243 9953 1
2244 454 1
2244 485 1
2244 1214 1
2244 1630 1
2245 9 1
2245 140 1
2245 1034 1
2245 1938 1
2245 2934 1
2245 3316 1
2245 9796 1
2246 18 1
2246 519 1
2246 1761 1
2246 2092 1
2246 2257 1
2246 3010 1
2246 3150 1
2246 3175 1
2246 4430 1
2246 4925 1
2246 6418 1
2246 7154 1
2246 7184 1
2246 8127 1
2246 8635 1
2246 9690 1
2247 778 1
2247 1674 1
2247 1713 1
2247 2187 1
2247 2469 1
2247 4873 1
2247 5434 1
2247 5479 1
2248 25 1
2248 123 1
2248 459 1
2248 793 1
2248 8066 1
2249 752 1
2249 895 1
2249 1163 1
2249 1262 1
2249 2783 1
2249 3342 1
2249 3546 1
2249 4306 1
2250 41 1
2250 345 1
2250 811 1
2250 927 1
2250 8273 1
2251 41 1
2251 983 1
2251 1241 1
2251 2219 1
2251 2512 1
2251 2700 1
2251 2881 1
2251 3945 1
2251 4015 1
2251 4424 1
2251 4804 1
2251 5849 1
2251 6844 1
2251 7489 1
2251 7929 1
2252 137 1
2252 278 1
2252 412 1
2252 1384 1
2252 3419 1
2252 3914 1
2252 4740 1
2253 1033 1
2253 1982 1
2253 2042 1
2253 2212 1
2253 7471 1
2254 18 1
2254 41 1
2254 81 1
2254 1709 1
2254 2961 1
2254 3443 1
2254 6149 1
2254 6200 1
2254 6364 1
2254 7529 1
2255 73 1
2255 97 1
2255 380 1
2255 1514 1
2255 4057 1
2255 4179 1
2255 6921 1
2255 7344 1
2255 8234 1
2255 9233 1
2255 9840 1
2256 170 1
2256 472 1
2256 977 1
2256 2044 1
2256 3420 1
2256 9602 1
2257 11 1
2257 19 1
2257 75 1
2257 2246 1
2257 2963 1
2257 3748 1
2257 4925 1
2257 5357 1
2257 6393 1
2258 25 1
2258 602 1
2258 1875 1
2258 2091 1
2258 9632 1
2259 34 1
2259 81 1
2259 665 1
2259 960 1
2259 2758 1
2260 219 1
2260 357 1
2260 634 1
2260 1473 1
2260 3357 1
2260 6214 1
2260 6255 1
2260 6955 1
2260 6997 1
2260 7895 1
2260 8181 1
2261 346 1
2261 380 1
2261 564 1
2261 1939 1
2261 2833 1
2261 3210 1
2261 3698 1
2261 4403 1
2261 4701 1
2261 4850 1
2261 5834 1
2261 6391 1
2261 7127 1
2261 9521 1
2261 9729 1
2262 11 1
2262 685 1
2262 687 1
2262 1434 1
2262 3360 1
2262 5466 1
2262 5754 1
2262 6273 1
2262 8183 1
2263 11 1
2263 83 1
2263 339 1
2263 626 1
2263 2590 1
2263 5299 1
2263 7318 1
2263 7608 1
2264 181 1
2264 403 1
2264 602 1
2264 2091 1
2265 53 1
2265 173 1
2265 1067 1
2265 1428 1
2265 2532 1
2265 4056 1
2265 4982 1
2265 5223 1
2265 5493 1
2265 5759 1
2265 6656 1
2265 6924 1
2266 236 1
2266 642 1
2266 852 1
2266 1443 1
2266 2308 1
2266 2340 1
2266 2379 1
2266 2689 1
2266 3368 1
2266 4770 1
2266 5074 1
2266 6989 1
2266 8233 1
2266 8720 1
2266 9121 1
2267 9 1
2267 1606 1
2267 1701 1
2267 2030 1
2267 2615 1
2267 2736 1
2267 4160 1
2267 4531 1
2267 6535 1
2267 6808 1
2267 7689 1
2267 8860 1
2267 9040 1
2268 138 1
2268 425 1
2268 588 1
2268 748 1
2268 2588 1
2268 4466 1
2268 5311 1
2268 7097 1
2268 7536 1
2268 9561 1
2268 9937 1
2269 178 1
2269 585 1
2269 692 1
2269 703 1
2269 2909 1
2269 4008 1
2269 4821 1
2269 5270 1
2270 681 1
2270 738 1
2270 1492 1
2270 1792 1
2270 3684 1
2270 4600 1
2271 2 1
2271 186 1
2271 1550 1
2271 2209 1
2271 5560 1
2271 7436 1
2271 8053 1
2271 8210 1
2271 8573 1
2271 9547 1
2272 311 1
2272 387 1
2272 1122 1
2272 1555 1
2272 4922 1
2273 49 1
2273 276 1
2273 1223 1
2273 1289 1
2273 3325 1
2273 3627 1
2273 3997 1
2273 6236 1
2274 130 1
2274 150 1
2274 265 1
2274 320 1
2274 2667 1
2274 3102 1
2274 3930 1
2274 5388 1
2274 5473 1
2274 5587 1
2274 7130 1
2274 9539 1
2275 427 1
2275 906 1
2275 1089 1
2275 1512 1
2275 2432 1
2275 3657 1
2275 4205 1
2275 4233 1
2275 4776 1
2275 5870 1
2275 6473 1
2275 7174 1
2275 7614 1
2275 8172 1
2275 8180 1
2275 8587 1
2275 9843 1
2276 10 1
2276 49 1
2276 513 1
2276 1714 1
2276 4300 1
2276 5391 1
2276 5573 1
2276 6286 1
2276 9613 1
2276 9753 1
2277 4 1
2277 499 1
2277 1586 1
2277 2004 1
2277 2358 1
2277 3007 1
2277 7669 1
2277 9332 1
2278 54 1
2278 172 1
2278 1953 1
2278 2048 1
2278 2641 1
2278 2655 1
2278 4829 1
2278 5989 1
2278 8076 1
2278 8621 1
2279 5 1
2279 25 1
2279 62 1
2279 353 1
2279 2489 1
2279 2906 1
2279 2992 1
2280 47 1
2280 90 1
2280 1320 1
2280 1516 1
2280 2538 1
2280 3361 1
2280 4055 1
2281 89 1
2281 380 1
2281 1284 1
2281 2025 1
2281 2408 1
2281 2783 1
2281 3834 1
2281 9683 1
2282 11 1
2282 365 1
2282 699 1
2282 1898 1
2282 2361 1
2282 2447 1
2282 3155 1
2282 3316 1
2282 3622 1
2282 3962 1
2282 5144 1
2282 5726 1
2282 5757 1
2282 5920 1
2282 6712 1
2282 7253 1
2282 7614 1
2282 9105 1
2283 11 1
2283 12 1
2283 138 1
2283 1589 1
2283 2402 1
2283 2815 1
2283 3703 1
2283 3997 1
2283 4415 1
2283 4502 1
2283 5142 1
2283 6486 1
2284 25 1
2284 236 1
2284 510 1
2284 1332 1
2284 2896 1
2285 265 1
2285 404 1
2285 973 1
2285 1059 1
2286 2 1
2286 9 1
2286 129 1
2286 431 1
2286 2791 1
2286 2876 1
2286 4809 1
2286 6161 1
2287 1 1
2287 12 1
2287 61 1
2287 105 1
2287 5404 1
2287 6291 1
2287 6348 1
2287 7087 1
2288 54 1
2288 823 1
2288 981 1
2288 1860 1
2289 33 1
2289 60 1
2289 542 1
2289 1818 1
2289 2428 1
2289 2431 1
2289 2598 1
2289 3958 1
2289 4563 1
2289 6642 1
2289 7117 1
2289 7213 1
2290 91 1
2290 145 1
2290 310 1
2290 467 1
2290 2415 1
2290 3106 1
2290 4630 1
2290 5014 1
2290 5592 1
2290 9959 1
2291 28 1
2291 162 1
2291 178 1
2291 1667 1
2291 2567 1
2291 3242 1
2291 3905 1
2291 5683 1
2291 6687 1
2291 7671 1
2291 8336 1
2291 9652 1
2291 9972 1
2292 65 1
2292 91 1
2292 774 1
2292 1218 1
2292 2526 1
2292 3807 1
2292 4209 1
2292 6043 1
2292 6096 1
2293 43 1
2293 971 1
2293 1566 1
2293 1614 1
2293 2596 1
2293 3988 1
2293 4671 1
2293 4850 1
2293 6311 1
2293 9056 1
2294 19 1
2294 833 1
2294 1826 1
2294 1986 1
2294 5154 1
2294 8396 1
2294 9988 1
2295 9 1
2295 491 1
2295 506 1
2295 585 1
2295 2560 1
2295 8075 1
2295 8433 1
2296 462 1
2296 845 1
2296 955 1
2296 2032 1
2296 2328 1
2296 4018 1
2296 6797 1
2297 6 1
2297 25 1
2297 365 1
2297 1007 1
2297 3149 1
2297 3977 1
2297 6421 1
2297 7782 1
2297 9970 1
2298 1 1
2298 77 1
2298 673 1
2298 1146 1
2298 2678 1
2298 2872 1
2298 3097 1
2298 3911 1
2298 4089 1
2298 4470 1
2298 5946 1
2298 7319 1
2298 8406 1
2298 8775 1
2298 9030 1
2298 9419 1
2298 9859 1
2299 1 1
2299 261 1
2299 906 1
2299 1308 1
2299 3863 1
2299 4143 1
2299 4567 1
2299 6843 1
2299 7736 1
2300 556 1
2300 1245 1
2300 1641 1
2300 1737 1
2300 6982 1
2300 9542 1
2301 25 1
2301 1260 1
2301 1296 1
2301 1418 1
2301 8742 1
2302 66 1
2302 73 1
2302 978 1
2302 1397 1
2302 4546 1
2302 4798 1
2303 60 1
2303 824 1
2303 1207 1
2303 1307 1
2303 7240 1
2304 124 1
2304 1322 1
2304 1507 1
2304 1781 1
2304 9956 1
2305 31 1
2305 254 1
2305 1385 1
2305 2134 1
2305 4455 1
2305 4765 1
2305 5298 1
2305 6724 1
2305 7729 1
2305 7853 1
2305 8991 1
2306 62 1
2306 216 1
2306 591 1
2306 987 1
2306 4983 1
2307 8 1
2307 277 1
2307 468 1
2307 871 1
2307 4023 1
2307 6286 1
2307 7001 1
2307 7044 1
2307 8066 1
2308 300 1
2308 1443 1
2308 1553 1
2308 2266 1
2308 5074 1
2308 6575 1
2308 6676 1
2308 7213 1
2308 7225 1
2308 8752 1
2308 9814 1
2309 79 1
2309 113 1
2309 393 1
2309 1189 1
2309 5969 1
2310 59 1
2310 522 1
2310 892 1
2310 1172 1
2310 2780 1
2310 4718 1
2311 1139 1
2311 1747 1
2311 1825 1
2311 2017 1
2311 4994 1
2311 5581 1
2311 6155 1
2311 6970 1
2312 963 1
2312 1566 1
2312 2118 1
2312 2169 1
2312 2802 1
2312 3826 1
2313 27 1
2313 217 1
2313 418 1
2313 1659 1
2313 3115 1
2313 3751 1
2313 3857 1
2313 5256 1
2313 5901 1
2313 6138 1
2313 6739 1
2313 7366 1
2313 7699 1
2313 8531 1
2313 9746 1
2314 138 1
2314 236 1
2314 322 1
2314 612 1
2314 4029 1
2314 4266 1
2314 5110 1
2314 7043 1
2314 8200 1
2314 9374 1
2315 206 1
2315 281 1
2315 438 1
2315 1037 1
2315 2734 1
2315 3097 1
2315 4971 1
2315 9075 1
2315 9090 1
2315 9273 1
2315 9899 1
2316 174 1
2316 290 1
2316 1030 1
2316 1251 1
2316 3362 1
2316 3567 1
2316 6386 1
2316 7120 1
2316 8084 1
2316 8558 1
2317 44 1
2317 63 1
2317 942 1
2317 1404 1
2318 73 1
2318 137 1
2318 285 1
2318 1661 1
2318 2356 1
2318 2533 1
2318 3407 1
2318 5295 1
2318 5510 1
2318 6482 1
2318 8615 1
2319 25 1
2319 371 1
2319 851 1
2319 1749 1
2319 3966 1
2319 5832 1
2319 5966 1
2320 300 1
2320 402 1
2320 513 1
2320 1233 1
2321 41 1
2321 265 1
2321 630 1
2321 2182 1
2321 2886 1
2321 7110 1
2321 7355 1
2321 8282 1
2321 8630 1
2321 9646 1
2322 59 1
2322 345 1
2322 603 1
2322 665 1
2322 5047 1
2322 5566 1
2322 7531 1
2322 8314 1
2322 9341 1
2323 49 1
2323 483 1
2323 697 1
2323 784 1
2323 3192 1
2323 5980 1
2323 6624 1
2323 6885 1
2323 9334 1
2324 10 1
2324 237 1
2324 1096 1
2324 1588 1
2324 5842 1
2324 6680 1
2325 772 1
2325 1094 1
2325 1217 1
2325 1770 1
2325 3240 1
2325 7313 1
2326 4 1
2326 142 1
2326 490 1
2326 1555 1
2326 2612 1
2326 2903 1
2326 4200 1
2326 4462 1
2326 5007 1
2326 9141 1
2327 27 1
2327 60 1
2327 710 1
2327 1292 1
2327 3214 1
2327 5419 1
2327 6549 1
2328 204 1
2328 955 1
2328 994 1
2328 2296 1
2329 82 1
2329 323 1
2329 556 1
2329 673 1
2329 3108 1
2329 4113 1
2329 6020 1
2330 51 1
2330 1163 1
2330 1331 1
2330 1443 1
2330 2523 1
2330 2662 1
2330 2783 1
2330 3380 1
2330 3796 1
2330 4779 1
2330 5890 1
2330 6911 1
2330 6962 1
2330 7942 1
2330 8225 1
2330 8952 1
2331 4 1
2331 9 1
2331 15 1
2331 1562 1
2331 2697 1
2331 3366 1
2331 5783 1
2331 9702 1
2332 11 1
2332 19 1
2332 57 1
2332 1747 1
2332 2461 1
2332 2821 1
2332 3030 1
2332 3535 1
2332 4850 1
2332 6228 1
2332 6351 1
2332 6750 1
2332 7409 1
2332 8459 1
2333 154 1
2333 187 1
2333 835 1
2333 1584 1
2333 5174 1
2333 5528 1
2333 5714 1
2333 6794 1
2333 9024 1
2334 4 1
2334 327 1
2334 451 1
2334 2093 1
2334 2852 1
2334 3121 1
2334 3659 1
2334 6081 1
2334 9230 1
2335 5 1
2335 347 1
2335 642 1
2335 1753 1
2335 4687 1
2336 34 1
2336 547 1
2336 773 1
2336 1357 1
2337 18 1
2337 726 1
2337 1820 1
2337 1919 1
2337 3805 1
2337 5336 1
2338 4 1
2338 51 1
2338 97 1
2338 1009 1
2338 2743 1
2338 3253 1
2338 3452 1
2338 6199 1
2338 9746 1
2338 9971 1
2339 2 1
2339 268 1
2339 641 1
2339 1044 1
2339 2578 1
2339 4264 1
2339 6853 1
2339 7084 1
2339 8206 1
2340 99 1
2340 642 1
2340 852 1
2340 2266 1
2340 3435 1
2340 4316 1
2341 258 1
2341 372 1
2341 1693 1
2341 2127 1
2341 3021 1
2341 3308 1
2341 5096 1
2341 5115 1
2342 151 1
2342 1038 1
2342 1041 1
2342 1796 1
2342 2693 1
2343 33 1
2343 154 1
2343 958 1
2343 1132 1
2343 3432 1
2343 3644 1
2343 4370 1
2343 4841 1
2343 7934 1
2343 8375 1
2343 8499 1
2344 11 1
2344 34 1
2344 1370 1
2344 1888 1
2345 372 1
2345 634 1
2345 954 1
2345 1366 1
2345 2355 1
2345 4550 1
2345 6346 1
2345 6678 1
2345 8438 1
2346 66 1
2346 123 1
2346 260 1
2346 1028 1
2346 3231 1
2346 3730 1
2346 3768 1
2346 4041 1
2346 4317 1
2346 5157 1
2346 5313 1
2346 9479 1
2347 428 1
2347 699 1
2347 930 1
2347 1503 1
2347 2895 1
2347 3339 1
2347 3629 1
2347 3909 1
2347 4256 1
2347 5737 1
2347 5914 1
2347 7878 1
2347 8209 1
2348 1249 1
2348 1515 1
2348 1794 1
2348 2004 1
2348 2567 1
2348 3072 1
2348 5381 1
2349 66 1
2349 585 1
2349 692 1
2349 1834 1
2349 2688 1
2349 4309 1
2349 4885 1
2349 5457 1
2349 8058 1
2349 8431 1
2349 9227 1
2349 9801 1
2350 17 1
2350 116 1
2350 133 1
2350 516 1
2350 4442 1
2350 6986 1
2350 7515 1
2350 8434 1
2351 81 1
2351 253 1
2351 1065 1
2351 1371 1
2351 2813 1
2351 3911 1
2351 4499 1
2351 6453 1
2351 9155 1
2352 33 1
2352 170 1
2352 1308 1
2352 1594 1
2353 1 1
2353 248 1
2353 1258 1
2353 1297 1
2353 3657 1
2353 3701 1
2353 4604 1
2353 5216 1
2353 5973 1
2353 6164 1
2353 7174 1
2354 345 1
2354 811 1
2354 915 1
2354 1089 1
2354 3193 1
2354 3638 1
2354 5444 1
2355 1 1
2355 877 1
2355 1724 1
2355 2345 1
2355 3765 1
2355 5178 1
2355 8120 1
2355 9777 1
2356 19 1
2356 73 1
2356 292 1
2356 2318 1
2356 4082 1
2356 6292 1
2356 7953 1
2356 8853 1
2356 9069 1
2357 18 1
2357 394 1
2357 1206 1
2357 1248 1
2357 3469 1
2357 7437 1
2358 383 1
2358 499 1
2358 1329 1
2358 2277 1
2358 2675 1
2358 4927 1
2358 9000 1
2359 75 1
2359 242 1
2359 874 1
2359 1714 1
2359 4362 1
2360 49 1
2360 858 1
2360 1194 1
2360 1721 1
2360 3012 1
2361 415 1
2361 437 1
2361 1312 1
2361 2282 1
2361 2658 1
2361 2811 1
2361 3410 1
2361 3962 1
2361 4029 1
2361 4842 1
2361 5412 1
2361 5597 1
2361 5816 1
2361 7569 1
2361 9577 1
2362 4 1
2362 386 1
2362 553 1
2362 1987 1
2362 3322 1
2362 5361 1
2362 5864 1
2362 7349 1
2363 22 1
2363 66 1
2363 107 1
2363 413 1
2363 3173 1
2363 4667 1
2363 5746 1
2363 7699 1
2363 8311 1
2363 8764 1
2364 105 1
2364 297 1
2364 404 1
2364 997 1
2364 2398 1
2364 2447 1
2364 5885 1
2364 6348 1
2364 6819 1
2364 6828 1
2364 8796 1
2365 2 1
2365 30 1
2365 907 1
2365 1925 1
2365 2386 1
2365 3641 1
2365 4413 1
2365 5185 1
2365 6155 1
2365 7192 1
2365 8126 1
2365 8155 1
2365 8409 1
2365 8872 1
2365 9667 1
2366 2 1
2366 113 1
2366 532 1
2366 1666 1
2366 4765 1
2366 7961 1
2366 9416 1
2367 89 1
2367 234 1
2367 257 1
2367 1221 1
2367 2454 1
2367 2905 1
2367 7176 1
2367 7424 1
2368 92 1
2368 124 1
2368 865 1
2368 1470 1
2368 3161 1
2368 3939 1
2368 9843 1
2369 17 1
2369 57 1
2369 99 1
2369 194 1
2369 4496 1
2369 4848 1
2369 4862 1
2369 5026 1
2369 5878 1
2369 7266 1
2369 8881 1
2369 9696 1
2370 82 1
2370 885 1
2370 953 1
2370 1107 1
2370 2471 1
2370 3100 1
2370 3458 1
2370 4127 1
2370 4543 1
2370 4995 1
2370 6326 1
2370 9382 1
2370 9698 1
2371 25 1
2371 466 1
2371 1769 1
2371 2222 1
2371 3563 1
2371 4472 1
2371 5385 1
2371 6283 1
2371 6464 1
2372 203 1
2372 252 1
2372 486 1
2372 765 1
2372 3058 1
2372 5339 1
2372 5783 1
2372 7021 1
2373 66 1
2373 85 1
2373 231 1
2373 1771 1
2373 2480 1
2373 2723 1
2373 3182 1
2373 3397 1
2373 3418 1
2373 3439 1
2373 5069 1
2373 6422 1
2373 6522 1
2373 6664 1
2374 25 1
2374 713 1
2374 1947 1
2374 2219 1
2374 2597 1
2374 4072 1
2374 4566 1
2374 4710 1
2374 6789 1
2374 8915 1
2374 9673 1
2375 1 1
2375 162 1
2375 278 1
2375 818 1
2375 4351 1
2376 636 1
2376 1188 1
2376 1212 1
2376 1340 1
2376 3450 1
2377 180 1
2377 410 1
2377 1557 1
2377 2098 1
2377 3738 1
2377 4731 1
2377 5898 1
2377 9730 1
2378 66 1
2378 556 1
2378 610 1
2378 2206 1
2378 2856 1
2378 2942 1
2378 3365 1
2378 3615 1
2378 4244 1
2378 5659 1
2378 6426 1
2378 6708 1
2378 6915 1
2378 7112 1
2378 7425 1
2378 7602 1
2378 8962 1
2378 9288 1
2378 9773 1
2379 323 1
2379 326 1
2379 642 1
2379 2266 1
2379 3296 1
2379 4770 1
2379 5141 1
2379 5505 1
2379 5915 1
2379 6529 1
2379 6818 1
2379 7339 1
2379 7657 1
2379 9815 1
2380 4 1
2380 474 1
2380 666 1
2380 1383 1
2380 3700 1
2380 4300 1
2380 5546 1
2380 6749 1
2380 8798 1
2380 9190 1
2380 9718 1
2381 83 1
2381 172 1
2381 784 1
2381 1502 1
2381 4344 1
2381 4420 1
2381 8078 1
2381 8941 1
2382 61 1
2382 1287 1
2382 1553 1
2382 1790 1
2382 3692 1
2382 4123 1
2382 5740 1
2383 500 1
2383 640 1
2383 746 1
2383 1898 1
2384 242 1
2384 300 1
2384 1778 1
2384 1875 1
2384 3308 1
2385 89 1
2385 235 1
2385 340 1
2385 390 1
2385 2891 1
2385 3122 1
2385 3313 1
2385 5281 1
2385 6358 1
2385 8695 1
2386 849 1
2386 994 1
2386 2068 1
2386 2365 1
2386 2873 1
2386 3405 1
2386 3641 1
2386 4696 1
2386 5477 1
2386 5928 1
2386 6985 1
2386 8831 1
2387 1 1
2387 99 1
2387 1148 1
2387 1847 1
2387 8249 1
2388 469 1
2388 1672 1
2388 1741 1
2388 1986 1
2388 2848 1
2388 3895 1
2388 4075 1
2388 4936 1
2388 8239 1
2388 9112 1
2389 394 1
2389 436 1
2389 739 1
2389 1793 1
2389 2469 1
2389 2841 1
2389 4383 1
2389 8069 1
2389 9587 1
2389 9791 1
2390 1 1
2390 2 1
2390 429 1
2390 707 1
2390 3215 1
2390 3405 1
2390 4765 1
2391 197 1
2391 354 1
2391 627 1
2391 968 1
2391 4238 1
2391 8565 1
2391 9286 1
2391 9333 1
2392 74 1
2392 597 1
2392 949 1
2392 1883 1
2393 35 1
2393 71 1
2393 675 1
2393 782 1
2393 4373 1
2393 4847 1
2393 5795 1
2393 6633 1
2393 8554 1
2393 8856 1
2393 9910 1
2394 308 1
2394 730 1
2394 1291 1
2394 1935 1
2394 4752 1
2394 7312 1
2394 9147 1
2395 217 1
2395 379 1
2395 477 1
2395 665 1
2395 3810 1
2395 3889 1
2395 6779 1
2395 7006 1
2395 7662 1
2395 9010 1
2395 9192 1
2395 9321 1
2395 9465 1
2395 9568 1
2396 265 1
2396 454 1
2396 846 1
2396 1652 1
2396 4128 1
2397 7 1
2397 41 1
2397 474 1
2397 1328 1
2397 3556 1
2397 4221 1
2397 9020 1
2398 297 1
2398 718 1
2398 749 1
2398 2364 1
2398 6861 1
2399 161 1
2399 427 1
2399 742 1
2399 1337 1
2399 3531 1
2399 5104 1
2399 5809 1
2399 7065 1
2399 7649 1
2400 79 1
2400 178 1
2400 393 1
2400 2179 1
2400 6255 1
2401 11 1
2401 41 1
2401 930 1
2401 1071 1
2401 2520 1
2401 2936 1
2401 6217 1
2401 8340 1
2401 8345 1
2402 65 1
2402 221 1
2402 1347 1
2402 2283 1
2402 3305 1
2402 3431 1
2402 3682 1
2402 6539 1
2402 7203 1
2403 132 1
2403 270 1
2403 1354 1
2403 2085 1
2403 5038 1
2403 6482 1
2403 6852 1
2403 7078 1
2403 7648 1
2403 8659 1
2403 8853 1
2403 9270 1
2404 126 1
2404 187 1
2404 675 1
2404 1117 1
2404 3817 1
2404 3890 1
2404 6826 1
2405 111 1
2405 557 1
2405 1380 1
2405 1617 1
2405 2635 1
2406 27 1
2406 113 1
2406 446 1
2406 2082 1
2406 2768 1
2406 7823 1
2406 8968 1
2407 29 1
2407 542 1
2407 569 1
2407 1818 1
2407 6521 1
2408 89 1
2408 291 1
2408 380 1
2408 2281 1
2409 161 1
2409 826 1
2409 1230 1
2409 1423 1
2409 2814 1
2409 4767 1
2409 6108 1
2410 292 1
2410 395 1
2410 970 1
2410 2222 1
2410 4853 1
2410 8537 1
2411 2 1
2411 45 1
2411 279 1
2411 283 1
2411 5064 1
2411 6194 1
2412 5 1
2412 18 1
2412 298 1
2412 731 1
2412 4406 1
2412 5483 1
2412 7627 1
2412 8202 1
2413 2 1
2413 661 1
2413 1446 1
2413 2041 1
2413 4039 1
2413 4254 1
2413 8265 1
2414 629 1
2414 848 1
2414 1951 1
2414 2051 1
2414 2444 1
2414 2699 1
2414 3754 1
2414 7909 1
2415 215 1
2415 467 1
2415 701 1
2415 2290 1
2416 42 1
2416 191 1
2416 625 1
2416 763 1
2416 4245 1
2416 5921 1
2417 188 1
2417 532 1
2417 761 1
2417 1570 1
2417 7721 1
2417 8444 1
2418 134 1
2418 268 1
2418 333 1
2418 1769 1
2418 2475 1
2418 3209 1
2418 3356 1
2418 3865 1
2418 4194 1
2418 5334 1
2418 6873 1
2418 7390 1
2418 8810 1
2419 202 1
2419 546 1
2419 1103 1
2419 2111 1
2419 2738 1
2419 3345 1
2419 3667 1
2419 6701 1
2419 8149 1
2419 9675 1
2420 38 1
2420 48 1
2420 302 1
2420 574 1
2420 7478 1
2421 4 1
2421 19 1
2421 257 1
2421 697 1
2421 2550 1
2421 3153 1
2421 3864 1
2421 3897 1
2421 4759 1
2421 4915 1
2421 6041 1
2421 6731 1
2421 7200 1
2421 7389 1
2421 8307 1
2421 9510 1
2421 9934 1
2422 49 1
2422 635 1
2422 693 1
2422 985 1
2422 5474 1
2422 7833 1
2422 8064 1
2423 1 1
2423 25 1
2423 212 1
2423 1256 1
2423 3430 1
2423 4993 1
2423 7527 1
2424 155 1
2424 185 1
2424 210 1
2424 468 1
2424 9196 1
2424 9947 1
2425 138 1
2425 465 1
2425 889 1
2425 1034 1
2426 35 1
2426 1242 1
2426 1772 1
2426 2102 1
2426 2472 1
2426 4553 1
2426 7190 1
2426 7213 1
2426 8292 1
2426 9670 1
2426 9885 1
2427 191 1
2427 834 1
2427 979 1
2427 2146 1
2427 2671 1
2427 4192 1
2427 4803 1
2427 5409 1
2427 8782 1
2427 9386 1
2428 5 1
2428 69 1
2428 1182 1
2428 2289 1
2428 2598 1
2428 3967 1
2429 319 1
2429 535 1
2429 1136 1
2429 1151 1
2430 370 1
2430 786 1
2430 915 1
2430 980 1
2430 2891 1
2430 2941 1
2430 7970 1
2431 51 1
2431 545 1
2431 1818 1
2431 2289 1
2431 5304 1
2431 6507 1
2431 6868 1
2431 6869 1
2431 7213 1
2431 7992 1
2431 8730 1
2432 427 1
2432 906 1
2432 1512 1
2432 2275 1
2432 3359 1
2433 206 1
2433 413 1
2433 435 1
2433 438 1
2433 2881 1
2433 3428 1
2433 5470 1
2433 6360 1
2434 153 1
2434 252 1
2434 600 1
2434 1195 1
2434 2933 1
2434 3878 1
2434 4240 1
2434 4288 1
2434 7227 1
2434 7798 1
2435 12 1
2435 21 1
2435 917 1
2435 1037 1
2435 4298 1
2435 4795 1
2435 7027 1
2435 7740 1
2435 8162 1
2435 9186 1
2435 9304 1
2436 94 1
2436 314 1
2436 1525 1
2436 1739 1
2436 2891 1
2436 4271 1
2436 8621 1
2437 11 1
2437 49 1
2437 497 1
2437 1411 1
2437 3474 1
2437 5242 1
2437 5521 1
2437 6775 1
2437 8990 1
2438 158 1
2438 212 1
2438 1473 1
2438 1738 1
2438 3297 1
2438 3975 1
2438 5855 1
2439 788 1
2439 1075 1
2439 1341 1
2439 2219 1
2439 8362 1
2439 8865 1
2440 17 1
2440 26 1
2440 1249 1
2440 1661 1
2440 4440 1
2440 5018 1
2440 8308 1
2441 163 1
2441 185 1
2441 442 1
2441 1726 1
2441 2476 1
2441 2690 1
2441 3555 1
2441 4283 1
2441 4416 1
2441 4466 1
2441 4763 1
2441 7899 1
2441 8104 1
2441 9827 1
2442 721 1
2442 722 1
2442 1329 1
2442 1840 1
2442 3667 1
2442 4881 1
2442 6301 1
2443 145 1
2443 315 1
2443 843 1
2443 1331 1
2443 3556 1
2443 3621 1
2443 4537 1
2443 4679 1
2443 5204 1
2443 5992 1
2443 7739 1
2443 7998 1
2443 8594 1
2443 9002 1
2444 370 1
2444 429 1
2444 687 1
2444 2414 1
2444 3566 1
2444 3895 1
2444 5220 1
2444 8748 1
2445 41 1
2445 128 1
2445 507 1
2445 1156 1
2445 9427 1
2446 17 1
2446 203 1
2446 1251 1
2446 2150 1
2446 3327 1
2446 5023 1
2446 7209 1
2447 11 1
2447 997 1
2447 2282 1
2447 2364 1
2447 2653 1
2447 6448 1
2447 7614 1
2448 33 1
2448 60 1
2448 1123 1
2448 1199 1
2448 6865 1
2449 9 1
2449 30 1
2449 257 1
2449 1605 1
2450 73 1
2450 137 1
2450 332 1
2450 1785 1
2450 2965 1
2450 2998 1
2450 3470 1
2450 3538 1
2450 4747 1
2450 5282 1
2450 5301 1
2450 5675 1
2450 6192 1
2450 6231 1
2450 6473 1
2450 8163 1
2450 8313 1
2450 9749 1
2451 2 1
2451 197 1
2451 227 1
2451 1067 1
2451 5217 1
2451 5845 1
2451 6938 1
2451 7769 1
2451 8453 1
2452 673 1
2452 745 1
2452 1841 1
2452 1982 1
2453 156 1
2453 203 1
2453 214 1
2453 236 1
2453 3472 1
2453 5302 1
2453 7285 1
2453 8813 1
2453 8935 1
2453 9174 1
2454 48 1
2454 495 1
2454 802 1
2454 2367 1
2454 4629 1
2454 4809 1
2454 4839 1
2454 5057 1
2454 5636 1
2454 8503 1
2455 5 1
2455 200 1
2455 523 1
2455 1810 1
2455 3578 1
2455 4121 1
2455 7175 1
2455 7771 1
2455 8828 1
2456 146 1
2456 274 1
2456 730 1
2456 1135 1
2456 2711 1
2456 2899 1
2456 4597 1
2456 5383 1
2456 7951 1
2457 114 1
2457 147 1
2457 1359 1
2457 1829 1
2457 2863 1
2457 2927 1
2457 5335 1
2457 6057 1
2458 67 1
2458 77 1
2458 458 1
2458 1565 1
2458 7402 1
2459 630 1
2459 1195 1
2459 1849 1
2459 2156 1
2459 3190 1
2459 3194 1
2459 4645 1
2459 6501 1
2459 9365 1
2460 380 1
2460 1023 1
2460 1105 1
2460 2075 1
2460 2602 1
2460 3107 1
2460 3163 1
2460 3256 1
2460 4310 1
2460 4601 1
2460 4757 1
2460 6441 1
2460 6990 1
2460 7811 1
2460 8915 1
2461 413 1
2461 1027 1
2461 1281 1
2461 2332 1
2461 5969 1
2462 9 1
2462 179 1
2462 442 1
2462 683 1
2462 3797 1
2462 4647 1
2462 6283 1
2462 8425 1
2462 8726 1
2463 227 1
2463 546 1
2463 938 1
2463 1256 1
2464 610 1
2464 942 1
2464 1714 1
2464 2167 1
2464 5397 1
2464 6121 1
2465 11 1
2465 369 1
2465 481 1
2465 1453 1
2465 3446 1
2465 4533 1
2466 9 1
2466 41 1
2466 427 1
2466 1858 1
2466 3532 1
2466 4450 1
2466 4585 1
2466 4929 1
2466 5304 1
2466 5793 1
2466 5989 1
2466 6299 1
2466 9665 1
2467 2 1
2467 152 1
2467 1180 1
2467 1772 1
2467 8126 1
2468 340 1
2468 842 1
2468 970 1
2468 1901 1
2468 5406 1
2468 5676 1
2468 7116 1
2468 8289 1
2468 9521 1
2469 580 1
2469 2187 1
2469 2247 1
2469 2389 1
2469 4090 1
2470 9 1
2470 69 1
2470 123 1
2470 252 1
2470 8679 1
2471 51 1
2471 82 1
2471 675 1
2471 2370 1
2471 3543 1
2471 4005 1
2471 5092 1
2471 9053 1
2472 35 1
2472 81 1
2472 620 1
2472 2426 1
2472 8089 1
2473 18 1
2473 661 1
2473 777 1
2473 1535 1
2473 4156 1
2473 4514 1
2473 4755 1
2473 7499 1
2473 7588 1
2474 41 1
2474 395 1
2474 402 1
2474 858 1
2474 6241 1
2474 6783 1
2474 7682 1
2475 197 1
2475 275 1
2475 2156 1
2475 2418 1
2475 3239 1
2475 3356 1
2475 4339 1
2475 6362 1
2475 6431 1
2475 6873 1
2475 7698 1
2475 8312 1
2475 9259 1
2476 163 1
2476 185 1
2476 451 1
2476 2441 1
2476 2703 1
2476 5771 1
2477 75 1
2477 268 1
2477 364 1
2477 760 1
2477 5145 1
2477 5279 1
2477 5827 1
2477 6430 1
2477 6985 1
2477 7346 1
2477 7999 1
2477 8130 1
2477 8295 1
2478 547 1
2478 706 1
2478 758 1
2478 1379 1
2478 4817 1
2478 5575 1
2478 8620 1
2479 57 1
2479 101 1
2479 305 1
2479 674 1
2479 2561 1
2480 66 1
2480 137 1
2480 1261 1
2480 2373 1
2480 2735 1
2481 77 1
2481 183 1
2481 1235 1
2481 1433 1
2481 2728 1
2481 3052 1
2481 5194 1
2482 1182 1
2482 1204 1
2482 1266 1
2482 1890 1
2482 2635 1
2482 3397 1
2482 7633 1
2482 9515 1
2483 19 1
2483 25 1
2483 29 1
2483 51 1
2483 2895 1
2483 3736 1
2483 3810 1
2483 4351 1
2483 4475 1
2483 5691 1
2483 6597 1
2483 6934 1
2483 7071 1
2483 7633 1
2483 7759 1
2483 8421 1
2483 9515 1
2484 93 1
2484 723 1
2484 1379 1
2484 1613 1
2484 9456 1
2485 9 1
2485 1310 1
2485 1563 1
2485 1826 1
2485 2792 1
2485 7558 1
2485 8670 1
2486 6 1
2486 9 1
2486 17 1
2486 673 1
2486 2600 1
2486 2678 1
2486 2691 1
2486 2721 1
2486 3335 1
2486 4503 1
2486 4914 1
2486 5668 1
2486 5995 1
2486 6011 1
2486 7388 1
2486 9651 1
2487 30 1
2487 141 1
2487 520 1
2487 1379 1
2487 2766 1
2487 7595 1
2487 9078 1
2488 642 1
2488 1350 1
2488 1485 1
2488 2011 1
2488 2887 1
2488 3170 1
2488 4336 1
2488 5971 1
2488 9932 1
2489 134 1
2489 145 1
2489 1044 1
2489 2279 1
2490 9 1
2490 97 1
2490 671 1
2490 2159 1
2490 5100 1
2490 5415 1
2490 5719 1
2490 6561 1
2490 7693 1
2490 7729 1
2490 8638 1
2490 9003 1
2490 9231 1
2490 9494 1
2491 52 1
2491 77 1
2491 219 1
2491 2057 1
2491 3052 1
2491 3282 1
2491 4245 1
2492 1 1
2492 16 1
2492 399 1
2492 2210 1
2492 2661 1
2492 5551 1
2492 7498 1
2493 338 1
2493 677 1
2493 1085 1
2493 2137 1
2493 3088 1
2493 3968 1
2493 4050 1
2493 4349 1
2493 4805 1
2493 4904 1
2493 5080 1
2493 7147 1
2493 9166 1
2494 1289 1
2494 1532 1
2494 1606 1
2494 2086 1
2494 2810 1
2494 8787 1
2495 17 1
2495 67 1
2495 285 1
2495 1455 1
2495 5110 1
2496 628 1
2496 907 1
2496 1197 1
2496 1705 1
2497 30 1
2497 300 1
2497 685 1
2497 1194 1
2497 2683 1
2497 3971 1
2497 4825 1
2497 5765 1
2497 8178 1
2497 9818 1
2498 701 1
2498 1487 1
2498 1557 1
2498 1866 1
2498 6787 1
2499 2 1
2499 360 1
2499 499 1
2499 747 1
2499 4524 1
2499 6227 1
2499 7082 1
2499 9792 1
2500 455 1
2500 1071 1
2500 1614 1
2500 1899 1
2500 2751 1
2500 3217 1
2500 5632 1
2500 6384 1
2500 7353 1
2500 9471 1
2501 50 1
2501 89 1
2501 610 1
2501 2163 1
2501 3299 1
2501 3593 1
2501 5488 1
2501 8064 1
2501 9147 1
2501 9314 1
2501 9576 1
2502 202 1
2502 273 1
2502 737 1
2502 1224 1
2502 3400 1
2502 3923 1
2502 4043 1
2502 5524 1
2502 6459 1
2502 6523 1
2502 7028 1
2502 8387 1
2503 4 1
2503 146 1
2503 147 1
2503 1065 1
2503 2708 1
2503 3145 1
2503 4469 1
2503 4525 1
2503 8641 1
2504 486 1
2504 819 1
2504 1370 1
2504 2026 1
2504 3349 1
2504 4295 1
2504 6608 1
2505 155 1
2505 688 1
2505 1146 1
2505 1827 1
2505 4951 1
2505 5029 1
2505 7739 1
2505 7824 1
2506 288 1
2506 306 1
2506 488 1
2506 1150 1
2506 2812 1
2506 3183 1
2506 4202 1
2506 4846 1
2506 5053 1
2506 6629 1
2506 8448 1
2506 8840 1
2506 8921 1
2506 8992 1
2506 9504 1
2507 13 1
2507 616 1
2507 1943 1
2507 2122 1
2507 4388 1
2507 6759 1
2507 7949 1
2507 8284 1
2508 10 1
2508 21 1
2508 1363 1
2508 1647 1
2508 4153 1
2509 11 1
2509 779 1
2509 912 1
2509 1879 1
2509 5952 1
2509 6060 1
2509 6128 1
2510 41 1
2510 303 1
2510 424 1
2510 1820 1
2510 2902 1
2510 3180 1
2510 3598 1
2510 3669 1
2510 7327 1
2510 8637 1
2510 9439 1
2511 5 1
2511 373 1
2511 499 1
2511 2155 1
2512 266 1
2512 788 1
2512 2219 1
2512 2251 1
2512 3254 1
2512 6136 1
2512 7059 1
2513 2 1
2513 67 1
2513 749 1
2513 1483 1
2513 3032 1
2513 3035 1
2513 5919 1
2514 8 1
2514 45 1
2514 245 1
2514 1282 1
2514 4370 1
2514 5650 1
2514 5912 1
2514 8251 1
2514 9126 1
2515 187 1
2515 679 1
2515 789 1
2515 1624 1
2515 7410 1
2516 105 1
2516 897 1
2516 1273 1
2516 1998 1
2516 9193 1
2517 422 1
2517 874 1
2517 1747 1
2517 2017 1
2517 3412 1
2517 5433 1
2518 3 1
2518 30 1
2518 223 1
2518 1367 1
2518 3037 1
2518 5092 1
2518 8206 1
2519 131 1
2519 428 1
2519 928 1
2519 1737 1
2519 2982 1
2520 184 1
2520 1243 1
2520 1539 1
2520 2401 1
2520 2646 1
2520 3387 1
2521 130 1
2521 1340 1
2521 1858 1
2521 2131 1
2521 2637 1
2521 3211 1
2521 3375 1
2521 3690 1
2521 6179 1
2521 6559 1
2521 6794 1
2521 9378 1
2521 9799 1
2521 9902 1
2522 188 1
2522 290 1
2522 580 1
2522 1996 1
2522 6149 1
2522 6602 1
2522 7952 1
2522 8034 1
2522 8861 1
2522 9258 1
2522 9403 1
2523 30 1
2523 573 1
2523 1016 1
2523 2330 1
2523 2959 1
2523 4655 1
2523 4877 1
2523 4994 1
2523 5729 1
2523 5753 1
2523 6204 1
2523 6403 1
2523 8493 1
2523 8513 1
2523 8569 1
2524 1059 1
2524 1454 1
2524 2074 1
2524 2153 1
2524 2991 1
2524 5003 1
2524 7046 1
2524 9202 1
2525 19 1
2525 1009 1
2525 1867 1
2525 1995 1
2525 4103 1
2525 4361 1
2525 4880 1
2525 5509 1
2525 8540 1
2525 9609 1
2526 140 1
2526 587 1
2526 702 1
2526 2292 1
2526 7247 1
2526 9326 1
2527 17 1
2527 404 1
2527 1361 1
2527 1762 1
2527 2551 1
2527 3220 1
2527 3695 1
2527 6034 1
2527 8595 1
2528 329 1
2528 397 1
2528 699 1
2528 1012 1
2528 5385 1
2529 2 1
2529 53 1
2529 918 1
2529 1281 1
2529 3159 1
2529 3908 1
2529 4211 1
2529 4329 1
2529 4371 1
2529 4940 1
2529 5293 1
2529 7179 1
2529 9187 1
2529 9200 1
2530 107 1
2530 249 1
2530 547 1
2530 1180 1
2530 2744 1
2530 4023 1
2530 5368 1
2530 5583 1
2530 9119 1
2531 251 1
2531 763 1
2531 1667 1
2531 2053 1
2531 2635 1
2531 4489 1
2531 5207 1
2531 5249 1
2531 5815 1
2531 7200 1
2531 7852 1
2531 9371 1
2531 9823 1
2532 25 1
2532 66 1
2532 1026 1
2532 2265 1
2532 6656 1
2532 6924 1
2532 9807 1
2533 906 1
2533 968 1
2533 1005 1
2533 2318 1
2533 3125 1
2533 3942 1
2533 5211 1
2534 73 1
2534 431 1
2534 906 1
2534 1950 1
2534 5072 1
2534 5232 1
2535 685 1
2535 1099 1
2535 1555 1
2535 1645 1
2535 3871 1
2536 152 1
2536 174 1
2536 1341 1
2536 1607 1
2536 9653 1
2537 2 1
2537 25 1
2537 92 1
2537 749 1
2537 3679 1
2537 4304 1
2537 4684 1
2537 5867 1
2537 7811 1
2538 38 1
2538 74 1
2538 1791 1
2538 2280 1
2538 2685 1
2538 2746 1
2538 2832 1
2538 4080 1
2538 4242 1
2538 4525 1
2538 5360 1
2538 5857 1
2538 6035 1
2538 6316 1
2538 6330 1
2538 6575 1
2538 7137 1
2538 7747 1
2538 7775 1
2538 9836 1
2539 597 1
2539 1098 1
2539 1264 1
2539 2140 1
2539 2564 1
2539 3863 1
2539 4265 1
2540 220 1
2540 766 1
2540 1167 1
2540 1357 1
2540 4712 1
2540 5208 1
2540 7801 1
2541 221 1
2541 494 1
2541 1885 1
2541 2228 1
2541 2617 1
2541 2725 1
2541 4025 1
2541 6510 1
2541 7925 1
2541 8846 1
2542 18 1
2542 246 1
2542 684 1
2542 965 1
2542 2802 1
2542 4130 1
2542 4243 1
2542 4725 1
2542 7977 1
2542 9568 1
2543 1164 1
2543 1361 1
2543 1943 1
2543 2024 1
2543 2551 1
2543 3034 1
2543 4414 1
2543 5053 1
2543 7475 1
2543 7645 1
2544 30 1
2544 42 1
2544 59 1
2544 217 1
2545 146 1
2545 293 1
2545 1647 1
2545 2070 1
2545 2643 1
2545 2896 1
2545 3065 1
2545 4040 1
2545 4285 1
2545 6910 1
2545 6984 1
2545 7749 1
2545 9245 1
2546 91 1
2546 534 1
2546 654 1
2546 1043 1
2546 2743 1
2546 5275 1
2546 5982 1
2546 6072 1
2546 8699 1
2546 9864 1
2547 25 1
2547 715 1
2547 1949 1
2547 2238 1
2547 3466 1
2547 3859 1
2547 8350 1
2547 9776 1
2548 18 1
2548 330 1
2548 425 1
2548 1490 1
2548 5296 1
2548 5436 1
2549 89 1
2549 323 1
2549 1744 1
2549 1745 1
2549 3154 1
2549 3537 1
2549 5596 1
2550 10 1
2550 19 1
2550 195 1
2550 2421 1
2551 1361 1
2551 1762 1
2551 2527 1
2551 2543 1
2551 4414 1
2551 6557 1
2552 68 1
2552 204 1
2552 649 1
2552 1940 1
2552 5371 1
2552 8072 1
2553 141 1
2553 549 1
2553 754 1
2553 1079 1
2553 5789 1
2553 6513 1
2554 18 1
2554 82 1
2554 817 1
2554 1418 1
2554 3806 1
2554 4581 1
2554 6289 1
2554 6497 1
2554 6579 1
2554 9804 1
2555 9 1
2555 11 1
2555 29 1
2555 822 1
2555 5131 1
2555 6244 1
2555 6409 1
2555 6435 1
2555 8034 1
2555 9477 1
2556 266 1
2556 311 1
2556 678 1
2556 1643 1
2556 3348 1
2556 6314 1
2556 7984 1
2556 9049 1
2557 34 1
2557 185 1
2557 519 1
2557 1026 1
2557 3430 1
2558 91 1
2558 272 1
2558 659 1
2558 1960 1
2558 2571 1
2558 3268 1
2558 3438 1
2558 4108 1
2558 4115 1
2558 4539 1
2558 5066 1
2558 6215 1
2558 6735 1
2558 7195 1
2559 10 1
2559 427 1
2559 524 1
2559 1083 1
2560 118 1
2560 899 1
2560 2232 1
2560 2295 1
2561 18 1
2561 305 1
2561 2037 1
2561 2479 1
2561 4718 1
2561 6820 1
2562 11 1
2562 123 1
2562 495 1
2562 1363 1
2562 4138 1
2562 5694 1
2562 7993 1
2562 8850 1
2562 9677 1
2563 2 1
2563 11 1
2563 401 1
2563 2234 1
2563 2731 1
2563 2869 1
2563 2916 1
2563 3148 1
2563 3311 1
2563 3394 1
2563 5237 1
2563 5899 1
2563 7179 1
2563 7315 1
2563 7472 1
2563 8033 1
2563 8145 1
2563 8223 1
2563 8562 1
2563 9830 1
2564 25 1
2564 90 1
2564 1135 1
2564 2539 1
2564 2805 1
2564 4265 1
2564 8100 1
2564 8201 1
2565 303 1
2565 676 1
2565 919 1
2565 1079 1
2565 4082 1
2565 6420 1
2566 67 1
2566 522 1
2566 564 1
2566 993 1
2567 51 1
2567 1249 1
2567 2291 1
2567 2348 1
2568 404 1
2568 990 1
2568 1404 1
2568 1717 1
2568 3933 1
2568 4234 1
2568 5776 1
2569 273 1
2569 765 1
2569 1769 1
2569 1881 1
2569 3426 1
2569 3530 1
2569 4544 1
2569 5112 1
2569 5158 1
2569 5167 1
2569 5572 1
2569 5766 1
2569 6978 1
2569 7332 1
2569 8590 1
2569 8710 1
2569 8778 1
2569 8814 1
2569 9191 1
2570 20 1
2570 663 1
2570 810 1
2570 1425 1
2570 3111 1
2570 9007 1
2571 2 1
2571 9 1
2571 91 1
2571 2558 1
2571 3082 1
2571 3621 1
2571 4913 1
2571 5684 1
2571 6406 1
2571 7018 1
2571 8160 1
2571 8490 1
2571 8857 1
2571 9381 1
2572 27 1
2572 186 1
2572 578 1
2572 2052 1
2572 7236 1
2572 7881 1
2573 61 1
2573 197 1
2573 600 1
2573 815 1
2573 2834 1
2573 3648 1
2573 6265 1
2573 8887 1
2574 78 1
2574 117 1
2574 299 1
2574 1443 1
2574 4419 1
2574 5251 1
2575 42 1
2575 73 1
2575 137 1
2575 849 1
2576 10 1
2576 475 1
2576 682 1
2576 1363 1
2576 2862 1
2577 4 1
2577 14 1
2577 1273 1
2577 2186 1
2577 4187 1
2577 4615 1
2577 5908 1
2577 9468 1
2577 9643 1
2577 9949 1
2578 33 1
2578 1044 1
2578 2202 1
2578 2339 1
2578 3988 1
2578 4490 1
2578 4572 1
2578 5542 1
2578 5556 1
2578 6945 1
2578 9038 1
2578 9839 1
2579 42 1
2579 569 1
2579 955 1
2579 1456 1
2579 2750 1
2579 5395 1
2580 12 1
2580 1085 1
2580 1265 1
2580 1417 1
2580 5959 1
2581 2 1
2581 385 1
2581 1811 1
2581 2171 1
2581 3371 1
2581 3498 1
2581 4552 1
2581 4984 1
2581 5831 1
2581 7276 1
2581 7656 1
2581 7805 1
2581 8460 1
2581 8557 1
2581 9131 1
2582 19 1
2582 38 1
2582 350 1
2582 1147 1
2582 4515 1
2582 6610 1
2583 53 1
2583 546 1
2583 905 1
2583 1185 1
2583 5822 1
2584 35 1
2584 36 1
2584 288 1
2584 1258 1
2584 6202 1
2585 537 1
2585 550 1
2585 958 1
2585 1641 1
2585 4485 1
2585 6719 1
2585 7414 1
2585 7488 1
2585 8221 1
2585 8899 1
2586 1 1
2586 889 1
2586 890 1
2586 1757 1
2586 6998 1
2586 7094 1
2586 9584 1
2587 323 1
2587 469 1
2587 1393 1
2587 1410 1
2588 49 1
2588 603 1
2588 2111 1
2588 2268 1
2588 4466 1
2588 4763 1
2588 7097 1
2588 7680 1
2588 8725 1
2588 9937 1
2589 2 1
2589 81 1
2589 97 1
2589 340 1
2589 2960 1
2589 4076 1
2589 4600 1
2589 6465 1
2589 7380 1
2589 7879 1
2590 89 1
2590 145 1
2590 182 1
2590 2263 1
2590 3903 1
2590 6378 1
2590 8301 1
2590 9357 1
2591 81 1
2591 137 1
2591 164 1
2591 415 1
2591 3445 1
2591 5896 1
2591 6052 1
2592 569 1
2592 603 1
2592 731 1
2592 868 1
2593 35 1
2593 210 1
2593 933 1
2593 2203 1
2593 4860 1
2593 8601 1
2593 9127 1
2594 1 1
2594 27 1
2594 1727 1
2594 1748 1
2594 8111 1
2594 8599 1
2595 5 1
2595 1012 1
2595 1220 1
2595 1280 1
2595 4456 1
2595 4820 1
2595 7153 1
2596 9 1
2596 329 1
2596 2003 1
2596 2293 1
2596 4602 1
2596 6815 1
2596 7395 1
2596 9214 1
2597 164 1
2597 598 1
2597 1947 1
2597 2374 1
2597 4499 1
2597 5387 1
2597 6767 1
2597 9408 1
2598 60 1
2598 1818 1
2598 2289 1
2598 2428 1
2598 3153 1
2599 1 1
2599 43 1
2599 882 1
2599 959 1
2599 4691 1
2599 5237 1
2599 9107 1
2599 9285 1
2600 107 1
2600 618 1
2600 1454 1
2600 2486 1
2600 3468 1
2600 3521 1
2600 4962 1
2600 4963 1
2600 5370 1
2600 7513 1
2600 8676 1
2600 9134 1
2601 9 1
2601 20 1
2601 1172 1
2601 1916 1
2601 7921 1
2601 9833 1
2602 380 1
2602 1023 1
2602 1985 1
2602 2460 1
2602 3107 1
2602 4600 1
2602 6723 1
2602 7907 1
2602 8179 1
2602 9293 1
2603 18 1
2603 49 1
2603 514 1
2603 1320 1
2603 2681 1
2603 2988 1
2603 3223 1
2603 4375 1
2603 4695 1
2603 7915 1
2603 8882 1
2604 64 1
2604 179 1
2604 340 1
2604 1873 1
2604 3331 1
2604 3693 1
2604 6829 1
2605 43 1
2605 971 1
2605 1393 1
2605 1522 1
2605 2712 1
2605 4265 1
2605 4439 1
2605 4608 1
2605 8113 1
2605 9241 1
2605 9579 1
2606 275 1
2606 280 1
2606 433 1
2606 1392 1
2606 5428 1
2606 7458 1
2606 7484 1
2606 9083 1
2607 5 1
2607 411 1
2607 642 1
2607 1413 1
2607 2879 1
2607 3882 1
2608 5 1
2608 20 1
2608 1347 1
2608 2140 1
2608 2936 1
2609 4 1
2609 100 1
2609 1738 1
2609 2124 1
2609 2953 1
2609 6309 1
2610 4 1
2610 9 1
2610 33 1
2610 49 1
2610 2652 1
2610 4193 1
2610 4406 1
2610 4414 1
2610 4612 1
2610 5219 1
2610 5407 1
2610 7748 1
2610 8133 1
2610 8308 1
2610 8331 1
2610 9706 1
2611 10 1
2611 323 1
2611 610 1
2611 661 1
2611 3251 1
2611 5120 1
2611 5526 1
2611 6982 1
2611 8254 1
2611 9766 1
2612 11 1
2612 105 1
2612 490 1
2612 2326 1
2612 6066 1
2612 6139 1
2612 6902 1
2612 8268 1
2613 18 1
2613 138 1
2613 1305 1
2613 1564 1
2613 2734 1
2613 4033 1
2613 4942 1
2613 5778 1
2613 6913 1
2613 7105 1
2613 7292 1
2613 8275 1
2613 8630 1
2613 8745 1
2613 9034 1
2613 9365 1
2614 118 1
2614 599 1
2614 882 1
2614 1310 1
2614 3415 1
2614 4973 1
2614 7725 1
2614 8490 1
2614 9106 1
2615 1440 1
2615 1844 1
2615 2030 1
2615 2267 1
2615 3081 1
2615 9215 1
2616 59 1
2616 92 1
2616 212 1
2616 300 1
2617 129 1
2617 485 1
2617 1470 1
2617 2541 1
2617 2725 1
2617 4025 1
2617 4633 1
2617 7235 1
2618 59 1
2618 102 1
2618 630 1
2618 1805 1
2618 4109 1
2618 7705 1
2618 8046 1
2618 9454 1
2619 10 1
2619 34 1
2619 537 1
2619 797 1
2619 3326 1
2619 3685 1
2619 4059 1
2619 4586 1
2619 6379 1
2619 7755 1
2619 7830 1
2619 8279 1
2619 8369 1
2620 268 1
2620 983 1
2620 1626 1
2620 1694 1
2621 1053 1
2621 1705 1
2621 1785 1
2621 1908 1
2621 4969 1
2621 5002 1
2621 5839 1
2621 6091 1
2621 6588 1
2622 221 1
2622 955 1
2622 994 1
2622 1046 1
2622 3134 1
2622 4186 1
2622 5454 1
2622 5677 1
2622 7176 1
2622 9422 1
2623 131 1
2623 448 1
2623 623 1
2623 1546 1
2623 5837 1
2623 6523 1
2624 75 1
2624 299 1
2624 1225 1
2624 1879 1
2624 5706 1
2624 6326 1
2624 8463 1
2625 74 1
2625 100 1
2625 163 1
2625 1041 1
2625 3920 1
2625 3995 1
2625 5156 1
2625 5648 1
2625 6206 1
2626 99 1
2626 587 1
2626 1369 1
2626 1588 1
2626 2805 1
2626 2951 1
2626 3476 1
2627 49 1
2627 91 1
2627 130 1
2627 676 1
2627 6377 1
2627 6446 1
2627 6823 1
2627 6913 1
2628 62 1
2628 94 1
2628 170 1
2628 279 1
2628 6001 1
2628 8304 1
2628 9461 1
2628 9640 1
2629 4 1
2629 25 1
2629 178 1
2629 810 1
2630 337 1
2630 853 1
2630 938 1
2630 2061 1
2630 3734 1
2630 4652 1
2630 4824 1
2630 5813 1
2631 73 1
2631 852 1
2631 906 1
2631 1723 1
2631 3119 1
2631 7544 1
2632 117 1
2632 521 1
2632 1257 1
2632 2005 1
2632 9271 1
2633 154 1
2633 214 1
2633 692 1
2633 2222 1
2633 3279 1
2633 5404 1
2633 7028 1
2633 9424 1
2634 146 1
2634 212 1
2634 611 1
2634 1442 1
2634 4450 1
2634 5467 1
2634 5812 1
2634 6152 1
2634 7741 1
2634 9114 1
2635 2053 1
2635 2405 1
2635 2482 1
2635 2531 1
2635 5490 1
2636 2 1
2636 30 1
2636 457 1
2636 1796 1
2636 3140 1
2636 3391 1
2636 4059 1
2636 6894 1
2636 8635 1
2637 49 1
2637 197 1
2637 1929 1
2637 2521 1
2637 2782 1
2637 3731 1
2637 4218 1
2637 4261 1
2637 4937 1
2637 5402 1
2637 6370 1
2637 6559 1
2637 6902 1
2637 7003 1
2637 7255 1
2638 345 1
2638 633 1
2638 1254 1
2638 1497 1
2638 3081 1
2638 3624 1
2638 4073 1
2638 5314 1
2638 6785 1
2639 36 1
2639 62 1
2639 284 1
2639 833 1
2639 3441 1
2639 4151 1
2639 9469 1
2639 9869 1
2640 91 1
2640 1142 1
2640 1409 1
2640 1762 1
2640 8786 1
2641 718 1
2641 978 1
2641 1451 1
2641 2278 1
2641 3475 1
2641 4798 1
2641 5332 1
2641 5808 1
2641 6971 1
2641 7502 1
2642 41 1
2642 115 1
2642 242 1
2642 322 1
2642 2940 1
2642 3479 1
2642 4928 1
2642 5082 1
2642 5907 1
2642 6630 1
2642 7553 1
2642 8381 1
2642 8568 1
2642 9929 1
2643 141 1
2643 584 1
2643 945 1
2643 2545 1
2644 5 1
2644 421 1
2644 856 1
2644 987 1
2644 2880 1
2644 3589 1
2644 3745 1
2644 4110 1
2644 5780 1
2644 7278 1
2644 9063 1
2644 9891 1
2645 649 1
2645 848 1
2645 1465 1
2645 1600 1
2645 7198 1
2645 8344 1
2645 8362 1
2645 9327 1
2645 9916 1
2646 99 1
2646 123 1
2646 1344 1
2646 2520 1
2646 2984 1
2646 3637 1
2646 7007 1
2647 154 1
2647 282 1
2647 1873 1
2647 2169 1
2647 3390 1
2647 3733 1
2647 3827 1
2647 4562 1
2647 5346 1
2647 5388 1
2647 6059 1
2647 7055 1
2647 7851 1
2648 18 1
2648 560 1
2648 1457 1
2648 1604 1
2648 8505 1
2649 10 1
2649 190 1
2649 203 1
2649 2217 1
2649 4741 1
2649 9222 1
2650 5 1
2650 9 1
2650 287 1
2650 1253 1
2650 3085 1
2651 1 1
2651 112 1
2651 202 1
2651 337 1
2651 2865 1
2651 3048 1
2651 3108 1
2651 3681 1
2651 3876 1
2651 3932 1
2651 4384 1
2651 5076 1
2651 5406 1
2651 7572 1
2651 8185 1
2651 8714 1
2652 141 1
2652 511 1
2652 1556 1
2652 2610 1
2652 4129 1
2652 7637 1
2653 18 1
2653 26 1
2653 2215 1
2653 2447 1
2653 6429 1
2654 10 1
2654 682 1
2654 1273 1
2654 1401 1
2654 3360 1
2654 4291 1
2655 51 1
2655 133 1
2655 2048 1
2655 2278 1
2655 8626 1
2656 73 1
2656 657 1
2656 1284 1
2656 2105 1
2656 3038 1
2656 3660 1
2657 18 1
2657 59 1
2657 205 1
2657 1150 1
2657 3364 1
2657 3813 1
2657 3998 1
2657 5643 1
2657 6572 1
2657 7680 1
2657 7753 1
2658 33 1
2658 348 1
2658 437 1
2658 2361 1
2658 3320 1
2658 3410 1
2658 3831 1
2658 4842 1
2658 7071 1
2658 7478 1
2658 7578 1
2658 8615 1
2658 9463 1
2659 6 1
2659 1037 1
2659 1518 1
2659 2232 1
2659 4838 1
2659 4842 1
2660 60 1
2660 443 1
2660 992 1
2660 1684 1
2660 3421 1
2660 3493 1
2660 4146 1
2660 7757 1
2660 8671 1
2660 9080 1
2660 9144 1
2661 4 1
2661 113 1
2661 2210 1
2661 2492 1
2662 74 1
2662 1331 1
2662 1937 1
2662 2330 1
2662 4006 1
2662 4093 1
2662 5166 1
2662 8425 1
2662 8529 1
2663 521 1
2663 654 1
2663 869 1
2663 2073 1
2663 8183 1
2663 8791 1
2663 9750 1
2664 41 1
2664 42 1
2664 426 1
2664 754 1
2664 3624 1
2665 11 1
2665 532 1
2665 927 1
2665 1881 1
2665 3952 1
2665 4744 1
2666 9 1
2666 25 1
2666 462 1
2666 1888 1
2666 3853 1
2666 3883 1
2666 5480 1
2666 5502 1
2666 9805 1
2666 9970 1
2667 150 1
2667 265 1
2667 320 1
2667 2274 1
2667 3225 1
2667 4657 1
2667 5999 1
2667 8231 1
2667 9939 1
2668 231 1
2668 318 1
2668 574 1
2668 1208 1
2668 9483 1
2669 11 1
2669 479 1
2669 814 1
2669 1391 1
2669 5644 1
2670 51 1
2670 161 1
2670 1163 1
2670 1762 1
2670 2933 1
2670 3393 1
2670 4143 1
2670 6960 1
2671 979 1
2671 1215 1
2671 2041 1
2671 2427 1
2671 3105 1
2671 7183 1
2671 7593 1
2672 385 1
2672 861 1
2672 1669 1
2672 1938 1
2673 3 1
2673 144 1
2673 284 1
2673 1752 1
2673 2815 1
2673 5046 1
2673 5635 1
2674 210 1
2674 246 1
2674 710 1
2674 2037 1
2674 2848 1
2674 3602 1
2674 3647 1
2674 5918 1
2674 7883 1
2674 8344 1
2674 8631 1
2675 64 1
2675 637 1
2675 1665 1
2675 2358 1
2675 4212 1
2675 5389 1
2676 179 1
2676 250 1
2676 464 1
2676 2004 1
2676 5052 1
2676 6657 1
2676 6807 1
2676 7011 1
2676 9678 1
2677 4 1
2677 56 1
2677 89 1
2677 1590 1
2677 3834 1
2677 4079 1
2677 4688 1
2677 5829 1
2677 7312 1
2677 7932 1
2677 9383 1
2677 9848 1
2678 415 1
2678 673 1
2678 2298 1
2678 2486 1
2678 4470 1
2678 4997 1
2678 6146 1
2678 9927 1
2679 453 1
2679 713 1
2679 1653 1
2679 2053 1
2679 6554 1
2679 8481 1
2680 65 1
2680 85 1
2680 332 1
2680 1364 1
2680 3636 1
2680 3762 1
2680 4296 1
2680 4802 1
2680 6835 1
2680 9640 1
2681 33 1
2681 137 1
2681 1320 1
2681 2603 1
2681 3779 1
2681 4227 1
2681 4308 1
2681 7419 1
2681 7778 1
2681 7865 1
2681 8176 1
2681 9267 1
2681 9511 1
2681 9735 1
2682 105 1
2682 162 1
2682 238 1
2682 1597 1
2682 2707 1
2682 2717 1
2682 4069 1
2682 5151 1
2682 6310 1
2682 6557 1
2682 8571 1
2682 9742 1
2683 89 1
2683 323 1
2683 1289 1
2683 2497 1
2683 3971 1
2683 9266 1
2683 9818 1
2684 108 1
2684 763 1
2684 995 1
2684 1976 1
2684 2804 1
2684 4209 1
2684 5188 1
2684 7825 1
2684 7993 1
2684 9706 1
2685 329 1
2685 1545 1
2685 1791 1
2685 2538 1
2685 2746 1
2685 3682 1
2685 5360 1
2685 5638 1
2685 6035 1
2685 6183 1
2685 6424 1
2686 62 1
2686 417 1
2686 579 1
2686 1405 1
2686 3166 1
2686 3386 1
2686 5667 1
2686 5907 1
2686 6222 1
2686 9094 1
2687 58 1
2687 138 1
2687 898 1
2687 1636 1
2687 3469 1
2687 3613 1
2687 3616 1
2687 5079 1
2687 5914 1
2687 6145 1
2688 73 1
2688 695 1
2688 1834 1
2688 2349 1
2688 6832 1
2688 8058 1
2689 22 1
2689 1539 1
2689 2058 1
2689 2266 1
2689 4730 1
2689 6507 1
2689 8033 1
2690 18 1
2690 62 1
2690 995 1
2690 2441 1
2690 3841 1
2690 4283 1
2690 4814 1
2690 6429 1
2690 6820 1
2690 7264 1
2690 7556 1
2690 8934 1
2690 9237 1
2691 9 1
2691 1629 1
2691 2193 1
2691 2486 1
2691 4503 1
2691 4914 1
2691 6904 1
2692 428 1
2692 723 1
2692 1033 1
2692 1165 1
2692 5233 1
2693 426 1
2693 772 1
2693 1796 1
2693 2342 1
2693 3174 1
2693 4681 1
2693 9102 1
2694 17 1
2694 154 1
2694 534 1
2694 1673 1
2694 4959 1
2694 9035 1
2695 89 1
2695 323 1
2695 366 1
2695 808 1
2695 3332 1
2695 3471 1
2695 5190 1
2695 7565 1
2695 7834 1
2695 7976 1
2696 74 1
2696 443 1
2696 471 1
2696 1643 1
2697 4 1
2697 489 1
2697 891 1
2697 2331 1
2697 3366 1
2697 8215 1
2697 8780 1
2698 66 1
2698 137 1
2698 1635 1
2698 2158 1
2698 3984 1
2698 6962 1
2698 7386 1
2698 8290 1
2698 9490 1
2699 2 1
2699 1507 1
2699 1951 1
2699 2414 1
2700 2 1
2700 5 1
2700 1505 1
2700 2251 1
2700 2881 1
2700 4474 1
2700 6985 1
2701 18 1
2701 629 1
2701 693 1
2701 839 1
2701 4058 1
2701 5925 1
2701 6024 1
2701 6705 1
2701 8109 1
2701 8591 1
2701 9298 1
2702 28 1
2702 52 1
2702 223 1
2702 1923 1
2702 5502 1
2703 427 1
2703 451 1
2703 1937 1
2703 2476 1
2703 5168 1
2703 5203 1
2703 5771 1
2703 6603 1
2704 186 1
2704 610 1
2704 1363 1
2704 2241 1
2704 5488 1
2704 8496 1
2705 11 1
2705 50 1
2705 283 1
2705 1117 1
2705 3569 1
2705 5841 1
2705 6289 1
2705 6790 1
2705 9022 1
2705 9091 1
2706 1 1
2706 453 1
2706 892 1
2706 2101 1
2706 3474 1
2707 162 1
2707 1225 1
2707 1597 1
2707 2682 1
2707 7092 1
2707 8545 1
2708 179 1
2708 235 1
2708 889 1
2708 2503 1
2708 8666 1
2709 30 1
2709 121 1
2709 228 1
2709 824 1
2709 3603 1
2709 8797 1
2709 8877 1
2710 1 1
2710 49 1
2710 110 1
2710 499 1
2710 8361 1
2710 9916 1
2711 299 1
2711 839 1
2711 1135 1
2711 2456 1
2711 5908 1
2712 42 1
2712 212 1
2712 429 1
2712 2605 1
2713 51 1
2713 1365 1
2713 1862 1
2713 2202 1
2713 3292 1
2713 4044 1
2713 4124 1
2713 4578 1
2713 5556 1
2713 5833 1
2713 6354 1
2714 2 1
2714 294 1
2714 1096 1
2714 1118 1
2714 2816 1
2714 4229 1
2714 4359 1
2714 5271 1
2714 8704 1
2714 9525 1
2715 147 1
2715 190 1
2715 236 1
2715 1742 1
2715 3870 1
2715 8081 1
2716 9 1
2716 752 1
2716 943 1
2716 1964 1
2716 2863 1
2716 4086 1
2716 4480 1
2716 5070 1
2716 5612 1
2716 5708 1
2716 5811 1
2716 7419 1
2716 9333 1
2716 9346 1
2716 9625 1
2717 42 1
2717 162 1
2717 753 1
2717 2682 1
2717 6310 1
2717 6832 1
2717 8571 1
2717 9076 1
2718 51 1
2718 127 1
2718 673 1
2718 854 1
2718 6191 1
2719 5 1
2719 431 1
2719 961 1
2719 1390 1
2719 3520 1
2719 5260 1
2720 28 1
2720 46 1
2720 183 1
2720 2110 1
2720 6690 1
2720 9779 1
2721 17 1
2721 1221 1
2721 1574 1
2721 2486 1
2721 2942 1
2721 3721 1
2721 5475 1
2722 209 1
2722 404 1
2722 572 1
2722 1244 1
2722 8444 1
2723 4 1
2723 72 1
2723 258 1
2723 2373 1
2723 2739 1
2723 3397 1
2723 6362 1
2723 6944 1
2723 7138 1
2723 9146 1
2724 18 1
2724 91 1
2724 249 1
2724 1813 1
2724 3193 1
2724 5722 1
2724 7719 1
2724 9279 1
2725 181 1
2725 721 1
2725 2541 1
2725 2617 1
2725 4025 1
2725 4933 1
2725 5702 1
2725 8125 1
2726 12 1
2726 690 1
2726 915 1
2726 1036 1
2726 3399 1
2726 8658 1
2726 8985 1
2726 9536 1
2727 10 1
2727 405 1
2727 1233 1
2727 1444 1
2728 77 1
2728 146 1
2728 153 1
2728 2481 1
2728 2953 1
2729 348 1
2729 428 1
2729 924 1
2729 982 1
2729 2730 1
2729 3523 1
2729 6704 1
2729 7162 1
2730 421 1
2730 1114 1
2730 1124 1
2730 2729 1
2730 3387 1
2730 3946 1
2731 2 1
2731 9 1
2731 102 1
2731 2563 1
2731 2854 1
2731 2916 1
2731 6275 1
2731 6411 1
2731 7315 1
2732 11 1
2732 585 1
2732 1260 1
2732 1418 1
2732 3261 1
2732 3447 1
2732 6341 1
2732 8960 1
2733 675 1
2733 696 1
2733 997 1
2733 1786 1
2733 2776 1
2733 7725 1
2734 617 1
2734 2224 1
2734 2315 1
2734 2613 1
2734 3097 1
2734 3677 1
2734 7331 1
2734 9090 1
2735 4 1
2735 18 1
2735 137 1
2735 2480 1
2735 4768 1
2735 7244 1
2735 7682 1
2735 7758 1
2736 9 1
2736 22 1
2736 393 1
2736 2267 1
2736 2967 1
2736 9093 1
2737 2 1
2737 45 1
2737 638 1
2737 1130 1
2737 7323 1
2738 49 1
2738 89 1
2738 1105 1
2738 2419 1
2738 9136 1
2738 9299 1
2739 286 1
2739 601 1
2739 1558 1
2739 2723 1
2739 4088 1
2739 4105 1
2739 4313 1
2739 6219 1
2739 7157 1
2739 9154 1
2739 9354 1
2740 42 1
2740 245 1
2740 523 1
2740 1253 1
2740 3280 1
2740 4559 1
2740 4845 1
2740 4858 1
2740 5181 1
2740 8186 1
2740 8477 1
2740 9583 1
2740 9626 1
2741 65 1
2741 266 1
2741 685 1
2741 1022 1
2741 7090 1
2742 4 1
2742 73 1
2742 371 1
2742 1363 1
2742 4854 1
2742 6735 1
2742 7404 1
2743 4 1
2743 386 1
2743 2338 1
2743 2546 1
2744 339 1
2744 541 1
2744 659 1
2744 2530 1
2744 5368 1
2744 6872 1
2745 10 1
2745 41 1
2745 629 1
2745 866 1
2745 3898 1
2746 49 1
2746 733 1
2746 2538 1
2746 2685 1
2746 3871 1
2746 4080 1
2746 4612 1
2746 5360 1
2746 5367 1
2746 6035 1
2746 6183 1
2746 7137 1
2746 9866 1
2747 27 1
2747 469 1
2747 914 1
2747 2045 1
2747 4378 1
2747 5719 1
2747 8248 1
2748 28 1
2748 52 1
2748 869 1
2748 870 1
2748 4360 1
2748 6337 1
2748 7378 1
2748 8171 1
2749 945 1
2749 1017 1
2749 1283 1
2749 1768 1
2749 3383 1
2749 3483 1
2749 3661 1
2749 3872 1
2749 3925 1
2749 4071 1
2749 4542 1
2749 4983 1
2749 5386 1
2749 5464 1
2749 8025 1
2750 10 1
2750 402 1
2750 1456 1
2750 2579 1
2750 3027 1
2750 3403 1
2750 7011 1
2750 9677 1
2750 9689 1
2751 1259 1
2751 1481 1
2751 1899 1
2751 2500 1
2751 2935 1
2751 4205 1
2752 332 1
2752 572 1
2752 731 1
2752 1269 1
2752 4402 1
2752 8061 1
2752 8437 1
2753 17 1
2753 348 1
2753 1894 1
2753 2015 1
2753 3467 1
2753 7772 1
2754 65 1
2754 396 1
2754 613 1
2754 788 1
2754 4065 1
2754 4359 1
2754 4394 1
2754 5926 1
2755 103 1
2755 387 1
2755 757 1
2755 1701 1
2755 3034 1
2755 4005 1
2755 4438 1
2755 6118 1
2755 7346 1
2755 8831 1
2756 60 1
2756 172 1
2756 263 1
2756 329 1
2756 8478 1
2756 8709 1
2756 9021 1
2756 9148 1
2757 38 1
2757 49 1
2757 244 1
2757 491 1
2757 4427 1
2757 4553 1
2757 6090 1
2757 6535 1
2757 9528 1
2758 9 1
2758 81 1
2758 505 1
2758 2259 1
2758 3436 1
2758 6456 1
2758 6601 1
2758 8650 1
2759 2 1
2759 50 1
2759 550 1
2759 2123 1
2760 139 1
2760 202 1
2760 338 1
2760 378 1
2760 5170 1
2761 4 1
2761 545 1
2761 1491 1
2761 1628 1
2761 4284 1
2761 4532 1
2761 5367 1
2761 7665 1
2762 5 1
2762 101 1
2762 1373 1
2762 1964 1
2762 2849 1
2762 3010 1
2762 4669 1
2762 5495 1
2762 6725 1
2763 86 1
2763 163 1
2763 360 1
2763 793 1
2763 3156 1
2763 6714 1
2764 74 1
2764 146 1
2764 1203 1
2764 2034 1
2764 2814 1
2764 2861 1
2764 4041 1
2764 4985 1
2764 5487 1
2764 6323 1
2764 6330 1
2764 7628 1
2764 7791 1
2764 7807 1
2765 9 1
2765 914 1
2765 1442 1
2765 1533 1
2765 3473 1
2765 5140 1
2765 6292 1
2765 7115 1
2766 185 1
2766 734 1
2766 750 1
2766 2487 1
2766 3652 1
2766 4843 1
2766 5656 1
2766 6856 1
2767 7 1
2767 25 1
2767 132 1
2767 770 1
2767 5625 1
2768 27 1
2768 259 1
2768 2121 1
2768 2406 1
2768 4855 1
2768 4979 1
2769 2 1
2769 65 1
2769 630 1
2769 1811 1
2769 3628 1
2769 4142 1
2769 4165 1
2769 4242 1
2769 4781 1
2769 6731 1
2769 6770 1
2769 8668 1
2770 9 1
2770 51 1
2770 121 1
2770 373 1
2770 2878 1
2770 3132 1
2770 5750 1
2770 9714 1
2771 10 1
2771 138 1
2771 170 1
2771 571 1
2771 3351 1
2771 3548 1
2771 6881 1
2771 7265 1
2771 9569 1
2772 869 1
2772 1187 1
2772 1781 1
2772 1919 1
2772 5027 1
2772 8081 1
2773 9 1
2773 162 1
2773 180 1
2773 1894 1
2773 3419 1
2773 5309 1
2774 129 1
2774 772 1
2774 1029 1
2774 1739 1
2774 6031 1
2774 6798 1
2774 7582 1
2775 2 1
2775 59 1
2775 217 1
2775 1059 1
2775 3516 1
2775 6946 1
2776 141 1
2776 675 1
2776 1290 1
2776 2733 1
2776 7115 1
2776 7220 1
2777 284 1
2777 461 1
2777 1300 1
2777 1986 1
2777 5620 1
2777 6368 1
2777 7047 1
2777 8497 1
2778 297 1
2778 439 1
2778 561 1
2778 1601 1
2778 8118 1
2779 11 1
2779 706 1
2779 1261 1
2779 1626 1
2779 3203 1
2779 3915 1
2779 5459 1
2779 6214 1
2779 6760 1
2779 8108 1
2779 8245 1
2779 8785 1
2780 13 1
2780 59 1
2780 283 1
2780 2310 1
2781 138 1
2781 541 1
2781 809 1
2781 1225 1
2781 5396 1
2781 5824 1
2781 8405 1
2782 49 1
2782 174 1
2782 1657 1
2782 2637 1
2782 3369 1
2782 5027 1
2782 8475 1
2783 1163 1
2783 2249 1
2783 2281 1
2783 2330 1
2783 3342 1
2784 1 1
2784 39 1
2784 51 1
2784 1859 1
2784 5877 1
2784 7505 1
2784 8951 1
2785 481 1
2785 979 1
2785 1300 1
2785 1668 1
2785 5397 1
2785 6981 1
2785 7365 1
2785 7367 1
2786 10 1
2786 495 1
2786 757 1
2786 1162 1
2786 5390 1
2786 5654 1
2786 8116 1
2786 9144 1
2787 11 1
2787 428 1
2787 789 1
2787 2155 1
2787 3980 1
2787 4214 1
2787 4728 1
2787 5650 1
2787 5658 1
2787 5963 1
2787 7313 1
2788 9 1
2788 133 1
2788 298 1
2788 709 1
2788 3268 1
2788 5852 1
2788 6936 1
2788 7165 1
2789 10 1
2789 913 1
2789 1662 1
2789 1826 1
2789 2869 1
2789 6075 1
2790 27 1
2790 759 1
2790 1189 1
2790 1526 1
2790 5715 1
2791 9 1
2791 1253 1
2791 1893 1
2791 2286 1
2791 3774 1
2791 4117 1
2791 4809 1
2791 6174 1
2791 6879 1
2791 6936 1
2791 8798 1
2792 11 1
2792 1826 1
2792 1939 1
2792 2485 1
2792 3861 1
2792 4424 1
2792 6917 1
2792 8863 1
2792 9162 1
2792 9241 1
2793 4 1
2793 1282 1
2793 1457 1
2793 1628 1
2793 5690 1
2793 6026 1
2793 6285 1
2794 70 1
2794 103 1
2794 147 1
2794 490 1
2794 3388 1
2794 7602 1
2795 133 1
2795 306 1
2795 565 1
2795 1934 1
2795 2937 1
2795 4624 1
2795 6700 1
2795 9336 1
2795 9386 1
2796 81 1
2796 644 1
2796 1506 1
2796 1901 1
2796 3273 1
2796 6155 1
2796 7329 1
2797 258 1
2797 473 1
2797 801 1
2797 2235 1
2797 4044 1
2797 5106 1
2797 6381 1
2798 18 1
2798 22 1
2798 514 1
2798 2193 1
2798 6583 1
2798 7238 1
2799 267 1
2799 423 1
2799 1111 1
2799 2157 1
2800 81 1
2800 587 1
2800 630 1
2800 2049 1
2800 3543 1
2800 4599 1
2800 9273 1
2801 1 1
2801 57 1
2801 341 1
2801 1917 1
2801 2908 1
2802 750 1
2802 1257 1
2802 2312 1
2802 2542 1
2802 3075 1
2802 3516 1
2802 3907 1
2802 8279 1
2802 8393 1
2803 17 1
2803 184 1
2803 1539 1
2803 2076 1
2803 3000 1
2803 4010 1
2803 4177 1
2803 4856 1
2803 6196 1
2803 7237 1
2803 7405 1
2803 7774 1
2803 9869 1
2804 2 1
2804 478 1
2804 1191 1
2804 2684 1
2804 3747 1
2804 4433 1
2805 99 1
2805 1135 1
2805 2564 1
2805 2626 1
2805 4715 1
2805 5242 1
2805 8079 1
2805 8100 1
2805 8201 1
2805 9802 1
2806 94 1
2806 559 1
2806 961 1
2806 1845 1
2806 6322 1
2807 36 1
2807 91 1
2807 546 1
2807 1990 1
2807 3468 1
2807 3662 1
2807 5353 1
2807 9108 1
2808 80 1
2808 721 1
2808 1700 1
2808 2242 1
2808 4377 1
2808 5674 1
2808 7623 1
2809 2 1
2809 91 1
2809 982 1
2809 1990 1
2809 4537 1
2809 4767 1
2809 5119 1
2809 5429 1
2809 6609 1
2809 8912 1
2810 231 1
2810 731 1
2810 892 1
2810 2494 1
2810 7012 1
2811 235 1
2811 764 1
2811 1572 1
2811 2361 1
2811 3410 1
2811 3735 1
2811 3962 1
2811 3996 1
2811 5129 1
2811 5408 1
2811 5509 1
2811 5597 1
2811 5707 1
2811 5757 1
2811 7044 1
2811 8121 1
2811 9194 1
2812 1 1
2812 14 1
2812 62 1
2812 2506 1
2812 3183 1
2812 8439 1
2813 49 1
2813 155 1
2813 544 1
2813 2351 1
2813 2874 1
2813 4416 1
2813 5024 1
2813 6453 1
2813 7827 1
2813 9722 1
2814 266 1
2814 792 1
2814 2409 1
2814 2764 1
2814 6108 1
2814 6742 1
2814 8528 1
2815 91 1
2815 165 1
2815 2283 1
2815 2673 1
2815 3717 1
2816 41 1
2816 2021 1
2816 2077 1
2816 2714 1
2816 8179 1
2816 9538 1
2817 38 1
2817 81 1
2817 106 1
2817 799 1
2817 4547 1
2817 7810 1
2818 10 1
2818 1042 1
2818 1599 1
2818 2155 1
2818 3916 1
2819 11 1
2819 402 1
2819 954 1
2819 1120 1
2820 41 1
2820 162 1
2820 868 1
2820 922 1
2820 4145 1
2820 4627 1
2820 5181 1
2820 5974 1
2820 6073 1
2821 216 1
2821 460 1
2821 1462 1
2821 2332 1
2821 4680 1
2821 5300 1
2821 5735 1
2821 7461 1
2821 7922 1
2822 161 1
2822 278 1
2822 509 1
2822 1230 1
2823 1 1
2823 546 1
2823 1854 1
2823 2138 1
2824 42 1
2824 84 1
2824 708 1
2824 1241 1
2824 4885 1
2824 6182 1
2825 1 1
2825 248 1
2825 268 1
2825 1839 1
2825 3055 1
2825 8808 1
2826 11 1
2826 485 1
2826 752 1
2826 1982 1
2826 3339 1
2826 4766 1
2826 6468 1
2826 7439 1
2826 7635 1
2827 4 1
2827 242 1
2827 915 1
2827 1089 1
2827 4166 1
2827 4677 1
2827 4840 1
2827 7162 1
2827 8625 1
2828 162 1
2828 342 1
2828 577 1
2828 1529 1
2828 8327 1
2829 11 1
2829 154 1
2829 219 1
2829 1929 1
2829 3460 1
2829 3967 1
2829 5266 1
2829 6068 1
2830 1 1
2830 4 1
2830 149 1
2830 261 1
2830 3638 1
2830 5063 1
2830 8997 1
2830 9026 1
2831 58 1
2831 105 1
2831 450 1
2831 533 1
2831 4713 1
2831 5326 1
2831 6268 1
2831 8698 1
2832 74 1
2832 113 1
2832 1331 1
2832 2538 1
2832 3409 1
2832 6113 1
2832 6126 1
2832 6623 1
2833 2 1
2833 678 1
2833 729 1
2833 2261 1
2833 5014 1
2833 6109 1
2834 58 1
2834 61 1
2834 815 1
2834 2573 1
2834 3507 1
2834 4989 1
2834 5412 1
2834 6382 1
2834 7056 1
2835 6 1
2835 87 1
2835 376 1
2835 443 1
2835 3037 1
2835 6837 1
2835 8426 1
2835 9193 1
2836 36 1
2836 197 1
2836 1209 1
2836 1691 1
2836 3728 1
2836 5498 1
2836 6129 1
2836 6626 1
2836 7770 1
2836 8202 1
2836 8651 1
2837 59 1
2837 858 1
2837 1256 1
2837 1584 1
2837 3748 1
2837 3828 1
2837 9179 1
2838 161 1
2838 184 1
2838 480 1
2838 1867 1
2839 425 1
2839 813 1
2839 1050 1
2839 1476 1
2839 3981 1
2839 5801 1
2839 5826 1
2840 68 1
2840 80 1
2840 505 1
2840 680 1
2841 108 1
2841 658 1
2841 739 1
2841 2389 1
2841 2971 1
2841 3975 1
2841 4383 1
2841 4437 1
2841 5389 1
2841 5621 1
2841 6144 1
2841 6722 1
2841 8069 1
2842 189 1
2842 444 1
2842 476 1
2842 1548 1
2842 6477 1
2843 9 1
2843 273 1
2843 498 1
2843 891 1
2843 3632 1
2843 5449 1
2843 7345 1
2844 91 1
2844 491 1
2844 1813 1
2844 2067 1
2844 3678 1
2844 4610 1
2844 5620 1
2844 7300 1
2845 25 1
2845 305 1
2845 1445 1
2845 2082 1
2845 6218 1
2846 25 1
2846 194 1
2846 724 1
2846 1981 1
2846 3043 1
2846 3341 1
2846 3396 1
2846 4841 1
2846 6246 1
2846 6870 1
2846 8160 1
2846 8226 1
2846 9892 1
2847 105 1
2847 434 1
2847 1466 1
2847 2232 1
2848 469 1
2848 665 1
2848 2388 1
2848 2674 1
2848 4075 1
2848 5375 1
2848 6347 1
2849 322 1
2849 740 1
2849 1049 1
2849 2762 1
2849 5579 1
2849 6898 1
2850 5 1
2850 97 1
2850 138 1
2850 2097 1
2850 3090 1
2850 3626 1
2850 4871 1
2850 5517 1
2850 5979 1
2850 9006 1
2850 9862 1
2850 9895 1
2851 658 1
2851 1362 1
2851 1574 1
2851 1664 1
2851 3148 1
2851 4837 1
2851 4871 1
2851 5275 1
2851 7186 1
2851 9081 1
2852 158 1
2852 1172 1
2852 1427 1
2852 2334 1
2852 4879 1
2853 148 1
2853 151 1
2853 1282 1
2853 2242 1
2853 8713 1
2853 9892 1
2854 34 1
2854 960 1
2854 1562 1
2854 2731 1
2854 3582 1
2855 386 1
2855 1571 1
2855 1721 1
2855 2141 1
2855 4364 1
2855 4718 1
2855 5818 1
2855 8874 1
2856 9 1
2856 1174 1
2856 1734 1
2856 2378 1
2856 3743 1
2856 4726 1
2857 162 1
2857 283 1
2857 737 1
2857 852 1
2857 2884 1
2857 4149 1
2857 5646 1
2857 5866 1
2857 9033 1
2858 5 1
2858 65 1
2858 192 1
2858 723 1
2858 5280 1
2858 9727 1
2859 273 1
2859 291 1
2859 496 1
2859 1145 1
2859 3539 1
2859 3618 1
2859 8032 1
2859 9563 1
2859 9997 1
2860 57 1
2860 403 1
2860 1246 1
2860 1452 1
2861 318 1
2861 629 1
2861 729 1
2861 2764 1
2861 6163 1
2861 6836 1
2862 10 1
2862 25 1
2862 1797 1
2862 2576 1
2862 4741 1
2862 9498 1
2862 9561 1
2863 50 1
2863 936 1
2863 2457 1
2863 2716 1
2863 3271 1
2863 4717 1
2863 5142 1
2863 6349 1
2864 9 1
2864 25 1
2864 1352 1
2864 1611 1
2864 3189 1
2864 4254 1
2865 39 1
2865 137 1
2865 1557 1
2865 2651 1
2865 3421 1
2865 3522 1
2865 3876 1
2865 5819 1
2865 5897 1
2865 6194 1
2866 258 1
2866 411 1
2866 479 1
2866 1884 1
2866 5621 1
2866 9801 1
2867 217 1
2867 230 1
2867 841 1
2867 1181 1
2867 3115 1
2867 4042 1
2867 5745 1
2867 5860 1
2867 9183 1
2868 9 1
2868 443 1
2868 457 1
2868 1706 1
2868 5833 1
2869 105 1
2869 1356 1
2869 2563 1
2869 2789 1
2869 2916 1
2869 7472 1
2869 7854 1
2869 8145 1
2870 2 1
2870 410 1
2870 737 1
2870 1028 1
2870 4894 1
2870 5012 1
2870 5731 1
2870 6103 1
2870 7624 1
2870 8406 1
2870 8775 1
2871 75 1
2871 81 1
2871 781 1
2871 2183 1
2871 3376 1
2872 38 1
2872 203 1
2872 2066 1
2872 2298 1
2873 1317 1
2873 1523 1
2873 2121 1
2873 2386 1
2873 4696 1
2873 5403 1
2873 6985 1
2873 9052 1
2874 11 1
2874 504 1
2874 1437 1
2874 2813 1
2874 3607 1
2874 9470 1
2874 9627 1
2875 19 1
2875 512 1
2875 802 1
2875 2124 1
2875 4431 1
2875 7041 1
2875 8307 1
2875 9212 1
2876 9 1
2876 187 1
2876 649 1
2876 2286 1
2877 685 1
2877 1745 1
2877 2005 1
2877 2160 1
2877 8436 1
2878 11 1
2878 58 1
2878 1067 1
2878 2770 1
2878 4033 1
2878 6471 1
2878 9240 1
2879 257 1
2879 411 1
2879 1809 1
2879 2607 1
2879 3354 1
2879 3533 1
2879 3882 1
2879 4530 1
2880 65 1
2880 421 1
2880 1182 1
2880 2644 1
2880 5354 1
2881 1180 1
2881 2251 1
2881 2433 1
2881 2700 1
2881 3428 1
2881 3557 1
2881 3921 1
2881 3945 1
2881 4411 1
2881 4786 1
2881 4935 1
2881 5542 1
2881 5568 1
2881 8289 1
2881 9425 1
2882 9 1
2882 216 1
2882 266 1
2882 801 1
2882 3147 1
2882 3571 1
2882 3991 1
2882 7129 1
2883 18 1
2883 235 1
2883 932 1
2883 1635 1
2883 4013 1
2883 4328 1
2883 6167 1
2883 6562 1
2883 9599 1
2884 21 1
2884 372 1
2884 400 1
2884 2857 1
2884 3277 1
2884 4943 1
2884 6211 1
2884 8123 1
2885 69 1
2885 244 1
2885 340 1
2885 1067 1
2885 6235 1
2885 6339 1
2885 7513 1
2885 9429 1
2885 9674 1
2886 33 1
2886 1009 1
2886 1739 1
2886 2321 1
2886 3058 1
2886 7602 1
2887 356 1
2887 1188 1
2887 1350 1
2887 2488 1
2887 9110 1
2888 1 1
2888 229 1
2888 747 1
2888 1981 1
2888 7600 1
2888 9846 1
2889 11 1
2889 156 1
2889 163 1
2889 205 1
2889 3799 1
2889 3957 1
2889 4482 1
2889 4545 1
2889 5164 1
2889 5372 1
2889 5727 1
2889 5822 1
2889 6437 1
2889 7912 1
2889 8492 1
2890 18 1
2890 330 1
2890 982 1
2890 2043 1
2890 2921 1
2890 4343 1
2890 5802 1
2890 7266 1
2890 7291 1
2890 8547 1
2890 8875 1
2891 897 1
2891 2385 1
2891 2430 1
2891 2436 1
2892 3 1
2892 4 1
2892 124 1
2892 2213 1
2892 4838 1
2892 4881 1
2892 6077 1
2893 116 1
2893 569 1
2893 772 1
2893 1529 1
2893 4975 1
2893 7608 1
2894 1 1
2894 233 1
2894 521 1
2894 1865 1
2894 2923 1
2894 2957 1
2894 4484 1
2894 6313 1
2894 8977 1
2894 9174 1
2894 9888 1
2895 25 1
2895 1828 1
2895 2347 1
2895 2483 1
2895 4475 1
2895 6628 1
2895 8421 1
2896 11 1
2896 303 1
2896 2284 1
2896 2545 1
2896 4702 1
2896 5468 1
2896 7749 1
2897 26 1
2897 49 1
2897 99 1
2897 866 1
2897 3369 1
2897 4396 1
2897 5708 1
2897 5884 1
2897 9881 1
2898 532 1
2898 759 1
2898 1447 1
2898 2185 1
2898 3888 1
2898 6631 1
2898 7161 1
2898 8946 1
2899 297 1
2899 402 1
2899 549 1
2899 2456 1
2899 3913 1
2899 5383 1
2900 53 1
2900 289 1
2900 642 1
2900 1949 1
2900 3051 1
2900 3790 1
2900 3981 1
2900 4103 1
2900 4259 1
2900 4574 1
2900 5089 1
2900 5202 1
2900 5258 1
2900 5458 1
2900 5801 1
2900 5930 1
2900 6629 1
2900 7626 1
2900 7646 1
2900 8073 1
2900 8505 1
2900 9829 1
2901 60 1
2901 348 1
2901 540 1
2901 1067 1
2901 4571 1
2901 5659 1
2901 5735 1
2901 7510 1
2902 748 1
2902 2004 1
2902 2141 1
2902 2510 1
2902 3007 1
2902 3669 1
2902 6625 1
2902 7050 1
2902 8370 1
2902 9983 1
2903 8 1
2903 842 1
2903 1868 1
2903 2326 1
2903 3883 1
2903 7701 1
2904 25 1
2904 187 1
2904 904 1
2904 923 1
2904 4970 1
2904 4996 1
2904 9950 1
2905 60 1
2905 198 1
2905 353 1
2905 2367 1
2905 7954 1
2905 8855 1
2906 353 1
2906 445 1
2906 1972 1
2906 2279 1
2906 4732 1
2906 6447 1
2907 25 1
2907 250 1
2907 521 1
2907 1326 1
2907 4045 1
2907 4453 1
2907 4556 1
2907 4931 1
2907 6745 1
2907 7527 1
2907 7905 1
2908 19 1
2908 57 1
2908 1571 1
2908 2801 1
2908 4491 1
2908 5562 1
2909 178 1
2909 763 1
2909 1976 1
2909 2269 1
2909 6053 1
2909 7540 1
2910 796 1
2910 955 1
2910 1205 1
2910 1757 1
2911 10 1
2911 184 1
2911 232 1
2911 563 1
2912 2 1
2912 244 1
2912 1747 1
2912 2017 1
2912 8041 1
2912 8879 1
2913 890 1
2913 932 1
2913 1625 1
2913 2154 1
2913 5797 1
2913 6768 1
2913 6826 1
2913 7414 1
2913 9707 1
2913 9782 1
2914 18 1
2914 1305 1
2914 1360 1
2914 1910 1
2914 3572 1
2914 4192 1
2914 4291 1
2914 8109 1
2915 11 1
2915 885 1
2915 982 1
2915 1597 1
2915 6146 1
2915 7079 1
2915 9377 1
2916 401 1
2916 2563 1
2916 2731 1
2916 2869 1
2916 8033 1
2917 13 1
2917 26 1
2917 1442 1
2917 1533 1
2917 6147 1
2917 8544 1
2918 42 1
2918 347 1
2918 1448 1
2918 1536 1
2918 8783 1
2919 112 1
2919 158 1
2919 1738 1
2919 1964 1
2919 4412 1
2920 191 1
2920 274 1
2920 635 1
2920 921 1
2921 18 1
2921 92 1
2921 827 1
2921 2890 1
2921 5516 1
2921 8103 1
2921 8875 1
2922 28 1
2922 110 1
2922 771 1
2922 1540 1
2922 3174 1
2922 4002 1
2922 8159 1
2922 9372 1
2922 9704 1
2923 39 1
2923 625 1
2923 922 1
2923 2894 1
2923 6602 1
2924 23 1
2924 505 1
2924 549 1
2924 2096 1
2924 7538 1
2925 554 1
2925 579 1
2925 645 1
2925 677 1
2925 3166 1
2925 3557 1
2925 4420 1
2925 7620 1
2925 9961 1
2926 41 1
2926 181 1
2926 418 1
2926 1937 1
2926 4061 1
2926 4703 1
2926 7802 1
2926 7983 1
2927 42 1
2927 753 1
2927 1042 1
2927 2457 1
2927 3916 1
2927 7178 1
2927 7821 1
2928 107 1
2928 531 1
2928 2138 1
2928 2202 1
2928 6553 1
2929 388 1
2929 403 1
2929 1525 1
2929 2180 1
2929 3264 1
2929 3434 1
2929 3460 1
2929 3759 1
2929 3860 1
2929 3872 1
2929 3979 1
2929 4619 1
2929 6426 1
2929 6891 1
2929 6975 1
2929 7181 1
2929 7553 1
2929 7800 1
2929 7889 1
2929 8324 1
2929 8683 1
2929 8845 1
2929 9235 1
2929 9821 1
2930 101 1
2930 287 1
2930 547 1
2930 2213 1
2930 3811 1
2930 4753 1
2930 4771 1
2930 6388 1
2930 7095 1
2930 8452 1
2930 9369 1
2930 9529 1
2931 486 1
2931 940 1
2931 1711 1
2931 2192 1
2931 3110 1
2931 3249 1
2931 3413 1
2931 3830 1
2931 4494 1
2931 5374 1
2931 5818 1
2931 6476 1
2931 9540 1
2932 1 1
2932 28 1
2932 146 1
2932 599 1
2932 3406 1
2932 6399 1
2932 7087 1
2933 161 1
2933 887 1
2933 2434 1
2933 2670 1
2934 4 1
2934 603 1
2934 1788 1
2934 2245 1
2934 3554 1
2935 46 1
2935 159 1
2935 895 1
2935 2751 1
2935 6045 1
2936 20 1
2936 26 1
2936 2401 1
2936 2608 1
2936 6204 1
2936 8340 1
2937 4 1
2937 372 1
2937 1029 1
2937 2795 1
2937 3487 1
2937 3783 1
2937 7432 1
2937 9183 1
2937 9336 1
2938 185 1
2938 275 1
2938 823 1
2938 972 1
2938 3776 1
2939 11 1
2939 809 1
2939 871 1
2939 2047 1
2939 4158 1
2939 9271 1
2940 41 1
2940 115 1
2940 521 1
2940 2642 1
2940 6630 1
2940 7214 1
2940 9552 1
2941 25 1
2941 1706 1
2941 1881 1
2941 2430 1
2941 4536 1
2941 4544 1
2941 6580 1
2941 7564 1
2942 51 1
2942 1381 1
2942 2378 1
2942 2721 1
2942 3464 1
2942 8892 1
2943 21 1
2943 305 1
2943 715 1
2943 2230 1
2943 3842 1
2944 19 1
2944 250 1
2944 642 1
2944 2011 1
2944 3480 1
2945 102 1
2945 707 1
2945 1283 1
2945 1842 1
2945 2984 1
2945 4431 1
2945 4512 1
2945 5146 1
2945 6543 1
2945 6929 1
2946 188 1
2946 303 1
2946 628 1
2946 1934 1
2946 4478 1
2946 7618 1
2946 7742 1
2947 33 1
2947 141 1
2947 1445 1
2947 1915 1
2947 3095 1
2947 4663 1
2947 5657 1
2947 6800 1
2947 7093 1
2947 7312 1
2947 9310 1
2948 22 1
2948 161 1
2948 814 1
2948 2235 1
2948 6986 1
2948 7660 1
2948 7677 1
2948 8504 1
2948 9559 1
2949 255 1
2949 1746 1
2949 2068 1
2949 2169 1
2949 4590 1
2949 5309 1
2949 7019 1
2949 8021 1
2950 81 1
2950 136 1
2950 889 1
2950 2202 1
2951 99 1
2951 146 1
2951 1353 1
2951 2626 1
2951 3344 1
2951 5043 1
2951 6672 1
2952 86 1
2952 377 1
2952 1287 1
2952 1999 1
2952 6571 1
2953 146 1
2953 1890 1
2953 2609 1
2953 2728 1
2953 2990 1
2953 5624 1
2954 34 1
2954 92 1
2954 277 1
2954 1884 1
2954 3537 1
2954 4211 1
2954 4369 1
2954 4854 1
2954 5233 1
2954 5290 1
2954 5536 1
2954 7205 1
2954 7761 1
2954 9969 1
2955 16 1
2955 71 1
2955 122 1
2955 339 1
2955 4307 1
2955 5922 1
2955 8107 1
2956 227 1
2956 293 1
2956 664 1
2956 694 1
2956 7872 1
2956 8805 1
2956 9109 1
2957 233 1
2957 521 1
2957 1865 1
2957 2894 1
2957 3314 1
2957 4052 1
2957 5107 1
2958 96 1
2958 297 1
2958 696 1
2958 1497 1
2958 2968 1
2958 3815 1
2958 6230 1
2958 7441 1
2958 8119 1
2958 9037 1
2959 92 1
2959 103 1
2959 463 1
2959 2523 1
2959 4877 1
2959 7719 1
2960 49 1
2960 97 1
2960 2010 1
2960 2589 1
2960 4136 1
2960 8313 1
2960 8758 1
2961 661 1
2961 1634 1
2961 2015 1
2961 2254 1
2961 5201 1
2961 6149 1
2961 7453 1
2962 153 1
2962 172 1
2962 1269 1
2962 1931 1
2962 4798 1
2962 9477 1
2963 171 1
2963 443 1
2963 653 1
2963 2257 1
2963 3497 1
2963 3792 1
2963 6393 1
2963 7712 1
2963 8920 1
2963 9574 1
2964 17 1
2964 314 1
2964 1162 1
2964 1730 1
2965 73 1
2965 358 1
2965 1707 1
2965 2450 1
2965 3310 1
2965 3470 1
2965 5413 1
2965 5578 1
2965 7067 1
2965 8047 1
2965 9749 1
2965 9952 1
2966 9 1
2966 25 1
2966 254 1
2966 1602 1
2966 3345 1
2966 4604 1
2966 5496 1
2967 90 1
2967 393 1
2967 1627 1
2967 2736 1
2967 4438 1
2967 4459 1
2967 5148 1
2967 5796 1
2967 6208 1
2967 6298 1
2967 8870 1
2967 9191 1
2968 91 1
2968 179 1
2968 1847 1
2968 2958 1
2968 7886 1
2969 33 1
2969 38 1
2969 348 1
2969 452 1
2969 2985 1
2969 3447 1
2969 3579 1
2969 3924 1
2969 5703 1
2969 6995 1
2969 7844 1
2970 73 1
2970 442 1
2970 1384 1
2970 1858 1
2970 3191 1
2970 3379 1
2970 3690 1
2970 9639 1
2971 108 1
2971 589 1
2971 1921 1
2971 2841 1
2971 3359 1
2971 8946 1
2972 9 1
2972 1532 1
2972 1593 1
2972 1653 1
2972 3066 1
2973 50 1
2973 791 1
2973 1643 1
2973 1957 1
2973 3348 1
2973 4802 1
2973 8880 1
2974 356 1
2974 562 1
2974 620 1
2974 1961 1
2974 3241 1
2974 3417 1
2974 3739 1
2974 5533 1
2974 6897 1
2975 180 1
2975 495 1
2975 698 1
2975 1508 1
2975 9369 1
2976 4 1
2976 52 1
2976 197 1
2976 817 1
2976 4436 1
2976 5075 1
2976 5350 1
2976 9086 1
2976 9282 1
2977 42 1
2977 73 1
2977 1723 1
2977 1735 1
2977 3353 1
2977 5340 1
2977 7544 1
2977 8317 1
2977 9870 1
2978 276 1
2978 402 1
2978 914 1
2978 977 1
2978 3870 1
2978 4501 1
2978 5422 1
2978 7740 1
2978 7751 1
2978 8792 1
2979 146 1
2979 221 1
2979 724 1
2979 1779 1
2979 5638 1
2979 8487 1
2979 9203 1
2979 9704 1
2980 451 1
2980 1249 1
2980 1358 1
2980 2078 1
2981 2 1
2981 32 1
2981 1537 1
2981 1689 1
2981 3685 1
2981 4707 1
2981 5606 1
2981 5817 1
2981 7083 1
2981 7976 1
2981 8216 1
2981 8833 1
2981 9186 1
2981 9469 1
2982 141 1
2982 731 1
2982 928 1
2982 2519 1
2983 164 1
2983 524 1
2983 1083 1
2983 2154 1
2983 5708 1
2983 9522 1
2984 684 1
2984 1940 1
2984 2646 1
2984 2945 1
2984 3637 1
2985 28 1
2985 33 1
2985 176 1
2985 2969 1
2985 3168 1
2985 3924 1
2985 4308 1
2985 8349 1
2985 9981 1
2986 4 1
2986 262 1
2986 1258 1
2986 1473 1
2986 4004 1
2986 8138 1
2987 459 1
2987 542 1
2987 947 1
2987 1818 1
2987 9959 1
2988 298 1
2988 1524 1
2988 1853 1
2988 2603 1
2988 3270 1
2988 3898 1
2988 4974 1
2988 8882 1
2989 7 1
2989 249 1
2989 583 1
2989 1625 1
2990 146 1
2990 562 1
2990 1617 1
2990 2953 1
2990 4723 1
2990 5084 1
2990 5109 1
2990 6679 1
2991 1 1
2991 829 1
2991 2074 1
2991 2524 1
2991 3062 1
2991 4709 1
2991 7085 1
2991 9294 1
2992 244 1
2992 352 1
2992 984 1
2992 2279 1
2993 91 1
2993 210 1
2993 921 1
2993 1842 1
2993 3836 1
2993 5578 1
2993 6053 1
2993 6414 1
2993 7411 1
2994 38 1
2994 42 1
2994 129 1
2994 202 1
2994 5161 1
2994 5403 1
2995 641 1
2995 1205 1
2995 1763 1
2995 2178 1
2996 471 1
2996 642 1
2996 676 1
2996 1257 1
2996 3592 1
2996 3822 1
2996 4281 1
2996 4508 1
2996 7066 1
2997 18 1
2997 141 1
2997 494 1
2997 1293 1
2997 6688 1
2997 9569 1
2997 9671 1
2998 36 1
2998 1515 1
2998 1664 1
2998 2450 1
2999 41 1
2999 428 1
2999 629 1
2999 1603 1
2999 5394 1
3000 345 1
3000 1646 1
3000 2038 1
3000 2803 1
3001 13 1
3001 298 1
3001 417 1
3001 763 1
3001 4166 1
3001 6272 1
3001 6494 1
3001 7336 1
3002 170 1
3002 215 1
3002 1149 1
3002 2033 1
3002 4750 1
3002 5173 1
3002 8339 1
3003 126 1
3003 1324 1
3003 1539 1
3003 1755 1
3003 7926 1
3003 8153 1
3004 4 1
3004 5 1
3004 1626 1
3004 1780 1
3004 3011 1
3004 4879 1
3004 6090 1
3005 25 1
3005 60 1
3005 795 1
3005 804 1
3005 3675 1
3005 5791 1
3005 9337 1
3006 4 1
3006 235 1
3006 1188 1
3006 1356 1
3006 3517 1
3006 5357 1
3006 9151 1
3006 9469 1
3007 2004 1
3007 2235 1
3007 2277 1
3007 2902 1
3007 5349 1
3007 6728 1
3007 7669 1
3007 8128 1
3007 8800 1
3007 9660 1
3008 4 1
3008 6 1
3008 641 1
3008 1616 1
3008 4723 1
3008 9571 1
3009 1 1
3009 9 1
3009 842 1
3009 1619 1
3009 3049 1
3009 3808 1
3009 3935 1
3009 5722 1
3009 5919 1
3009 8739 1
3009 9009 1
3010 134 1
3010 1964 1
3010 2246 1
3010 2762 1
3010 4973 1
3010 6487 1
3010 6534 1
3011 24 1
3011 139 1
3011 1573 1
3011 3004 1
3012 1194 1
3012 1283 1
3012 1645 1
3012 2360 1
3012 3423 1
3012 4236 1
3012 5887 1
3013 116 1
3013 459 1
3013 461 1
3013 1305 1
3013 3385 1
3013 3655 1
3013 3700 1
3013 3987 1
3013 5820 1
3013 6071 1
3013 6293 1
3013 8865 1
3014 2 1
3014 5 1
3014 323 1
3014 1744 1
3015 1 1
3015 215 1
3015 236 1
3015 851 1
3015 6666 1
3016 123 1
3016 161 1
3016 254 1
3016 1717 1
3016 3044 1
3016 3531 1
3016 3924 1
3016 5015 1
3016 5453 1
3016 8766 1
3016 9771 1
3017 26 1
3017 147 1
3017 677 1
3017 2137 1
3017 3243 1
3017 5212 1
3017 6119 1
3018 511 1
3018 629 1
3018 885 1
3018 1575 1
3018 3128 1
3018 3708 1
3018 6128 1
3018 8042 1
3018 9157 1
3019 25 1
3019 33 1
3019 63 1
3019 996 1
3019 3678 1
3019 5662 1
3019 8559 1
3019 9204 1
3020 302 1
3020 365 1
3020 613 1
3020 2056 1
3020 3499 1
3020 4349 1
3020 6754 1
3020 7601 1
3020 8268 1
3020 9149 1
3020 9218 1
3021 258 1
3021 627 1
3021 1011 1
3021 2341 1
3021 3274 1
3022 133 1
3022 329 1
3022 630 1
3022 631 1
3023 17 1
3023 244 1
3023 642 1
3023 688 1
3024 27 1
3024 163 1
3024 700 1
3024 1458 1
3024 3673 1
3024 4087 1
3024 7058 1
3025 9 1
3025 85 1
3025 409 1
3025 1891 1
3025 7641 1
3026 12 1
3026 254 1
3026 452 1
3026 2095 1
3026 4172 1
3026 4804 1
3026 5268 1
3026 5686 1
3026 6168 1
3026 7017 1
3027 1 1
3027 62 1
3027 696 1
3027 2750 1
3027 3263 1
3027 4545 1
3027 5901 1
3027 6817 1
3027 7030 1
3027 9689 1
3028 186 1
3028 427 1
3028 650 1
3028 1811 1
3028 3674 1
3028 4141 1
3028 6551 1
3028 8135 1
3029 123 1
3029 380 1
3029 730 1
3029 1918 1
3029 3249 1
3029 3277 1
3029 3495 1
3029 6077 1
3029 6793 1
3029 7021 1
3029 8546 1
3029 8659 1
3030 5 1
3030 57 1
3030 1717 1
3030 2332 1
3030 6017 1
3030 6228 1
3030 6351 1
3030 8804 1
3031 18 1
3031 66 1
3031 227 1
3031 716 1
3032 2 1
3032 245 1
3032 297 1
3032 2513 1
3033 9 1
3033 298 1
3033 835 1
3033 1116 1
3033 4331 1
3033 4981 1
3033 7959 1
3033 8093 1
3034 165 1
3034 823 1
3034 2543 1
3034 2755 1
3034 4875 1
3035 1483 1
3035 1770 1
3035 2036 1
3035 2513 1
3035 3544 1
3035 3601 1
3035 3858 1
3035 4084 1
3035 4756 1
3035 4934 1
3035 5350 1
3035 6729 1
3035 7428 1
3035 8263 1
3035 8688 1
3035 9276 1
3036 38 1
3036 244 1
3036 1663 1
3036 1801 1
3036 3972 1
3036 6313 1
3036 7099 1
3036 8977 1
3037 283 1
3037 1895 1
3037 2518 1
3037 2835 1
3037 3357 1
3037 5520 1
3037 8288 1
3037 8623 1
3038 99 1
3038 1284 1
3038 1628 1
3038 2656 1
3038 4166 1
3038 5361 1
3038 5864 1
3038 7070 1
3038 8515 1
3039 25 1
3039 904 1
3039 1401 1
3039 2157 1
3039 3581 1
3039 3652 1
3039 3977 1
3039 7893 1
3040 17 1
3040 357 1
3040 401 1
3040 535 1
3040 6602 1
3040 8435 1
3041 4 1
3041 340 1
3041 579 1
3041 1948 1
3041 5189 1
3041 5389 1
3041 7877 1
3041 9295 1
3042 1 1
3042 2 1
3042 203 1
3042 1998 1
3043 46 1
3043 113 1
3043 2151 1
3043 2846 1
3043 3396 1
3043 6246 1
3043 9499 1
3043 9825 1
3044 195 1
3044 294 1
3044 600 1
3044 3016 1
3044 3083 1
3044 3862 1
3044 8682 1
3044 9819 1
3045 174 1
3045 910 1
3045 1877 1
3045 2128 1
3045 4960 1
3045 5187 1
3045 9082 1
3046 712 1
3046 1394 1
3046 2056 1
3046 2234 1
3046 6036 1
3046 8285 1
3046 9062 1
3047 89 1
3047 1089 1
3047 1202 1
3047 1244 1
3047 8519 1
3048 337 1
3048 501 1
3048 502 1
3048 2651 1
3049 842 1
3049 1268 1
3049 1982 1
3049 3009 1
3049 3162 1
3049 3808 1
3049 5711 1
3049 5919 1
3049 6399 1
3049 9009 1
3050 94 1
3050 232 1
3050 253 1
3050 1410 1
3051 61 1
3051 73 1
3051 178 1
3051 2900 1
3051 4047 1
3051 4392 1
3051 4867 1
3051 6329 1
3051 6947 1
3051 7067 1
3051 7425 1
3051 7761 1
3051 7882 1
3051 7956 1
3051 8029 1
3051 9921 1
3052 77 1
3052 506 1
3052 2481 1
3052 2491 1
3052 4676 1
3052 5997 1
3052 7283 1
3052 7294 1
3052 9229 1
3053 10 1
3053 216 1
3053 255 1
3053 1601 1
3053 6502 1
3053 6780 1
3053 8067 1
3054 403 1
3054 624 1
3054 769 1
3054 1638 1
3054 4637 1
3055 107 1
3055 220 1
3055 318 1
3055 2825 1
3055 3127 1
3056 28 1
3056 33 1
3056 51 1
3056 1182 1
3056 3825 1
3056 4111 1
3056 5810 1
3057 579 1
3057 618 1
3057 628 1
3057 1333 1
3058 105 1
3058 1009 1
3058 2372 1
3058 2886 1
3058 5339 1
3058 9746 1
3059 97 1
3059 1213 1
3059 1898 1
3059 2111 1
3059 3567 1
3059 4666 1
3059 4844 1
3059 5757 1
3059 8109 1
3060 107 1
3060 180 1
3060 238 1
3060 2014 1
3060 8694 1
3060 8812 1
3061 73 1
3061 81 1
3061 644 1
3061 1114 1
3061 8483 1
3062 94 1
3062 120 1
3062 273 1
3062 2991 1
3062 3215 1
3062 3323 1
3062 3835 1
3062 6555 1
3062 7492 1
3063 2 1
3063 230 1
3063 788 1
3063 789 1
3063 4174 1
3063 7924 1
3064 3 1
3064 7 1
3064 131 1
3064 1677 1
3064 5118 1
3065 293 1
3065 601 1
3065 615 1
3065 2545 1
3065 3159 1
3065 3485 1
3065 6833 1
3065 7837 1
3065 8728 1
3065 9636 1
3066 482 1
3066 1737 1
3066 2235 1
3066 2972 1
3066 4914 1
3066 6099 1
3066 7222 1
3066 9311 1
3067 2 1
3067 361 1
3067 585 1
3067 657 1
3067 3261 1
3067 3859 1
3067 4356 1
3067 4954 1
3067 5125 1
3067 6485 1
3067 6781 1
3067 6950 1
3067 7375 1
3067 8240 1
3067 8851 1
3067 9067 1
3067 9862 1
3068 11 1
3068 50 1
3068 867 1
3068 1291 1
3068 3205 1
3068 3606 1
3068 9147 1
3069 356 1
3069 562 1
3069 787 1
3069 866 1
3069 7415 1
3070 2 1
3070 57 1
3070 1524 1
3070 1594 1
3070 4202 1
3070 4585 1
3070 4653 1
3070 5192 1
3070 6465 1
3070 6885 1
3071 45 1
3071 1230 1
3071 1607 1
3071 2068 1
3071 3494 1
3071 3663 1
3072 9 1
3072 17 1
3072 754 1
3072 2348 1
3072 6456 1
3072 7061 1
3073 3 1
3073 459 1
3073 481 1
3073 1767 1
3073 4697 1
3073 5773 1
3073 6193 1
3073 6679 1
3074 11 1
3074 33 1
3074 245 1
3074 2063 1
3074 4803 1
3074 4832 1
3074 6600 1
3075 25 1
3075 209 1
3075 844 1
3075 2802 1
3075 3394 1
3075 3426 1
3075 4446 1
3075 5193 1
3075 5455 1
3075 8100 1
3076 43 1
3076 241 1
3076 676 1
3076 1915 1
3076 3157 1
3076 3374 1
3076 3823 1
3076 5487 1
3076 7816 1
3076 9414 1
3076 9818 1
3077 175 1
3077 211 1
3077 238 1
3077 420 1
3077 3312 1
3077 5229 1
3077 9079 1
3078 225 1
3078 675 1
3078 721 1
3078 1657 1
3078 3481 1
3078 3852 1
3078 4271 1
3078 4724 1
3078 5278 1
3078 6056 1
3078 6093 1
3078 7579 1
3078 8240 1
3079 2 1
3079 45 1
3079 49 1
3079 1205 1
3079 3627 1
3079 7379 1
3079 9435 1
3080 27 1
3080 308 1
3080 446 1
3080 1802 1
3081 1041 1
3081 2026 1
3081 2615 1
3081 2638 1
3081 3429 1
3082 91 1
3082 601 1
3082 1453 1
3082 2571 1
3082 4824 1
3082 5684 1
3082 6782 1
3082 7069 1
3082 7347 1
3082 8959 1
3082 9402 1
3082 9638 1
3083 2 1
3083 1205 1
3083 1465 1
3083 3044 1
3083 3433 1
3083 3555 1
3083 4964 1
3083 8464 1
3083 8797 1
3084 77 1
3084 407 1
3084 575 1
3084 1637 1
3084 3203 1
3084 7071 1
3085 9 1
3085 39 1
3085 594 1
3085 2650 1
3085 3164 1
3085 3211 1
3085 3873 1
3085 7441 1
3086 25 1
3086 103 1
3086 725 1
3086 1456 1
3086 6541 1
3087 17 1
3087 187 1
3087 413 1
3087 1581 1
3087 6655 1
3088 297 1
3088 1589 1
3088 2233 1
3088 2493 1
3088 3968 1
3088 4805 1
3088 6000 1
3088 9166 1
3089 356 1
3089 853 1
3089 955 1
3089 1642 1
3090 411 1
3090 923 1
3090 1525 1
3090 2850 1
3090 3951 1
3090 4207 1
3090 4871 1
3090 4883 1
3090 5206 1
3090 6501 1
3090 9862 1
3091 587 1
3091 661 1
3091 1369 1
3091 1378 1
3091 3315 1
3091 5700 1
3091 5857 1
3091 7060 1
3091 7898 1
3091 9480 1
3092 45 1
3092 119 1
3092 526 1
3092 2197 1
3092 3562 1
3092 5497 1
3092 7950 1
3092 7992 1
3092 8320 1
3093 25 1
3093 348 1
3093 377 1
3093 1161 1
3093 6051 1
3093 7585 1
3093 8917 1
3094 49 1
3094 50 1
3094 279 1
3094 1102 1
3095 141 1
3095 1467 1
3095 1737 1
3095 2947 1
3095 3454 1
3095 3699 1
3096 75 1
3096 108 1
3096 266 1
3096 1313 1
3096 7059 1
3097 222 1
3097 2298 1
3097 2315 1
3097 2734 1
3097 3677 1
3097 4196 1
3097 4870 1
3097 5946 1
3097 7319 1
3097 9075 1
3097 9090 1
3097 9347 1
3097 9666 1
3097 9900 1
3098 73 1
3098 283 1
3098 532 1
3098 2014 1
3098 3874 1
3098 4537 1
3098 5467 1
3098 7082 1
3098 8901 1
3099 18 1
3099 49 1
3099 1261 1
3099 1924 1
3099 4570 1
3099 4940 1
3099 5534 1
3099 8913 1
3099 9617 1
3100 388 1
3100 885 1
3100 953 1
3100 2370 1
3100 3477 1
3101 429 1
3101 715 1
3101 865 1
3101 2230 1
3101 5075 1
3101 5626 1
3101 5770 1
3101 6465 1
3101 7149 1
3101 8738 1
3101 8964 1
3101 9081 1
3102 150 1
3102 607 1
3102 2116 1
3102 2274 1
3103 210 1
3103 372 1
3103 571 1
3103 1805 1
3103 3721 1
3103 9119 1
3103 9368 1
3104 652 1
3104 947 1
3104 1274 1
3104 1745 1
3104 3250 1
3104 3799 1
3104 5184 1
3104 5687 1
3104 7718 1
3105 587 1
3105 939 1
3105 2072 1
3105 2671 1
3105 3216 1
3105 4706 1
3106 667 1
3106 1104 1
3106 1741 1
3106 2290 1
3106 6130 1
3106 7316 1
3106 8328 1
3106 8687 1
3107 615 1
3107 1364 1
3107 2460 1
3107 2602 1
3107 4246 1
3107 5069 1
3107 5430 1
3107 5736 1
3107 7297 1
3107 7568 1
3107 7944 1
3107 8993 1
3108 323 1
3108 899 1
3108 2329 1
3108 2651 1
3108 4229 1
3108 4465 1
3108 5909 1
3108 6393 1
3108 8714 1
3109 282 1
3109 322 1
3109 1362 1
3109 1982 1
3109 3950 1
3109 5289 1
3109 8637 1
3109 8665 1
3110 259 1
3110 940 1
3110 1221 1
3110 2931 1
3110 5749 1
3110 7384 1
3110 7812 1
3110 8913 1
3110 9113 1
3111 582 1
3111 767 1
3111 1083 1
3111 2570 1
3111 6519 1
3112 93 1
3112 116 1
3112 1472 1
3112 1613 1
3113 9 1
3113 232 1
3113 498 1
3113 1611 1
3113 5302 1
3113 9358 1
3113 9437 1
3114 80 1
3114 91 1
3114 633 1
3114 857 1
3114 7105 1
3114 9859 1
3115 195 1
3115 217 1
3115 2313 1
3115 2867 1
3115 4607 1
3115 6138 1
3115 8808 1
3116 9 1
3116 338 1
3116 884 1
3116 1685 1
3116 3230 1
3116 5529 1
3116 6470 1
3116 6517 1
3116 7638 1
3116 8661 1
3117 20 1
3117 34 1
3117 241 1
3117 560 1
3117 3209 1
3117 3276 1
3117 3620 1
3117 4369 1
3117 5006 1
3117 5853 1
3118 249 1
3118 349 1
3118 810 1
3118 1137 1
3119 93 1
3119 1386 1
3119 1951 1
3119 2631 1
3120 17 1
3120 243 1
3120 348 1
3120 1287 1
3120 4355 1
3121 327 1
3121 915 1
3121 1566 1
3121 2334 1
3121 3519 1
3121 3727 1
3121 4006 1
3121 5117 1
3121 5324 1
3121 5651 1
3121 7182 1
3122 254 1
3122 345 1
3122 1385 1
3122 2385 1
3122 4693 1
3122 4934 1
3122 5281 1
3123 92 1
3123 311 1
3123 1177 1
3123 1647 1
3123 3288 1
3123 3432 1
3123 4382 1
3123 4473 1
3123 6110 1
3123 6546 1
3123 6888 1
3123 8296 1
3123 8896 1
3123 9931 1
3124 124 1
3124 708 1
3124 850 1
3124 1572 1
3124 5787 1
3124 7457 1
3124 7610 1
3124 9373 1
3125 121 1
3125 902 1
3125 1499 1
3125 2533 1
3125 4706 1
3126 9 1
3126 41 1
3126 1270 1
3126 1828 1
3126 4509 1
3126 4614 1
3126 8329 1
3127 107 1
3127 738 1
3127 2181 1
3127 3055 1
3127 8726 1
3128 148 1
3128 885 1
3128 989 1
3128 3018 1
3128 6573 1
3129 129 1
3129 207 1
3129 916 1
3129 1010 1
3129 6582 1
3129 8004 1
3130 89 1
3130 913 1
3130 1284 1
3130 2146 1
3130 3503 1
3130 5373 1
3130 6148 1
3130 6915 1
3130 6925 1
3130 8864 1
3130 9318 1
3130 9520 1
3131 41 1
3131 489 1
3131 1729 1
3131 1737 1
3131 3904 1
3131 5456 1
3131 7870 1
3132 27 1
3132 28 1
3132 1042 1
3132 2770 1
3132 5971 1
3132 7485 1
3132 7580 1
3133 123 1
3133 474 1
3133 1041 1
3133 1864 1
3134 479 1
3134 1267 1
3134 1278 1
3134 2622 1
3134 3806 1
3134 4898 1
3135 25 1
3135 183 1
3135 414 1
3135 1702 1
3135 7938 1
3136 530 1
3136 854 1
3136 954 1
3136 2035 1
3136 7645 1
3136 9448 1
3137 123 1
3137 1620 1
3137 1767 1
3137 1986 1
3137 3782 1
3137 6089 1
3138 345 1
3138 542 1
3138 746 1
3138 979 1
3138 6747 1
3138 7125 1
3138 7283 1
3139 45 1
3139 229 1
3139 1618 1
3139 2106 1
3139 7787 1
3139 7825 1
3140 2 1
3140 244 1
3140 1088 1
3140 2636 1
3140 4680 1
3140 5726 1
3140 6634 1
3140 8818 1
3141 10 1
3141 131 1
3141 388 1
3141 933 1
3142 2 1
3142 60 1
3142 978 1
3142 1861 1
3142 3857 1
3142 4938 1
3142 5715 1
3143 5 1
3143 9 1
3143 1319 1
3143 1529 1
3144 6 1
3144 25 1
3144 130 1
3144 759 1
3145 55 1
3145 484 1
3145 864 1
3145 2503 1
3145 4469 1
3145 4931 1
3145 6291 1
3145 9067 1
3146 146 1
3146 444 1
3146 1966 1
3146 2035 1
3146 7644 1
3146 8830 1
3147 25 1
3147 515 1
3147 801 1
3147 2882 1
3147 3417 1
3147 5419 1
3147 5587 1
3147 5599 1
3147 7129 1
3147 8767 1
3147 8892 1
3147 9078 1
3148 51 1
3148 1574 1
3148 2563 1
3148 2851 1
3148 4861 1
3148 6660 1
3149 89 1
3149 108 1
3149 365 1
3149 2297 1
3149 6421 1
3150 17 1
3150 138 1
3150 180 1
3150 2246 1
3150 4430 1
3150 5460 1
3150 7145 1
3151 11 1
3151 1506 1
3151 1652 1
3151 2001 1
3151 4032 1
3151 4189 1
3151 8035 1
3152 28 1
3152 179 1
3152 433 1
3152 818 1
3153 19 1
3153 25 1
3153 2421 1
3153 2598 1
3153 3361 1
3153 3429 1
3153 4661 1
3153 7389 1
3153 8556 1
3153 9351 1
3153 9773 1
3154 44 1
3154 1745 1
3154 2100 1
3154 2549 1
3155 1 1
3155 703 1
3155 1225 1
3155 2282 1
3155 4460 1
3155 9105 1
3156 10 1
3156 793 1
3156 926 1
3156 2763 1
3156 3954 1
3156 5099 1
3157 1 1
3157 607 1
3157 836 1
3157 3076 1
3158 68 1
3158 89 1
3158 385 1
3158 1182 1
3159 1281 1
3159 1926 1
3159 2529 1
3159 3065 1
3159 4211 1
3160 38 1
3160 141 1
3160 1476 1
3160 2189 1
3160 3865 1
3160 9014 1
3161 777 1
3161 853 1
3161 865 1
3161 2368 1
3161 3796 1
3161 5609 1
3161 7971 1
3161 8148 1
3161 9843 1
3162 733 1
3162 842 1
3162 1268 1
3162 3049 1
3162 3808 1
3162 5711 1
3162 6020 1
3162 8425 1
3163 194 1
3163 2082 1
3163 2193 1
3163 2460 1
3163 3393 1
3163 5548 1
3163 5748 1
3163 8025 1
3163 8341 1
3163 8727 1
3164 21 1
3164 1329 1
3164 2151 1
3164 3085 1
3164 3873 1
3164 4458 1
3164 5962 1
3164 6044 1
3164 6205 1
3164 6615 1
3164 6654 1
3164 8150 1
3165 11 1
3165 590 1
3165 780 1
3165 1803 1
3165 3329 1
3165 8566 1
3166 17 1
3166 579 1
3166 2686 1
3166 2925 1
3166 3171 1
3166 6599 1
3166 7413 1
3167 281 1
3167 546 1
3167 632 1
3167 1275 1
3167 3650 1
3167 4052 1
3167 8571 1
3168 11 1
3168 394 1
3168 739 1
3168 2985 1
3168 5920 1
3168 6627 1
3168 8823 1
3168 8899 1
3169 87 1
3169 105 1
3169 238 1
3169 2031 1
3169 3377 1
3169 3639 1
3169 5478 1
3170 1122 1
3170 1130 1
3170 1483 1
3170 2488 1
3170 3947 1
3170 6052 1
3170 9446 1
3171 5 1
3171 245 1
3171 699 1
3171 3166 1
3172 1 1
3172 4 1
3172 18 1
3172 2149 1
3172 3398 1
3172 4453 1
3172 6579 1
3172 9042 1
3172 9268 1
3172 9350 1
3173 107 1
3173 676 1
3173 2049 1
3173 2363 1
3173 3879 1
3173 4232 1
3173 5558 1
3173 7572 1
3173 8394 1
3174 251 1
3174 1681 1
3174 2693 1
3174 2922 1
3174 4672 1
3174 5312 1
3174 9324 1
3175 9 1
3175 768 1
3175 1761 1
3175 2246 1
3175 4925 1
3175 6576 1
3176 881 1
3176 1083 1
3176 1124 1
3176 1279 1
3176 5957 1
3177 21 1
3177 60 1
3177 317 1
3177 1104 1
3177 5646 1
3177 9185 1
3178 2 1
3178 90 1
3178 171 1
3178 1883 1
3178 3890 1
3178 6638 1
3179 100 1
3179 170 1
3179 868 1
3179 1690 1
3179 3891 1
3179 5507 1
3179 7793 1
3180 270 1
3180 980 1
3180 1820 1
3180 2510 1
3180 4992 1
3180 9366 1
3180 9485 1
3181 20 1
3181 765 1
3181 930 1
3181 1160 1
3181 6366 1
3181 6968 1
3181 9472 1
3182 353 1
3182 1047 1
3182 1774 1
3182 2373 1
3182 7867 1
3182 8855 1
3183 62 1
3183 825 1
3183 2506 1
3183 2812 1
3183 4056 1
3183 4846 1
3183 5754 1
3183 6625 1
3183 8439 1
3184 9 1
3184 51 1
3184 1734 1
3184 2194 1
3184 4117 1
3184 4557 1
3184 4820 1
3184 9951 1
3185 427 1
3185 499 1
3185 1064 1
3185 2027 1
3185 3843 1
3185 4491 1
3185 4616 1
3185 5617 1
3185 8932 1
3186 21 1
3186 33 1
3186 1570 1
3186 1644 1
3187 49 1
3187 103 1
3187 301 1
3187 788 1
3187 5729 1
3188 468 1
3188 642 1
3188 730 1
3188 2011 1
3188 4386 1
3188 5400 1
3188 5975 1
3188 9022 1
3189 25 1
3189 599 1
3189 1713 1
3189 2864 1
3189 7672 1
3190 11 1
3190 153 1
3190 1572 1
3190 2459 1
3190 3586 1
3190 3713 1
3190 6481 1
3190 7403 1
3191 442 1
3191 839 1
3191 1204 1
3191 2970 1
3191 8655 1
3192 18 1
3192 483 1
3192 697 1
3192 2323 1
3192 3767 1
3192 7041 1
3193 1620 1
3193 1684 1
3193 2354 1
3193 2724 1
3193 3211 1
3193 3422 1
3193 3818 1
3193 5698 1
3193 5722 1
3193 5935 1
3193 9498 1
3193 9943 1
3194 505 1
3194 781 1
3194 2156 1
3194 2459 1
3194 6407 1
3194 9089 1
3195 149 1
3195 413 1
3195 1085 1
3195 1987 1
3195 3949 1
3195 4155 1
3195 5078 1
3195 5100 1
3195 5469 1
3195 7171 1
3195 7713 1
3195 7897 1
3196 349 1
3196 747 1
3196 801 1
3196 1038 1
3196 3250 1
3196 3368 1
3196 3589 1
3196 3888 1
3196 4044 1
3196 4918 1
3196 6737 1
3196 7302 1
3196 9184 1
3197 4 1
3197 975 1
3197 1065 1
3197 1319 1
3197 3736 1
3197 5013 1
3197 7025 1
3197 7104 1
3198 60 1
3198 684 1
3198 1263 1
3198 1551 1
3198 3723 1
3198 7337 1
3199 198 1
3199 585 1
3199 1695 1
3199 1834 1
3199 5537 1
3199 6053 1
3200 9 1
3200 147 1
3200 873 1
3200 1219 1
3200 3691 1
3200 4488 1
3200 7491 1
3200 8022 1
3200 8179 1
3201 215 1
3201 706 1
3201 1101 1
3201 1218 1
3201 6786 1
3201 8667 1
3201 8932 1
3202 194 1
3202 1067 1
3202 1279 1
3202 2082 1
3202 4892 1
3202 5506 1
3203 1571 1
3203 1637 1
3203 2779 1
3203 3084 1
3203 3911 1
3203 7347 1
3204 14 1
3204 483 1
3204 1131 1
3204 1404 1
3204 3767 1
3205 50 1
3205 138 1
3205 246 1
3205 3068 1
3205 4603 1
3205 8105 1
3205 8197 1
3205 8312 1
3206 397 1
3206 1260 1
3206 1361 1
3206 1995 1
3207 4 1
3207 235 1
3207 1347 1
3207 1692 1
3207 3885 1
3207 4909 1
3207 5060 1
3207 9644 1
3208 162 1
3208 213 1
3208 699 1
3208 1643 1
3208 3625 1
3208 3905 1
3208 4622 1
3208 5883 1
3208 8336 1
3208 9143 1
3209 241 1
3209 2106 1
3209 2418 1
3209 3117 1
3209 5853 1
3209 6991 1
3210 9 1
3210 46 1
3210 226 1
3210 2261 1
3210 3252 1
3210 3929 1
3210 4341 1
3210 4403 1
3210 4796 1
3210 5398 1
3210 5455 1
3210 5553 1
3210 6391 1
3210 6414 1
3210 6613 1
3210 9358 1
3210 9992 1
3211 577 1
3211 2521 1
3211 3085 1
3211 3193 1
3211 5505 1
3212 1 1
3212 4 1
3212 1021 1
3212 1071 1
3212 5388 1
3212 8261 1
3212 9990 1
3213 9 1
3213 115 1
3213 1035 1
3213 1258 1
3213 6114 1
3213 6777 1
3213 9313 1
3214 41 1
3214 434 1
3214 1292 1
3214 2327 1
3214 5602 1
3215 25 1
3215 915 1
3215 2390 1
3215 3062 1
3215 4492 1
3216 587 1
3216 939 1
3216 2072 1
3216 3105 1
3217 315 1
3217 496 1
3217 772 1
3217 2500 1
3217 3237 1
3217 3965 1
3217 8843 1
3218 212 1
3218 627 1
3218 682 1
3218 1515 1
3218 5549 1
3218 6062 1
3218 7048 1
3218 7454 1
3219 18 1
3219 31 1
3219 1107 1
3219 1441 1
3219 6221 1
3219 6549 1
3220 1 1
3220 17 1
3220 1531 1
3220 2527 1
3220 5322 1
3220 6303 1
3220 8586 1
3220 9122 1
3221 185 1
3221 620 1
3221 795 1
3221 1692 1
3221 7001 1
3222 18 1
3222 91 1
3222 689 1
3222 1513 1
3222 9758 1
3223 1 1
3223 514 1
3223 628 1
3223 2603 1
3223 5218 1
3223 7367 1
3224 2 1
3224 9 1
3224 1939 1
3224 2172 1
3225 188 1
3225 1015 1
3225 1469 1
3225 2667 1
3225 9939 1
3226 5 1
3226 620 1
3226 797 1
3226 2019 1
3226 3581 1
3226 4528 1
3226 4689 1
3226 7142 1
3226 7825 1
3227 9 1
3227 47 1
3227 54 1
3227 986 1
3227 7635 1
3228 129 1
3228 1916 1
3228 2014 1
3228 2019 1
3228 3361 1
3228 3521 1
3228 8627 1
3229 41 1
3229 1125 1
3229 1612 1
3229 1957 1
3229 4650 1
3229 4913 1
3229 5224 1
3230 92 1
3230 294 1
3230 1572 1
3230 3116 1
3230 3586 1
3231 30 1
3231 46 1
3231 260 1
3231 2346 1
3232 10 1
3232 73 1
3232 226 1
3232 571 1
3232 8901 1
3233 17 1
3233 459 1
3233 514 1
3233 1028 1
3233 5465 1
3234 99 1
3234 307 1
3234 364 1
3234 986 1
3234 4055 1
3235 78 1
3235 81 1
3235 259 1
3235 1225 1
3235 3611 1
3235 4821 1
3235 4876 1
3235 5347 1
3235 6151 1
3235 6217 1
3235 8367 1
3235 9318 1
3235 9853 1
3236 154 1
3236 660 1
3236 1605 1
3236 1895 1
3236 5160 1
3236 5847 1
3236 6423 1
3236 8743 1
3237 45 1
3237 547 1
3237 772 1
3237 3217 1
3237 3965 1
3237 5851 1
3237 7639 1
3237 8070 1
3237 8437 1
3238 1 1
3238 89 1
3238 291 1
3238 1531 1
3239 5 1
3239 197 1
3239 684 1
3239 2475 1
3239 5804 1
3239 6288 1
3239 7143 1
3240 489 1
3240 1094 1
3240 1770 1
3240 2325 1
3241 298 1
3241 1586 1
3241 1961 1
3241 2974 1
3241 3417 1
3241 3739 1
3241 3908 1
3241 4313 1
3241 4806 1
3241 5610 1
3241 5896 1
3241 6172 1
3241 6459 1
3241 6775 1
3241 7710 1
3241 7711 1
3241 7733 1
3241 8037 1
3241 8922 1
3241 9592 1
3242 18 1
3242 1667 1
3242 2053 1
3242 2291 1
3243 329 1
3243 677 1
3243 727 1
3243 3017 1
3243 5008 1
3243 5212 1
3243 6281 1
3243 9152 1
3243 9373 1
3244 89 1
3244 770 1
3244 1050 1
3244 1516 1
3244 4923 1
3244 7427 1
3244 7441 1
3244 8422 1
3244 8721 1
3245 105 1
3245 202 1
3245 921 1
3245 1040 1
3245 4066 1
3245 5540 1
3245 6125 1
3246 209 1
3246 394 1
3246 1247 1
3246 1484 1
3246 8823 1
3247 171 1
3247 433 1
3247 1439 1
3247 2205 1
3247 3911 1
3248 76 1
3248 251 1
3248 1883 1
3248 2242 1
3248 4926 1
3249 314 1
3249 864 1
3249 2931 1
3249 3029 1
3249 3506 1
3249 3830 1
3249 4494 1
3249 6842 1
3249 8803 1
3250 4 1
3250 1745 1
3250 3104 1
3250 3196 1
3250 3888 1
3250 8236 1
3251 1202 1
3251 1574 1
3251 1956 1
3251 2611 1
3251 3554 1
3251 4196 1
3251 4771 1
3251 6804 1
3252 4 1
3252 9 1
3252 144 1
3252 3210 1
3252 9358 1
3253 51 1
3253 97 1
3253 699 1
3253 2338 1
3253 3443 1
3253 4001 1
3253 4009 1
3253 7615 1
3253 9971 1
3254 266 1
3254 718 1
3254 1356 1
3254 2512 1
3254 8314 1
3254 9200 1
3254 9882 1
3255 175 1
3255 499 1
3255 1362 1
3255 1786 1
3255 7128 1
3256 270 1
3256 600 1
3256 1820 1
3256 2460 1
3256 4757 1
3256 5199 1
3257 50 1
3257 436 1
3257 795 1
3257 1241 1
3257 3536 1
3257 6290 1
3257 7858 1
3258 75 1
3258 367 1
3258 607 1
3258 2137 1
3259 12 1
3259 75 1
3259 403 1
3259 1699 1
3259 3552 1
3259 5348 1
3259 5830 1
3259 6999 1
3259 7445 1
3260 39 1
3260 234 1
3260 794 1
3260 1505 1
3260 8811 1
3260 9491 1
3261 514 1
3261 585 1
3261 2732 1
3261 3067 1
3261 4401 1
3261 6781 1
3261 6950 1
3262 11 1
3262 163 1
3262 522 1
3262 564 1
3262 6587 1
3263 78 1
3263 147 1
3263 1535 1
3263 3027 1
3263 3809 1
3263 9991 1
3264 222 1
3264 363 1
3264 388 1
3264 2929 1
3264 3842 1
3265 763 1
3265 827 1
3265 1174 1
3265 1713 1
3265 3501 1
3265 4001 1
3265 5423 1
3265 6212 1
3265 8377 1
3265 9068 1
3265 9082 1
3266 299 1
3266 418 1
3266 885 1
3266 1105 1
3266 4365 1
3266 4455 1
3266 5319 1
3266 5688 1
3266 6393 1
3267 43 1
3267 627 1
3267 1229 1
3267 1799 1
3267 5235 1
3267 6390 1
3267 7876 1
3267 8447 1
3268 81 1
3268 553 1
3268 2558 1
3268 2788 1
3269 90 1
3269 339 1
3269 1627 1
3269 2194 1
3270 54 1
3270 218 1
3270 1524 1
3270 2988 1
3270 8494 1
3271 2 1
3271 989 1
3271 1225 1
3271 2863 1
3272 12 1
3272 738 1
3272 752 1
3272 1197 1
3272 3684 1
3273 17 1
3273 644 1
3273 1179 1
3273 2796 1
3273 3320 1
3273 3347 1
3273 6307 1
3273 6360 1
3273 7329 1
3273 8594 1
3274 89 1
3274 108 1
3274 154 1
3274 3021 1
3275 2 1
3275 208 1
3275 234 1
3275 1811 1
3275 3926 1
3275 5305 1
3275 6692 1
3275 7612 1
3275 9486 1
3276 20 1
3276 238 1
3276 266 1
3276 3117 1
3276 7173 1
3276 9854 1
3277 139 1
3277 1321 1
3277 2884 1
3277 3029 1
3277 4692 1
3277 4958 1
3277 5059 1
3277 7197 1
3277 7988 1
3277 8802 1
3277 9000 1
3278 23 1
3278 757 1
3278 892 1
3278 1713 1
3278 4154 1
3278 7672 1
3279 154 1
3279 1953 1
3279 2189 1
3279 2633 1
3279 3715 1
3279 3721 1
3279 4083 1
3279 5669 1
3280 178 1
3280 981 1
3280 1389 1
3280 2740 1
3280 8477 1
3281 38 1
3281 206 1
3281 1211 1
3281 1397 1
3281 5728 1
3282 377 1
3282 1258 1
3282 2057 1
3282 2491 1
3282 3508 1
3282 3633 1
3282 4389 1
3282 4419 1
3282 9785 1
3283 1 1
3283 89 1
3283 1002 1
3283 1166 1
3283 3309 1
3283 4346 1
3283 5775 1
3284 59 1
3284 62 1
3284 361 1
3284 1545 1
3285 60 1
3285 162 1
3285 1249 1
3285 1309 1
3285 5978 1
3285 7296 1
3285 7341 1
3285 8174 1
3285 8688 1
3286 33 1
3286 417 1
3286 498 1
3286 1582 1
3286 3961 1
3286 5133 1
3286 6588 1
3286 6848 1
3286 9331 1
3286 9357 1
3286 9555 1
3287 47 1
3287 1833 1
3287 2006 1
3287 2133 1
3287 3821 1
3288 25 1
3288 37 1
3288 1177 1
3288 3123 1
3288 3910 1
3288 4591 1
3288 6546 1
3288 6888 1
3288 9039 1
3289 337 1
3289 673 1
3289 793 1
3289 881 1
3289 3814 1
3289 3925 1
3289 7239 1
3289 7254 1
3290 9 1
3290 35 1
3290 474 1
3290 1958 1
3290 3503 1
3290 3626 1
3291 221 1
3291 987 1
3291 1347 1
3291 1556 1
3291 5768 1
3291 9908 1
3292 9 1
3292 52 1
3292 872 1
3292 2713 1
3292 7987 1
3293 105 1
3293 326 1
3293 347 1
3293 554 1
3293 3968 1
3293 4323 1
3293 5316 1
3293 7115 1
3293 7860 1
3293 8398 1
3293 8872 1
3293 8919 1
3293 9090 1
3293 9151 1
3294 469 1
3294 825 1
3294 895 1
3294 1804 1
3294 8192 1
3295 274 1
3295 464 1
3295 1252 1
3295 1973 1
3295 4049 1
3295 6607 1
3296 485 1
3296 510 1
3296 973 1
3296 2379 1
3296 5915 1
3296 7114 1
3296 7759 1
3297 19 1
3297 1473 1
3297 1553 1
3297 2438 1
3297 4387 1
3297 4692 1
3297 9378 1
3298 17 1
3298 100 1
3298 170 1
3298 1690 1
3298 3375 1
3298 4454 1
3298 4610 1
3298 7893 1
3299 5 1
3299 221 1
3299 358 1
3299 2501 1
3299 4347 1
3299 6814 1
3300 11 1
3300 186 1
3300 818 1
3300 820 1
3300 4034 1
3300 7164 1
3300 7450 1
3300 8868 1
3301 10 1
3301 388 1
3301 1003 1
3301 1775 1
3301 8055 1
3302 27 1
3302 77 1
3302 290 1
3302 1336 1
3302 3787 1
3302 4413 1
3302 8783 1
3302 9751 1
3303 137 1
3303 170 1
3303 1579 1
3303 2216 1
3303 8396 1
3304 25 1
3304 165 1
3304 285 1
3304 2069 1
3304 5627 1
3304 8914 1
3305 388 1
3305 891 1
3305 1415 1
3305 2402 1
3305 4891 1
3305 6539 1
3305 9679 1
3306 42 1
3306 993 1
3306 1473 1
3306 1971 1
3306 3906 1
3306 5632 1
3306 9444 1
3307 803 1
3307 805 1
3307 1034 1
3307 1749 1
3308 9 1
3308 147 1
3308 2341 1
3308 2384 1
3308 9212 1
3308 9499 1
3308 9695 1
3309 1 1
3309 73 1
3309 2052 1
3309 3283 1
3309 3854 1
3309 3955 1
3309 4094 1
3309 5411 1
3310 73 1
3310 354 1
3310 524 1
3310 2965 1
3311 11 1
3311 340 1
3311 2034 1
3311 2563 1
3311 5912 1
3311 8562 1
3312 97 1
3312 290 1
3312 1336 1
3312 3077 1
3313 81 1
3313 89 1
3313 1486 1
3313 2385 1
3313 4247 1
3313 9406 1
3314 3 1
3314 4 1
3314 1426 1
3314 2957 1
3314 3869 1
3314 3927 1
3314 5107 1
3314 6345 1
3314 8151 1
3314 8781 1
3315 118 1
3315 337 1
3315 661 1
3315 3091 1
3315 4442 1
3315 4720 1
3315 4721 1
3315 9480 1
3316 1757 1
3316 1898 1
3316 2245 1
3316 2282 1
3316 6245 1
3317 2 1
3317 28 1
3317 155 1
3317 1880 1
3317 9867 1
3318 3 1
3318 91 1
3318 1083 1
3318 1209 1
3318 6266 1
3319 5 1
3319 10 1
3319 100 1
3319 278 1
3320 17 1
3320 33 1
3320 2658 1
3320 3273 1
3320 9171 1
3321 18 1
3321 36 1
3321 197 1
3321 875 1
3321 3999 1
3321 4651 1
3322 388 1
3322 1250 1
3322 1405 1
3322 2362 1
3323 120 1
3323 414 1
3323 761 1
3323 3062 1
3323 6555 1
3323 7246 1
3323 8360 1
3323 9792 1
3324 33 1
3324 50 1
3324 403 1
3324 1718 1
3324 7345 1
3324 7912 1
3325 18 1
3325 1223 1
3325 1289 1
3325 2273 1
3326 91 1
3326 537 1
3326 2197 1
3326 2619 1
3326 7629 1
3327 557 1
3327 842 1
3327 1251 1
3327 2446 1
3327 4409 1
3327 5611 1
3327 8793 1
3327 8851 1
3328 26 1
3328 1048 1
3328 1140 1
3328 1885 1
3328 4903 1
3329 705 1
3329 1089 1
3329 1457 1
3329 3165 1
3329 5085 1
3329 7139 1
3329 8213 1
3329 8566 1
3329 9117 1
3329 9614 1
3330 1 1
3330 285 1
3330 627 1
3330 1660 1
3330 3660 1
3330 7049 1
3330 7110 1
3330 7482 1
3330 8298 1
3330 8335 1
3330 8737 1
3331 340 1
3331 916 1
3331 1602 1
3331 2604 1
3331 5482 1
3331 6908 1
3331 9162 1
3331 9358 1
3331 9517 1
3331 9855 1
3332 3 1
3332 1189 1
3332 1430 1
3332 2695 1
3332 3747 1
3332 5974 1
3332 7363 1
3333 21 1
3333 205 1
3333 272 1
3333 882 1
3333 5376 1
3333 6158 1
3333 7575 1
3333 9772 1
3334 645 1
3334 1028 1
3334 1033 1
3334 1342 1
3334 3982 1
3334 5500 1
3334 6643 1
3335 9 1
3335 419 1
3335 523 1
3335 2486 1
3335 3648 1
3335 5210 1
3335 5377 1
3335 7032 1
3336 126 1
3336 881 1
3336 1089 1
3336 2140 1
3336 6492 1
3336 8038 1
3337 154 1
3337 174 1
3337 340 1
3337 1610 1
3337 3862 1
3337 5163 1
3337 6242 1
3337 6474 1
3337 7336 1
3337 8710 1
3337 9800 1
3338 11 1
3338 25 1
3338 1028 1
3338 1241 1
3338 4790 1
3338 5039 1
3338 6475 1
3338 6621 1
3338 9797 1
3339 1 1
3339 18 1
3339 2347 1
3339 2826 1
3339 3972 1
3339 7756 1
3339 9180 1
3339 9415 1
3340 57 1
3340 84 1
3340 231 1
3340 634 1
3340 3353 1
3340 4576 1
3340 4972 1
3340 5713 1
3340 7642 1
3340 8208 1
3340 8400 1
3340 9344 1
3341 113 1
3341 194 1
3341 2008 1
3341 2846 1
3341 3630 1
3341 4187 1
3341 4952 1
3341 6178 1
3341 7862 1
3342 752 1
3342 1163 1
3342 2249 1
3342 2783 1
3342 7304 1
3343 193 1
3343 589 1
3343 792 1
3343 1469 1
3343 3344 1
3343 4128 1
3343 5121 1
3343 7273 1
3343 8887 1
3343 9307 1
3344 684 1
3344 1580 1
3344 2951 1
3344 3343 1
3344 8450 1
3345 9 1
3345 1459 1
3345 2419 1
3345 2966 1
3346 219 1
3346 548 1
3346 1382 1
3346 2057 1
3346 3765 1
3346 6081 1
3346 9795 1
3347 467 1
3347 1073 1
3347 2170 1
3347 3273 1
3347 3875 1
3347 6548 1
3347 7297 1
3348 1610 1
3348 1643 1
3348 2556 1
3348 2973 1
3348 3989 1
3348 4580 1
3348 6597 1
3348 7141 1
3348 7631 1
3348 9049 1
3348 9254 1
3348 9883 1
3349 819 1
3349 1370 1
3349 1888 1
3349 2504 1
3349 5795 1
3350 12 1
3350 221 1
3350 1179 1
3350 1544 1
3350 9283 1
3351 9 1
3351 173 1
3351 246 1
3351 2771 1
3352 10 1
3352 146 1
3352 163 1
3352 498 1
3352 3961 1
3352 8772 1
3353 19 1
3353 84 1
3353 2977 1
3353 3340 1
3353 5340 1
3353 8400 1
3353 9344 1
3353 9710 1
3353 9998 1
3354 75 1
3354 467 1
3354 1581 1
3354 2879 1
3354 3882 1
3354 4599 1
3354 4999 1
3354 5336 1
3354 7168 1
3355 110 1
3355 193 1
3355 210 1
3355 703 1
3355 3657 1
3355 3816 1
3355 5537 1
3355 6866 1
3355 8271 1
3356 2092 1
3356 2156 1
3356 2418 1
3356 2475 1
3357 357 1
3357 507 1
3357 2260 1
3357 3037 1
3357 6455 1
3357 8181 1
3357 8781 1
3357 8980 1
3358 26 1
3358 235 1
3358 1241 1
3358 1482 1
3358 7011 1
3358 8705 1
3359 10 1
3359 427 1
3359 2432 1
3359 2971 1
3360 266 1
3360 1434 1
3360 2262 1
3360 2654 1
3361 685 1
3361 2280 1
3361 3153 1
3361 3228 1
3361 5043 1
3362 1174 1
3362 1294 1
3362 1510 1
3362 2316 1
3362 3567 1
3362 4489 1
3362 6444 1
3362 7076 1
3362 7439 1
3362 8084 1
3362 8170 1
3363 19 1
3363 315 1
3363 442 1
3363 1248 1
3363 4105 1
3363 6617 1
3363 9138 1
3364 18 1
3364 89 1
3364 1211 1
3364 2657 1
3364 5140 1
3364 6234 1
3364 7027 1
3365 66 1
3365 1212 1
3365 1889 1
3365 2378 1
3365 3508 1
3365 4036 1
3365 4590 1
3365 5659 1
3365 5884 1
3365 7116 1
3365 7425 1
3366 171 1
3366 972 1
3366 2331 1
3366 2697 1
3367 9 1
3367 18 1
3367 1035 1
3367 1774 1
3368 9 1
3368 1847 1
3368 2266 1
3368 3196 1
3368 5135 1
3368 8720 1
3368 9723 1
3369 49 1
3369 1097 1
3369 2782 1
3369 2897 1
3369 3765 1
3369 3999 1
3369 4396 1
3369 5538 1
3369 7848 1
3369 8246 1
3370 9 1
3370 97 1
3370 728 1
3370 1005 1
3370 7510 1
3371 2 1
3371 25 1
3371 1811 1
3371 2581 1
3371 4984 1
3371 7276 1
3371 7656 1
3372 38 1
3372 356 1
3372 1513 1
3372 2002 1
3372 4654 1
3372 7517 1
3373 129 1
3373 131 1
3373 323 1
3373 1744 1
3373 9583 1
3374 676 1
3374 1409 1
3374 2046 1
3374 3076 1
3374 5069 1
3375 170 1
3375 977 1
3375 2521 1
3375 3298 1
3375 3420 1
3376 4 1
3376 81 1
3376 1200 1
3376 2871 1
3376 5601 1
3376 8196 1
3376 9141 1
3377 305 1
3377 1278 1
3377 2185 1
3377 3169 1
3377 3563 1
3377 6245 1
3377 7056 1
3377 9338 1
3377 9419 1
3378 171 1
3378 179 1
3378 233 1
3378 932 1
3378 3905 1
3378 5478 1
3378 5924 1
3378 7518 1
3378 8484 1
3378 9241 1
3379 52 1
3379 907 1
3379 1064 1
3379 2970 1
3379 4225 1
3380 1 1
3380 1163 1
3380 2052 1
3380 2330 1
3381 556 1
3381 586 1
3381 1391 1
3381 1507 1
3381 5333 1
3382 9 1
3382 1657 1
3382 1840 1
3382 2148 1
3382 5622 1
3382 5943 1
3382 6532 1
3382 6558 1
3382 6725 1
3382 9008 1
3383 12 1
3383 365 1
3383 755 1
3383 2749 1
3383 5739 1
3383 6983 1
3384 627 1
3384 766 1
3384 1643 1
3384 1898 1
3384 5544 1
3385 18 1
3385 116 1
3385 2153 1
3385 3013 1
3385 6648 1
3385 7784 1
3386 155 1
3386 412 1
3386 969 1
3386 2686 1
3386 3400 1
3386 3403 1
3386 8687 1
3387 266 1
3387 1143 1
3387 2520 1
3387 2730 1
3387 6732 1
3388 81 1
3388 106 1
3388 660 1
3388 2794 1
3388 3523 1
3388 6257 1
3388 6954 1
3389 60 1
3389 295 1
3389 865 1
3389 1703 1
3389 4424 1
3389 5173 1
3389 6697 1
3389 7117 1
3389 7616 1
3390 21 1
3390 131 1
3390 282 1
3390 2647 1
3390 3827 1
3390 4147 1
3390 5058 1
3390 5489 1
3390 6491 1
3390 7256 1
3390 7525 1
3390 8662 1
3390 8771 1
3391 50 1
3391 132 1
3391 970 1
3391 2636 1
3391 4059 1
3391 4621 1
3391 4988 1
3391 5379 1
3392 41 1
3392 1118 1
3392 1145 1
3392 1260 1
3392 8666 1
3393 89 1
3393 1116 1
3393 2670 1
3393 3163 1
3393 3486 1
3393 4852 1
3393 5940 1
3393 8025 1
3393 9213 1
3394 401 1
3394 1819 1
3394 2563 1
3394 3075 1
3394 4201 1
3394 4446 1
3394 4867 1
3394 5193 1
3394 5871 1
3394 7157 1
3394 7179 1
3394 7734 1
3394 7956 1
3394 8412 1
3394 8743 1
3394 9217 1
3394 9585 1
3395 41 1
3395 105 1
3395 1017 1
3395 1218 1
3395 3629 1
3395 3941 1
3395 5113 1
3395 5955 1
3395 6782 1
3395 6951 1
3396 419 1
3396 1962 1
3396 2846 1
3396 3043 1
3396 4375 1
3396 5537 1
3396 6345 1
3396 7052 1
3396 7940 1
3396 8477 1
3396 9499 1
3396 9825 1
3397 4 1
3397 2373 1
3397 2482 1
3397 2723 1
3397 5580 1
3397 9146 1
3398 1 1
3398 5 1
3398 227 1
3398 3172 1
3398 3928 1
3398 5447 1
3399 616 1
3399 690 1
3399 2053 1
3399 2726 1
3399 6885 1
3400 155 1
3400 394 1
3400 2502 1
3400 3386 1
3400 3444 1
3400 3683 1
3400 5273 1
3400 5524 1
3400 5558 1
3400 6459 1
3400 8552 1
3401 83 1
3401 340 1
3401 555 1
3401 2034 1
3401 4003 1
3401 6847 1
3401 7331 1
3402 11 1
3402 59 1
3402 434 1
3402 1536 1
3402 6736 1
3402 7600 1
3402 9172 1
3402 9182 1
3402 9395 1
3403 1202 1
3403 1456 1
3403 2750 1
3403 3386 1
3403 4795 1
3403 7120 1
3404 380 1
3404 575 1
3404 868 1
3404 978 1
3404 8051 1
3404 9541 1
3405 1 1
3405 564 1
3405 2386 1
3405 2390 1
3405 4696 1
3405 5447 1
3405 7200 1
3405 8090 1
3406 25 1
3406 230 1
3406 814 1
3406 2932 1
3406 5548 1
3407 873 1
3407 1126 1
3407 1714 1
3407 2318 1
3408 46 1
3408 749 1
3408 1049 1
3408 1065 1
3408 4708 1
3409 74 1
3409 81 1
3409 455 1
3409 2832 1
3409 4076 1
3409 5803 1
3409 6126 1
3409 9284 1
3410 1274 1
3410 2361 1
3410 2658 1
3410 2811 1
3410 4842 1
3410 7422 1
3411 297 1
3411 473 1
3411 1036 1
3411 2170 1
3411 3742 1
3411 8836 1
3412 865 1
3412 1725 1
3412 2055 1
3412 2517 1
3412 3483 1
3412 3719 1
3412 3922 1
3412 4511 1
3412 9752 1
3413 2 1
3413 49 1
3413 499 1
3413 2931 1
3414 25 1
3414 254 1
3414 1154 1
3414 1192 1
3414 5625 1
3414 7690 1
3415 25 1
3415 81 1
3415 118 1
3415 2614 1
3415 3577 1
3415 6141 1
3415 7567 1
3415 9439 1
3416 74 1
3416 369 1
3416 1112 1
3416 1989 1
3416 4495 1
3416 7352 1
3417 18 1
3417 2974 1
3417 3147 1
3417 3241 1
3417 3739 1
3417 4407 1
3417 5101 1
3417 5610 1
3417 5612 1
3417 6533 1
3417 7114 1
3417 7568 1
3417 8001 1
3417 8922 1
3417 9185 1
3417 9331 1
3417 9460 1
3418 150 1
3418 185 1
3418 262 1
3418 2373 1
3418 6522 1
3418 7279 1
3419 9 1
3419 611 1
3419 2252 1
3419 2773 1
3419 3912 1
3419 4051 1
3419 4928 1
3420 100 1
3420 977 1
3420 2256 1
3420 3375 1
3420 3878 1
3421 11 1
3421 1684 1
3421 2660 1
3421 2865 1
3421 3493 1
3422 10 1
3422 164 1
3422 2133 1
3422 3193 1
3422 3445 1
3422 8758 1
3422 9782 1
3422 9901 1
3423 1099 1
3423 1194 1
3423 1998 1
3423 3012 1
3423 5261 1
3424 51 1
3424 1429 1
3424 1859 1
3424 1889 1
3424 5890 1
3425 72 1
3425 803 1
3425 1404 1
3425 1809 1
3425 3777 1
3426 46 1
3426 1202 1
3426 2569 1
3426 3075 1
3426 3726 1
3426 6699 1
3426 8456 1
3426 8710 1
3427 113 1
3427 502 1
3427 1696 1
3427 1886 1
3427 7620 1
3428 413 1
3428 478 1
3428 2433 1
3428 2881 1
3428 3557 1
3428 3921 1
3428 4209 1
3428 4411 1
3428 6486 1
3429 231 1
3429 935 1
3429 3081 1
3429 3153 1
3429 8542 1
3430 34 1
3430 1256 1
3430 2423 1
3430 2557 1
3430 3771 1
3431 105 1
3431 145 1
3431 1271 1
3431 2402 1
3431 5949 1
3432 403 1
3432 1572 1
3432 2343 1
3432 3123 1
3432 9931 1
3433 848 1
3433 1465 1
3433 1530 1
3433 3083 1
3433 5363 1
3433 7764 1
3433 8753 1
3433 9342 1
3433 9826 1
3434 1227 1
3434 1525 1
3434 2080 1
3434 2929 1
3434 5670 1
3434 9778 1
3435 804 1
3435 1052 1
3435 2067 1
3435 2340 1
3435 8731 1
3436 9 1
3436 43 1
3436 285 1
3436 2758 1
3436 5881 1
3437 11 1
3437 908 1
3437 1625 1
3437 1847 1
3437 5442 1
3437 8987 1
3438 441 1
3438 659 1
3438 1482 1
3438 2558 1
3438 3760 1
3438 4859 1
3438 5514 1
3438 6871 1
3439 85 1
3439 369 1
3439 465 1
3439 2373 1
3439 3856 1
3440 73 1
3440 100 1
3440 221 1
3440 1419 1
3440 5731 1
3440 6137 1
3440 7551 1
3441 9 1
3441 62 1
3441 284 1
3441 2639 1
3441 4151 1
3441 8094 1
3441 9986 1
3442 139 1
3442 705 1
3442 1264 1
3442 1379 1
3442 4931 1
3442 5781 1
3442 6007 1
3443 1008 1
3443 1454 1
3443 2254 1
3443 3253 1
3443 3717 1
3443 3976 1
3443 5066 1
3443 6149 1
3444 714 1
3444 1135 1
3444 1815 1
3444 3400 1
3444 4404 1
3445 164 1
3445 349 1
3445 2591 1
3445 3422 1
3445 4736 1
3445 8137 1
3446 11 1
3446 369 1
3446 1626 1
3446 2465 1
3446 3891 1
3446 5987 1
3446 7390 1
3447 38 1
3447 1242 1
3447 2732 1
3447 2969 1
3447 6341 1
3447 7836 1
3448 132 1
3448 206 1
3448 542 1
3448 2105 1
3448 3524 1
3448 5038 1
3448 7906 1
3448 9531 1
3449 673 1
3449 1128 1
3449 1174 1
3449 1566 1
3449 5253 1
3449 7239 1
3450 1340 1
3450 1907 1
3450 2071 1
3450 2376 1
3450 8377 1
3450 9580 1
3451 91 1
3451 116 1
3451 225 1
3451 772 1
3451 7474 1
3451 8040 1
3451 8642 1
3451 9448 1
3452 51 1
3452 474 1
3452 1076 1
3452 2338 1
3452 6101 1
3453 43 1
3453 441 1
3453 564 1
3453 1150 1
3453 3612 1
3454 141 1
3454 1112 1
3454 2018 1
3454 3095 1
3455 74 1
3455 179 1
3455 509 1
3455 902 1
3455 7269 1
3455 8841 1
3456 531 1
3456 931 1
3456 1943 1
3456 2126 1
3456 9446 1
3457 594 1
3457 838 1
3457 1235 1
3457 1658 1
3457 5674 1
3457 9755 1
3458 1038 1
3458 1128 1
3458 2167 1
3458 2370 1
3458 4644 1
3458 5743 1
3458 9382 1
3459 44 1
3459 113 1
3459 465 1
3459 877 1
3459 3630 1
3459 4681 1
3459 4694 1
3459 6569 1
3459 7072 1
3460 391 1
3460 1679 1
3460 2829 1
3460 2929 1
3460 5312 1
3461 2 1
3461 348 1
3461 1531 1
3461 1554 1
3461 3716 1
3461 5405 1
3461 7526 1
3461 7693 1
3462 238 1
3462 900 1
3462 1986 1
3462 2047 1
3463 18 1
3463 297 1
3463 462 1
3463 770 1
3464 1381 1
3464 1477 1
3464 1486 1
3464 2942 1
3464 9611 1
3465 81 1
3465 289 1
3465 445 1
3465 1147 1
3465 9051 1
3466 677 1
3466 986 1
3466 1900 1
3466 2547 1
3466 7625 1
3466 8296 1
3466 8350 1
3466 9776 1
3467 17 1
3467 28 1
3467 818 1
3467 2753 1
3467 4416 1
3467 8567 1
3467 8569 1
3468 618 1
3468 867 1
3468 2600 1
3468 2807 1
3468 4830 1
3468 5927 1
3468 7513 1
3468 8676 1
3468 8730 1
3469 58 1
3469 718 1
3469 2357 1
3469 2687 1
3469 7396 1
3469 8876 1
3470 358 1
3470 1220 1
3470 2450 1
3470 2965 1
3470 3608 1
3470 7104 1
3470 8020 1
3471 68 1
3471 99 1
3471 846 1
3471 2695 1
3472 57 1
3472 564 1
3472 604 1
3472 2453 1
3472 6271 1
3472 6540 1
3473 67 1
3473 1145 1
3473 1442 1
3473 2765 1
3473 6022 1
3474 11 1
3474 2197 1
3474 2437 1
3474 2706 1
3474 8646 1
3475 36 1
3475 52 1
3475 1451 1
3475 2641 1
3475 5808 1
3475 6379 1
3475 6971 1
3476 99 1
3476 172 1
3476 1681 1
3476 2626 1
3477 112 1
3477 388 1
3477 1662 1
3477 3100 1
3477 4830 1
3477 5522 1
3478 13 1
3478 311 1
3478 1610 1
3478 2009 1
3478 4944 1
3478 5569 1
3478 6251 1
3478 8281 1
3479 148 1
3479 889 1
3479 2186 1
3479 2642 1
3479 5891 1
3479 6763 1
3479 8568 1
3479 8721 1
3480 81 1
3480 261 1
3480 2011 1
3480 2944 1
3481 237 1
3481 380 1
3481 675 1
3481 3078 1
3481 3611 1
3481 4461 1
3481 6056 1
3481 6181 1
3482 11 1
3482 311 1
3482 497 1
3482 2091 1
3482 3634 1
3482 4276 1
3482 9300 1
3483 214 1
3483 1017 1
3483 2749 1
3483 3412 1
3483 4511 1
3483 4542 1
3483 4983 1
3483 6432 1
3484 677 1
3484 1528 1
3484 2049 1
3484 2212 1
3485 141 1
3485 293 1
3485 1006 1
3485 3065 1
3485 5430 1
3485 6132 1
3485 9849 1
3486 91 1
3486 105 1
3486 1134 1
3486 3393 1
3486 5571 1
3486 8323 1
3486 8518 1
3486 9682 1
3487 473 1
3487 777 1
3487 1535 1
3487 2937 1
3487 5245 1
3487 8486 1
3487 9220 1
3488 26 1
3488 105 1
3488 189 1
3488 284 1
3489 21 1
3489 145 1
3489 934 1
3489 1159 1
3489 3807 1
3489 4049 1
3489 9976 1
3490 18 1
3490 1028 1
3490 1075 1
3490 1827 1
3490 5123 1
3490 8092 1
3490 8428 1
3490 8948 1
3490 9225 1
3491 10 1
3491 43 1
3491 353 1
3491 1939 1
3491 4310 1
3491 4407 1
3491 5917 1
3491 8402 1
3491 9491 1
3491 9661 1
3492 99 1
3492 840 1
3492 1718 1
3492 2210 1
3492 5022 1
3493 292 1
3493 1990 1
3493 2660 1
3493 3421 1
3493 4173 1
3493 4769 1
3493 5667 1
3493 5824 1
3493 6919 1
3493 7723 1
3494 9 1
3494 45 1
3494 119 1
3494 3071 1
3494 5765 1
3494 8700 1
3495 1 1
3495 11 1
3495 1187 1
3495 3029 1
3495 5777 1
3495 6077 1
3496 141 1
3496 484 1
3496 836 1
3496 1520 1
3496 6998 1
3496 8124 1
3497 35 1
3497 171 1
3497 399 1
3497 2963 1
3497 7632 1
3498 2 1
3498 641 1
3498 2181 1
3498 2581 1
3498 4552 1
3498 5834 1
3499 28 1
3499 149 1
3499 449 1
3499 3020 1
3500 17 1
3500 105 1
3500 154 1
3500 1500 1
3500 6912 1
3500 7219 1
3501 43 1
3501 706 1
3501 1713 1
3501 3265 1
3501 4116 1
3502 41 1
3502 74 1
3502 560 1
3502 1729 1
3502 9163 1
3503 194 1
3503 1555 1
3503 3130 1
3503 3290 1
3503 4922 1
3503 6890 1
3503 7599 1
3504 103 1
3504 1319 1
3504 1428 1
3504 2006 1
3504 6817 1
3505 9 1
3505 541 1
3505 2018 1
3505 2084 1
3505 3913 1
3505 8289 1
3505 8839 1
3505 9440 1
3506 9 1
3506 1238 1
3506 1465 1
3506 3249 1
3506 4263 1
3506 4674 1
3506 5347 1
3506 5557 1
3506 5670 1
3507 399 1
3507 1702 1
3507 1729 1
3507 2834 1
3507 5412 1
3507 7073 1
3507 8450 1
3508 251 1
3508 286 1
3508 3282 1
3508 3365 1
3508 4590 1
3508 7049 1
3508 8493 1
3508 8757 1
3509 11 1
3509 28 1
3509 305 1
3509 556 1
3509 3940 1
3509 4133 1
3509 6846 1
3509 7965 1
3510 1027 1
3510 1209 1
3510 1383 1
3510 1389 1
3510 3548 1
3510 3696 1
3510 4185 1
3510 4908 1
3510 7820 1
3511 33 1
3511 110 1
3511 300 1
3511 1989 1
3511 6912 1
3512 9 1
3512 686 1
3512 1031 1
3512 1269 1
3513 1 1
3513 51 1
3513 621 1
3513 675 1
3513 4814 1
3513 5923 1
3513 6106 1
3513 7549 1
3514 61 1
3514 547 1
3514 624 1
3514 2076 1
3514 5433 1
3515 148 1
3515 295 1
3515 699 1
3515 2213 1
3515 4397 1
3515 4584 1
3515 5365 1
3515 7264 1
3515 7456 1
3515 7561 1
3515 9591 1
3515 9809 1
3516 89 1
3516 259 1
3516 2775 1
3516 2802 1
3516 8279 1
3517 124 1
3517 1188 1
3517 2052 1
3517 3006 1
3517 8574 1
3518 25 1
3518 50 1
3518 378 1
3518 536 1
3518 3829 1
3518 4377 1
3518 5196 1
3518 5547 1
3518 5748 1
3518 9096 1
3519 4 1
3519 913 1
3519 1939 1
3519 3121 1
3519 4313 1
3519 8659 1
3520 314 1
3520 709 1
3520 961 1
3520 2719 1
3521 618 1
3521 2019 1
3521 2600 1
3521 3228 1
3521 5090 1
3521 5751 1
3521 9134 1
3522 236 1
3522 677 1
3522 1411 1
3522 2865 1
3522 3540 1
3522 3832 1
3522 3876 1
3522 5376 1
3522 5531 1
3522 5539 1
3522 7512 1
3523 428 1
3523 1772 1
3523 2729 1
3523 3388 1
3523 7206 1
3523 7398 1
3523 9986 1
3524 1017 1
3524 1203 1
3524 1685 1
3524 3448 1
3524 4266 1
3524 6874 1
3525 33 1
3525 91 1
3525 1504 1
3525 1951 1
3525 4432 1
3525 7642 1
3526 170 1
3526 187 1
3526 1483 1
3526 1862 1
3526 6881 1
3526 8679 1
3527 25 1
3527 381 1
3527 406 1
3527 687 1
3527 5913 1
3527 7219 1
3528 2 1
3528 137 1
3528 2193 1
3528 2242 1
3529 123 1
3529 342 1
3529 605 1
3529 1029 1
3530 465 1
3530 1557 1
3530 1858 1
3530 2569 1
3530 4084 1
3530 4906 1
3530 5572 1
3531 50 1
3531 161 1
3531 2399 1
3531 3016 1
3531 4228 1
3531 6284 1
3531 8532 1
3532 9 1
3532 728 1
3532 1099 1
3532 2466 1
3533 163 1
3533 181 1
3533 1570 1
3533 2879 1
3533 4321 1
3533 7256 1
3534 138 1
3534 296 1
3534 681 1
3534 2209 1
3534 4116 1
3534 5105 1
3534 6320 1
3535 25 1
3535 41 1
3535 1125 1
3535 2332 1
3535 3658 1
3535 5069 1
3535 5647 1
3535 5736 1
3536 436 1
3536 795 1
3536 1241 1
3536 3257 1
3536 9000 1
3536 9769 1
3537 323 1
3537 1924 1
3537 2549 1
3537 2954 1
3537 5087 1
3537 5536 1
3537 5942 1
3537 7761 1
3537 7783 1
3537 8087 1
3538 41 1
3538 1728 1
3538 1785 1
3538 2450 1
3538 3638 1
3538 5054 1
3538 5301 1
3538 7229 1
3539 913 1
3539 1475 1
3539 2139 1
3539 2859 1
3539 9841 1
3539 9997 1
3540 550 1
3540 1127 1
3540 1663 1
3540 3522 1
3541 12 1
3541 101 1
3541 753 1
3541 1389 1
3541 4051 1
3541 7687 1
3541 7787 1
3542 10 1
3542 252 1
3542 650 1
3542 829 1
3542 6315 1
3543 128 1
3543 1557 1
3543 2471 1
3543 2800 1
3543 4486 1
3543 4599 1
3544 81 1
3544 534 1
3544 1483 1
3544 3035 1
3545 59 1
3545 267 1
3545 1661 1
3545 2191 1
3545 4849 1
3545 6788 1
3546 51 1
3546 1163 1
3546 2059 1
3546 2249 1
3546 4483 1
3546 7560 1
3546 9283 1
3546 9748 1
3546 9989 1
3547 2 1
3547 33 1
3547 131 1
3547 1389 1
3547 5646 1
3548 297 1
3548 561 1
3548 2771 1
3548 3510 1
3548 3729 1
3548 3780 1
3548 3901 1
3548 4185 1
3548 4303 1
3548 5040 1
3548 5236 1
3548 6192 1
3548 6343 1
3548 6830 1
3548 7265 1
3548 7820 1
3548 7884 1
3548 8172 1
3548 8413 1
3548 9384 1
3549 10 1
3549 134 1
3549 1261 1
3549 1675 1
3549 3820 1
3550 10 1
3550 185 1
3550 1531 1
3550 1644 1
3550 3833 1
3550 6582 1
3551 43 1
3551 64 1
3551 73 1
3551 1857 1
3552 12 1
3552 284 1
3552 1811 1
3552 3259 1
3552 6999 1
3552 9398 1
3553 13 1
3553 227 1
3553 244 1
3553 884 1
3553 4579 1
3553 4713 1
3553 5937 1
3553 6714 1
3553 7069 1
3553 7982 1
3554 185 1
3554 1956 1
3554 2934 1
3554 3251 1
3554 9881 1
3555 154 1
3555 442 1
3555 2441 1
3555 3083 1
3556 1 1
3556 700 1
3556 2397 1
3556 2443 1
3556 7998 1
3556 9002 1
3556 9361 1
3556 9754 1
3556 9870 1
3557 217 1
3557 2881 1
3557 2925 1
3557 3428 1
3557 5523 1
3558 259 1
3558 694 1
3558 1014 1
3558 2134 1
3558 4423 1
3558 6494 1
3559 32 1
3559 33 1
3559 683 1
3559 1360 1
3559 7955 1
3559 9327 1
3560 12 1
3560 13 1
3560 230 1
3560 681 1
3560 4729 1
3560 6933 1
3560 7917 1
3561 25 1
3561 479 1
3561 904 1
3561 1632 1
3561 5414 1
3561 6371 1
3562 119 1
3562 526 1
3562 2197 1
3562 3092 1
3562 5294 1
3562 7911 1
3562 8214 1
3562 8320 1
3563 82 1
3563 799 1
3563 2371 1
3563 3377 1
3563 3932 1
3564 385 1
3564 457 1
3564 1200 1
3564 2204 1
3564 5300 1
3565 146 1
3565 191 1
3565 939 1
3565 2028 1
3565 4828 1
3565 8291 1
3566 17 1
3566 687 1
3566 833 1
3566 2444 1
3566 6032 1
3567 2111 1
3567 2316 1
3567 3059 1
3567 3362 1
3567 8558 1
3568 40 1
3568 202 1
3568 1373 1
3568 1952 1
3568 3670 1
3568 5975 1
3569 50 1
3569 283 1
3569 1117 1
3569 2705 1
3569 3616 1
3569 5529 1
3569 6790 1
3569 9925 1
3570 16 1
3570 122 1
3570 777 1
3570 2160 1
3570 4815 1
3570 5535 1
3571 703 1
3571 1167 1
3571 1535 1
3571 2882 1
3571 6028 1
3572 18 1
3572 545 1
3572 1488 1
3572 2914 1
3572 8538 1
3573 1154 1
3573 1593 1
3573 2136 1
3573 2176 1
3574 4 1
3574 6 1
3574 142 1
3574 251 1
3574 4226 1
3575 4 1
3575 12 1
3575 124 1
3575 1138 1
3576 57 1
3576 69 1
3576 194 1
3576 465 1
3577 208 1
3577 383 1
3577 782 1
3577 3415 1
3577 3734 1
3577 4745 1
3577 6141 1
3577 9046 1
3578 97 1
3578 200 1
3578 796 1
3578 2455 1
3578 3719 1
3578 7154 1
3578 7771 1
3578 7785 1
3578 9500 1
3579 9 1
3579 33 1
3579 38 1
3579 2969 1
3579 3628 1
3579 4165 1
3579 4289 1
3579 5703 1
3579 8221 1
3580 9 1
3580 403 1
3580 1210 1
3580 1882 1
3580 5131 1
3580 5630 1
3581 2019 1
3581 2159 1
3581 3039 1
3581 3226 1
3581 7247 1
3581 8578 1
3582 11 1
3582 25 1
3582 860 1
3582 2854 1
3582 4231 1
3583 41 1
3583 362 1
3583 408 1
3583 1721 1
3584 281 1
3584 516 1
3584 1059 1
3584 1106 1
3584 8652 1
3585 68 1
3585 196 1
3585 589 1
3585 833 1
3585 3653 1
3585 5444 1
3585 5848 1
3586 1036 1
3586 1572 1
3586 3190 1
3586 3230 1
3587 85 1
3587 276 1
3587 918 1
3587 1032 1
3587 5124 1
3587 6679 1
3587 7033 1
3587 7720 1
3588 1 1
3588 133 1
3588 893 1
3588 1224 1
3589 250 1
3589 1293 1
3589 2644 1
3589 3196 1
3589 3888 1
3589 4010 1
3589 9891 1
3590 74 1
3590 89 1
3590 147 1
3590 300 1
3590 3989 1
3591 10 1
3591 620 1
3591 803 1
3591 1325 1
3591 3741 1
3591 6210 1
3591 6828 1
3591 8751 1
3592 772 1
3592 1229 1
3592 1863 1
3592 2996 1
3593 49 1
3593 52 1
3593 580 1
3593 2501 1
3593 3712 1
3593 4728 1
3594 69 1
3594 214 1
3594 555 1
3594 1288 1
3594 4560 1
3594 5755 1
3594 6315 1
3594 7299 1
3594 8755 1
3594 8963 1
3594 9238 1
3594 9854 1
3595 221 1
3595 244 1
3595 772 1
3595 860 1
3595 7973 1
3596 19 1
3596 237 1
3596 258 1
3596 324 1
3596 6483 1
3596 9711 1
3597 54 1
3597 574 1
3597 1529 1
3597 1567 1
3597 5869 1
3597 8696 1
3598 418 1
3598 979 1
3598 1937 1
3598 2510 1
3598 6632 1
3599 9 1
3599 1143 1
3599 1352 1
3599 1494 1
3599 7012 1
3600 622 1
3600 842 1
3600 1293 1
3600 2059 1
3600 7340 1
3601 692 1
3601 2036 1
3601 2231 1
3601 3035 1
3601 3753 1
3601 3844 1
3601 4026 1
3601 4686 1
3601 5798 1
3601 6172 1
3601 6783 1
3601 7636 1
3601 7694 1
3601 8464 1
3601 9218 1
3602 210 1
3602 681 1
3602 1927 1
3602 2674 1
3602 3647 1
3602 4631 1
3602 5683 1
3602 6694 1
3602 7479 1
3602 7836 1
3602 8227 1
3602 9380 1
3603 12 1
3603 214 1
3603 473 1
3603 2709 1
3603 3654 1
3603 3939 1
3603 6870 1
3603 8877 1
3603 9533 1
3604 30 1
3604 388 1
3604 487 1
3604 841 1
3604 6420 1
3605 11 1
3605 179 1
3605 658 1
3605 1451 1
3605 7783 1
3605 8596 1
3606 347 1
3606 976 1
3606 1239 1
3606 3068 1
3606 4561 1
3606 4584 1
3606 6016 1
3606 8008 1
3606 8403 1
3606 9896 1
3607 123 1
3607 547 1
3607 1852 1
3607 2874 1
3607 3958 1
3607 4671 1
3607 5750 1
3607 7930 1
3608 194 1
3608 358 1
3608 1310 1
3608 3470 1
3608 3695 1
3609 21 1
3609 161 1
3609 282 1
3609 819 1
3609 3731 1
3609 6721 1
3609 8011 1
3610 459 1
3610 1994 1
3610 2065 1
3610 2186 1
3610 4157 1
3610 4267 1
3610 5541 1
3610 7486 1
3610 7644 1
3610 8333 1
3610 8550 1
3610 8695 1
3610 8960 1
3610 9264 1
3611 1464 1
3611 2071 1
3611 3235 1
3611 3481 1
3611 9944 1
3612 145 1
3612 269 1
3612 564 1
3612 3453 1
3612 6736 1
3612 7442 1
3613 494 1
3613 701 1
3613 1785 1
3613 2687 1
3614 2 1
3614 10 1
3614 899 1
3614 1874 1
3614 4471 1
3614 5149 1
3614 5934 1
3614 6133 1
3614 6567 1
3614 9487 1
3615 53 1
3615 2124 1
3615 2206 1
3615 2378 1
3616 50 1
3616 58 1
3616 2687 1
3616 3569 1
3616 3726 1
3617 36 1
3617 116 1
3617 1922 1
3617 2117 1
3617 3795 1
3617 4760 1
3617 6954 1
3617 7909 1
3617 8095 1
3618 509 1
3618 1145 1
3618 1310 1
3618 2859 1
3619 54 1
3619 546 1
3619 1432 1
3619 2002 1
3619 4204 1
3619 5050 1
3619 6026 1
3619 6994 1
3619 8334 1
3620 20 1
3620 277 1
3620 889 1
3620 3117 1
3620 5562 1
3620 6922 1
3620 9198 1
3621 315 1
3621 442 1
3621 2443 1
3621 2571 1
3621 8160 1
3621 8857 1
3622 365 1
3622 1339 1
3622 1466 1
3622 2282 1
3622 3650 1
3622 4857 1
3623 33 1
3623 131 1
3623 1044 1
3623 1312 1
3623 9713 1
3624 63 1
3624 92 1
3624 2638 1
3624 2664 1
3625 1643 1
3625 2076 1
3625 2170 1
3625 3208 1
3625 9143 1
3626 348 1
3626 937 1
3626 2850 1
3626 3290 1
3626 4568 1
3626 4832 1
3626 6821 1
3626 7106 1
3626 9831 1
3627 41 1
3627 49 1
3627 2273 1
3627 3079 1
3627 4125 1
3627 5110 1
3627 6278 1
3628 9 1
3628 2102 1
3628 2769 1
3628 3579 1
3628 4165 1
3628 4268 1
3628 8305 1
3628 8668 1
3629 930 1
3629 1295 1
3629 2347 1
3629 3395 1
3630 113 1
3630 1891 1
3630 3341 1
3630 3459 1
3630 4952 1
3631 25 1
3631 50 1
3631 91 1
3631 1405 1
3631 4684 1
3631 6037 1
3632 9 1
3632 1572 1
3632 2220 1
3632 2843 1
3632 3806 1
3632 6125 1
3632 7034 1
3633 190 1
3633 267 1
3633 1337 1
3633 3282 1
3633 4512 1
3633 5210 1
3633 8156 1
3633 9662 1
3634 33 1
3634 1199 1
3634 1682 1
3634 3482 1
3634 5164 1
3634 5984 1
3635 7 1
3635 66 1
3635 1255 1
3635 1855 1
3635 4214 1
3635 7277 1
3635 8155 1
3635 9415 1
3636 332 1
3636 558 1
3636 596 1
3636 2680 1
3636 4262 1
3636 4289 1
3637 651 1
3637 1702 1
3637 2646 1
3637 2984 1
3637 3880 1
3638 692 1
3638 2354 1
3638 2830 1
3638 3538 1
3638 3752 1
3638 6816 1
3639 98 1
3639 238 1
3639 2104 1
3639 3169 1
3639 6427 1
3640 114 1
3640 427 1
3640 543 1
3640 2215 1
3641 300 1
3641 906 1
3641 2365 1
3641 2386 1
3641 6637 1
3642 19 1
3642 81 1
3642 97 1
3642 1334 1
3642 4234 1
3642 4733 1
3643 67 1
3643 459 1
3643 529 1
3643 1756 1
3643 5241 1
3643 7144 1
3644 27 1
3644 74 1
3644 154 1
3644 2343 1
3644 6078 1
3644 6711 1
3644 7799 1
3644 8841 1
3644 9110 1
3645 43 1
3645 60 1
3645 126 1
3645 141 1
3645 4064 1
3646 13 1
3646 372 1
3646 771 1
3646 1401 1
3646 3773 1
3646 6928 1
3647 710 1
3647 2037 1
3647 2674 1
3647 3602 1
3647 9062 1
3648 35 1
3648 1737 1
3648 2573 1
3648 3335 1
3649 42 1
3649 221 1
3649 953 1
3649 1419 1
3650 51 1
3650 365 1
3650 3167 1
3650 3622 1
3650 7270 1
3651 1017 1
3651 1045 1
3651 1283 1
3651 1971 1
3652 581 1
3652 1334 1
3652 2766 1
3652 3039 1
3652 7893 1
3653 281 1
3653 1105 1
3653 1489 1
3653 3585 1
3653 3713 1
3653 5060 1
3653 5504 1
3653 6379 1
3653 6517 1
3653 7849 1
3653 7980 1
3654 27 1
3654 214 1
3654 259 1
3654 3603 1
3654 4598 1
3654 7231 1
3655 394 1
3655 883 1
3655 1305 1
3655 3013 1
3655 4607 1
3655 7119 1
3656 462 1
3656 473 1
3656 2026 1
3656 2170 1
3656 4085 1
3656 5245 1
3656 5595 1
3656 6592 1
3656 9993 1
3657 1297 1
3657 2275 1
3657 2353 1
3657 3355 1
3657 3959 1
3657 4987 1
3657 7174 1
3657 7524 1
3657 8792 1
3658 196 1
3658 208 1
3658 436 1
3658 3535 1
3659 4 1
3659 165 1
3659 1285 1
3659 2334 1
3659 3943 1
3659 4373 1
3659 5664 1
3659 6851 1
3660 11 1
3660 907 1
3660 2656 1
3660 3330 1
3660 5723 1
3660 8997 1
3661 897 1
3661 1273 1
3661 1283 1
3661 2749 1
3661 4217 1
3661 4874 1
3661 7905 1
3662 148 1
3662 156 1
3662 1990 1
3662 2807 1
3662 9224 1
3663 9 1
3663 702 1
3663 1230 1
3663 3071 1
3663 8319 1
3664 553 1
3664 849 1
3664 955 1
3664 1143 1
3664 4067 1
3664 5420 1
3664 6064 1
3664 6070 1
3664 6433 1
3664 7446 1
3665 155 1
3665 481 1
3665 748 1
3665 2098 1
3666 2 1
3666 60 1
3666 718 1
3666 1249 1
3666 3895 1
3666 9897 1
3667 202 1
3667 1018 1
3667 2419 1
3667 2442 1
3667 3993 1
3667 4379 1
3667 6021 1
3667 9449 1
3668 179 1
3668 933 1
3668 1854 1
3668 1855 1
3668 7967 1
3669 424 1
3669 2162 1
3669 2510 1
3669 2902 1
3669 3899 1
3670 129 1
3670 130 1
3670 202 1
3670 3568 1
3670 4051 1
3670 4533 1
3670 4988 1
3670 9455 1
3671 194 1
3671 495 1
3671 681 1
3671 997 1
3672 187 1
3672 290 1
3672 1013 1
3672 1565 1
3673 111 1
3673 163 1
3673 372 1
3673 3024 1
3674 516 1
3674 650 1
3674 821 1
3674 3028 1
3674 4853 1
3674 6168 1
3674 6508 1
3674 6929 1
3674 9169 1
3675 4 1
3675 61 1
3675 795 1
3675 3005 1
3675 4147 1
3676 229 1
3676 241 1
3676 349 1
3676 1556 1
3676 6070 1
3676 6478 1
3676 6786 1
3676 8060 1
3677 2 1
3677 864 1
3677 2734 1
3677 3097 1
3677 3692 1
3677 4632 1
3677 6606 1
3678 202 1
3678 850 1
3678 2844 1
3678 3019 1
3679 65 1
3679 94 1
3679 813 1
3679 2537 1
3679 6189 1
3680 102 1
3680 121 1
3680 862 1
3680 1463 1
3680 3934 1
3681 25 1
3681 202 1
3681 1177 1
3681 2651 1
3681 5076 1
3681 8997 1
3682 2 1
3682 642 1
3682 2402 1
3682 2685 1
3682 4319 1
3682 5258 1
3682 5638 1
3682 6183 1
3682 6841 1
3682 6901 1
3682 7187 1
3682 8036 1
3683 394 1
3683 580 1
3683 1305 1
3683 3400 1
3683 4078 1
3683 4551 1
3683 4889 1
3683 4893 1
3683 6055 1
3683 6199 1
3683 7500 1
3683 8905 1
3683 9143 1
3683 9511 1
3684 195 1
3684 738 1
3684 2270 1
3684 3272 1
3684 5624 1
3684 5710 1
3684 9426 1
3684 9780 1
3684 9851 1
3685 1689 1
3685 2135 1
3685 2619 1
3685 2981 1
3685 4243 1
3685 7032 1
3685 7271 1
3686 50 1
3686 146 1
3686 153 1
3686 445 1
3686 4263 1
3686 4603 1
3686 5330 1
3686 8445 1
3686 8867 1
3686 9242 1
3687 11 1
3687 616 1
3687 795 1
3687 1827 1
3687 4647 1
3688 92 1
3688 826 1
3688 1745 1
3688 2082 1
3688 6038 1
3688 7848 1
3689 57 1
3689 845 1
3689 1185 1
3689 2192 1
3689 4440 1
3689 4947 1
3690 841 1
3690 1858 1
3690 2521 1
3690 2970 1
3690 5056 1
3690 6834 1
3690 9789 1
3690 9902 1
3691 33 1
3691 759 1
3691 1891 1
3691 3200 1
3691 3948 1
3691 4488 1
3691 5657 1
3692 173 1
3692 1028 1
3692 2382 1
3692 3677 1
3692 4632 1
3693 576 1
3693 1034 1
3693 1797 1
3693 2604 1
3693 8595 1
3694 269 1
3694 763 1
3694 814 1
3694 1281 1
3694 4874 1
3694 6080 1
3695 43 1
3695 472 1
3695 2527 1
3695 3608 1
3695 4808 1
3695 5681 1
3695 9977 1
3696 281 1
3696 1010 1
3696 1209 1
3696 3510 1
3696 6751 1
3697 20 1
3697 218 1
3697 1191 1
3697 1737 1
3697 5119 1
3697 5561 1
3697 6658 1
3698 60 1
3698 346 1
3698 564 1
3698 2261 1
3698 9216 1
3699 33 1
3699 905 1
3699 2178 1
3699 3095 1
3699 4807 1
3699 7591 1
3700 660 1
3700 1285 1
3700 2380 1
3700 3013 1
3700 4519 1
3700 6071 1
3700 6547 1
3700 7221 1
3700 8737 1
3701 4 1
3701 28 1
3701 411 1
3701 2353 1
3701 7412 1
3701 8746 1
3702 4 1
3702 217 1
3702 361 1
3702 931 1
3702 3771 1
3702 3994 1
3702 4617 1
3702 9904 1
3703 473 1
3703 744 1
3703 2011 1
3703 2283 1
3703 6364 1
3703 8486 1
3704 589 1
3704 617 1
3704 730 1
3704 1569 1
3704 4242 1
3704 7075 1
3705 789 1
3705 1197 1
3705 1853 1
3705 2084 1
3705 4199 1
3705 7461 1
3705 9287 1
3705 9875 1
3705 9911 1
3706 241 1
3706 987 1
3706 1170 1
3706 1253 1
3706 4447 1
3706 4577 1
3706 5028 1
3707 33 1
3707 906 1
3707 2073 1
3707 2185 1
3707 4750 1
3707 4794 1
3707 8267 1
3707 9457 1
3708 162 1
3708 885 1
3708 1575 1
3708 3018 1
3708 3809 1
3708 8042 1
3709 9 1
3709 1136 1
3709 1143 1
3709 1714 1
3710 46 1
3710 147 1
3710 237 1
3710 1529 1
3710 4106 1
3710 5098 1
3710 5962 1
3710 6439 1
3710 8327 1
3710 8417 1
3711 22 1
3711 665 1
3711 716 1
3711 910 1
3711 3750 1
3711 5904 1
3711 6347 1
3711 7563 1
3711 8827 1
3712 5 1
3712 741 1
3712 2063 1
3712 3593 1
3713 874 1
3713 1919 1
3713 3190 1
3713 3653 1
3713 5353 1
3713 5922 1
3713 5985 1
3713 6379 1
3713 6391 1
3713 6681 1
3713 6688 1
3713 7550 1
3713 8830 1
3713 9681 1
3714 43 1
3714 633 1
3714 1075 1
3714 1950 1
3714 4705 1
3714 4787 1
3714 7655 1
3714 9355 1
3715 131 1
3715 1397 1
3715 1953 1
3715 3279 1
3715 5231 1
3716 2 1
3716 9 1
3716 1284 1
3716 3461 1
3716 5058 1
3716 5288 1
3716 5749 1
3716 6712 1
3716 7539 1
3716 7619 1
3716 7693 1
3716 8488 1
3716 8676 1
3717 165 1
3717 579 1
3717 2815 1
3717 3443 1
3717 6599 1
3718 11 1
3718 159 1
3718 332 1
3718 451 1
3718 5203 1
3718 6759 1
3719 200 1
3719 1009 1
3719 3412 1
3719 3578 1
3720 49 1
3720 797 1
3720 1641 1
3720 1978 1
3720 5593 1
3721 534 1
3721 2721 1
3721 3103 1
3721 3279 1
3721 3875 1
3721 9488 1
3722 60 1
3722 92 1
3722 762 1
3722 2221 1
3722 7103 1
3722 8660 1
3723 9 1
3723 286 1
3723 1893 1
3723 3198 1
3724 52 1
3724 396 1
3724 401 1
3724 1872 1
3724 3745 1
3724 3973 1
3724 4034 1
3724 4257 1
3724 4768 1
3724 4920 1
3724 5223 1
3724 5327 1
3724 7609 1
3724 9732 1
3725 1 1
3725 18 1
3725 354 1
3725 541 1
3725 5574 1
3726 1202 1
3726 1275 1
3726 3426 1
3726 3616 1
3727 26 1
3727 92 1
3727 576 1
3727 3121 1
3727 4006 1
3728 197 1
3728 481 1
3728 489 1
3728 2836 1
3728 5281 1
3728 7505 1
3729 9 1
3729 113 1
3729 561 1
3729 3548 1
3729 3780 1
3729 4474 1
3729 5612 1
3729 7884 1
3729 8502 1
3730 465 1
3730 954 1
3730 1448 1
3730 2346 1
3730 4441 1
3730 5170 1
3730 7106 1
3730 7673 1
3730 9133 1
3731 25 1
3731 282 1
3731 2637 1
3731 3609 1
3732 10 1
3732 33 1
3732 169 1
3732 2194 1
3732 7212 1
3732 9876 1
3733 882 1
3733 1251 1
3733 2169 1
3733 2647 1
3733 9165 1
3734 25 1
3734 938 1
3734 2630 1
3734 3577 1
3734 4652 1
3734 4745 1
3734 5019 1
3735 5 1
3735 363 1
3735 631 1
3735 2811 1
3736 10 1
3736 358 1
3736 2483 1
3736 3197 1
3736 4131 1
3736 6597 1
3736 9225 1
3737 201 1
3737 825 1
3737 915 1
3737 1804 1
3737 6048 1
3737 6838 1
3737 6957 1
3737 7233 1
3737 7554 1
3737 8104 1
3737 9832 1
3737 9921 1
3738 18 1
3738 300 1
3738 410 1
3738 2377 1
3738 4731 1
3738 5898 1
3738 7670 1
3739 18 1
3739 2974 1
3739 3241 1
3739 3417 1
3739 5610 1
3739 6367 1
3739 7080 1
3739 8001 1
3740 19 1
3740 146 1
3740 165 1
3740 788 1
3740 4444 1
3741 10 1
3741 49 1
3741 264 1
3741 3591 1
3741 7501 1
3742 485 1
3742 720 1
3742 1057 1
3742 3411 1
3742 9184 1
3743 9 1
3743 487 1
3743 1897 1
3743 2856 1
3743 6824 1
3744 1 1
3744 25 1
3744 380 1
3744 943 1
3744 7889 1
3744 7974 1
3745 1486 1
3745 1679 1
3745 2644 1
3745 3724 1
3745 4034 1
3746 172 1
3746 885 1
3746 1586 1
3746 1825 1
3746 5573 1
3746 8076 1
3746 8568 1
3747 478 1
3747 814 1
3747 2804 1
3747 3332 1
3748 579 1
3748 1948 1
3748 2257 1
3748 2837 1
3748 5357 1
3749 345 1
3749 1221 1
3749 1712 1
3749 1979 1
3749 4703 1
3749 5034 1
3749 5373 1
3749 5506 1
3750 1 1
3750 89 1
3750 913 1
3750 3711 1
3750 4901 1
3751 1 1
3751 266 1
3751 1662 1
3751 2313 1
3752 465 1
3752 931 1
3752 1012 1
3752 3638 1
3752 8611 1
3753 329 1
3753 692 1
3753 995 1
3753 3601 1
3753 5352 1
3753 7631 1
3753 8408 1
3754 38 1
3754 1910 1
3754 2051 1
3754 2414 1
3754 5272 1
3754 6745 1
3754 6815 1
3754 8184 1
3755 502 1
3755 599 1
3755 880 1
3755 1571 1
3755 6280 1
3755 6765 1
3755 7126 1
3755 8545 1
3756 49 1
3756 261 1
3756 1504 1
3756 2157 1
3756 8000 1
3757 25 1
3757 341 1
3757 742 1
3757 1889 1
3757 3853 1
3757 3980 1
3757 4522 1
3757 4773 1
3757 5383 1
3757 5481 1
3758 11 1
3758 332 1
3758 605 1
3758 752 1
3759 439 1
3759 592 1
3759 1374 1
3759 2929 1
3760 441 1
3760 640 1
3760 892 1
3760 3438 1
3760 6878 1
3761 27 1
3761 42 1
3761 252 1
3761 1890 1
3761 4822 1
3761 6003 1
3762 332 1
3762 658 1
3762 989 1
3762 2680 1
3762 5413 1
3762 6238 1
3762 7504 1
3763 2 1
3763 52 1
3763 858 1
3763 1156 1
3763 4657 1
3763 6155 1
3764 10 1
3764 161 1
3764 225 1
3764 421 1
3764 8114 1
3765 963 1
3765 2355 1
3765 3346 1
3765 3369 1
3765 6109 1
3765 8811 1
3765 9750 1
3766 25 1
3766 465 1
3766 548 1
3766 938 1
3766 4105 1
3766 9366 1
3767 274 1
3767 483 1
3767 3192 1
3767 3204 1
3767 6195 1
3768 372 1
3768 448 1
3768 623 1
3768 2346 1
3768 4790 1
3768 5705 1
3769 10 1
3769 65 1
3769 99 1
3769 714 1
3769 3793 1
3769 4614 1
3769 4796 1
3769 4912 1
3769 5924 1
3769 6369 1
3769 6525 1
3769 9170 1
3769 9195 1
3770 22 1
3770 836 1
3770 1311 1
3770 1406 1
3770 6184 1
3770 7659 1
3771 982 1
3771 1017 1
3771 3430 1
3771 3702 1
3771 5802 1
3771 6550 1
3771 7327 1
3771 7394 1
3771 9305 1
3771 9917 1
3772 49 1
3772 264 1
3772 413 1
3772 985 1
3772 4410 1
3772 6097 1
3773 263 1
3773 931 1
3773 1401 1
3773 3646 1
3773 6928 1
3773 9958 1
3774 9 1
3774 1700 1
3774 2027 1
3774 2791 1
3774 5452 1
3774 6942 1
3774 7061 1
3774 8319 1
3774 9919 1
3775 227 1
3775 291 1
3775 614 1
3775 2201 1
3775 4963 1
3775 5514 1
3775 7017 1
3776 92 1
3776 825 1
3776 1804 1
3776 2938 1
3776 5446 1
3776 8656 1
3777 1404 1
3777 1809 1
3777 2162 1
3777 3425 1
3777 3899 1
3777 4161 1
3777 5679 1
3777 7187 1
3777 8964 1
3778 107 1
3778 165 1
3778 323 1
3778 1593 1
3778 6499 1
3778 8030 1
3779 33 1
3779 44 1
3779 611 1
3779 2681 1
3779 5008 1
3779 6796 1
3779 8684 1
3780 9 1
3780 561 1
3780 3548 1
3780 3729 1
3780 3901 1
3780 6192 1
3780 6460 1
3780 6667 1
3780 7203 1
3781 2 1
3781 250 1
3781 273 1
3781 1197 1
3781 4021 1
3781 5182 1
3781 5844 1
3781 6613 1
3781 6937 1
3782 18 1
3782 1767 1
3782 2234 1
3782 3137 1
3782 5929 1
3782 6542 1
3782 7291 1
3782 7461 1
3782 8072 1
3783 17 1
3783 146 1
3783 1801 1
3783 2937 1
3783 9336 1
3784 92 1
3784 283 1
3784 634 1
3784 1816 1
3784 4716 1
3784 7404 1
3784 8767 1
3784 9360 1
3785 25 1
3785 809 1
3785 873 1
3785 931 1
3785 5539 1
3785 5615 1
3786 5 1
3786 65 1
3786 1225 1
3786 1390 1
3786 4385 1
3786 6811 1
3786 7622 1
3786 7708 1
3786 9266 1
3786 9828 1
3786 9834 1
3787 18 1
3787 77 1
3787 1336 1
3787 3302 1
3787 4195 1
3787 4377 1
3787 4742 1
3788 42 1
3788 164 1
3788 407 1
3788 1238 1
3788 5955 1
3789 1 1
3789 78 1
3789 81 1
3789 221 1
3789 6310 1
3789 7215 1
3789 7360 1
3789 7839 1
3789 8355 1
3790 243 1
3790 1061 1
3790 1480 1
3790 2900 1
3791 26 1
3791 420 1
3791 608 1
3791 647 1
3791 3986 1
3791 4031 1
3791 6416 1
3791 6516 1
3791 6652 1
3791 8489 1
3791 8893 1
3792 411 1
3792 443 1
3792 499 1
3792 2963 1
3792 8009 1
3793 65 1
3793 258 1
3793 515 1
3793 3769 1
3793 4203 1
3793 4707 1
3793 5992 1
3793 7995 1
3793 8410 1
3794 28 1
3794 465 1
3794 665 1
3794 771 1
3794 3923 1
3794 4981 1
3794 8592 1
3795 447 1
3795 2025 1
3795 2117 1
3795 3617 1
3795 4507 1
3795 4760 1
3795 9867 1
3796 865 1
3796 1331 1
3796 2330 1
3796 3161 1
3796 8099 1
3796 9456 1
3796 9688 1
3797 21 1
3797 442 1
3797 692 1
3797 2462 1
3797 4529 1
3797 4611 1
3797 7130 1
3797 7804 1
3797 8098 1
3798 250 1
3798 509 1
3798 1293 1
3798 1402 1
3798 4053 1
3798 8522 1
3798 8604 1
3799 305 1
3799 964 1
3799 2889 1
3799 3104 1
3800 17 1
3800 53 1
3800 84 1
3800 258 1
3801 21 1
3801 66 1
3801 171 1
3801 1356 1
3802 1 1
3802 11 1
3802 835 1
3802 1269 1
3802 4135 1
3802 4808 1
3802 7018 1
3802 7830 1
3802 9226 1
3803 327 1
3803 1593 1
3803 1922 1
3803 2136 1
3803 4373 1
3803 8724 1
3803 9317 1
3804 97 1
3804 181 1
3804 436 1
3804 666 1
3804 5958 1
3804 7041 1
3804 9510 1
3805 223 1
3805 665 1
3805 1429 1
3805 2337 1
3805 5336 1
3805 6347 1
3805 6722 1
3805 7974 1
3805 9279 1
3806 1085 1
3806 2554 1
3806 3134 1
3806 3632 1
3807 1159 1
3807 1218 1
3807 2292 1
3807 3489 1
3807 4772 1
3808 1982 1
3808 3009 1
3808 3049 1
3808 3162 1
3808 6020 1
3809 323 1
3809 2022 1
3809 3263 1
3809 3708 1
3809 4005 1
3809 8042 1
3810 217 1
3810 1318 1
3810 2395 1
3810 2483 1
3810 3889 1
3810 4198 1
3810 4623 1
3810 5172 1
3810 5691 1
3810 5910 1
3810 6586 1
3810 9047 1
3811 547 1
3811 971 1
3811 1350 1
3811 2930 1
3811 4182 1
3811 4963 1
3811 4967 1
3811 7676 1
3811 8305 1
3812 210 1
3812 703 1
3812 1176 1
3812 1182 1
3812 4813 1
3812 5653 1
3812 9252 1
3813 18 1
3813 1293 1
3813 1571 1
3813 2657 1
3813 6778 1
3814 782 1
3814 793 1
3814 1578 1
3814 3289 1
3814 7281 1
3815 146 1
3815 235 1
3815 334 1
3815 2958 1
3816 25 1
3816 80 1
3816 126 1
3816 3355 1
3817 220 1
3817 428 1
3817 910 1
3817 2404 1
3817 4919 1
3818 1620 1
3818 1767 1
3818 2059 1
3818 3193 1
3818 4272 1
3818 4534 1
3818 5167 1
3818 7066 1
3819 219 1
3819 795 1
3819 1718 1
3819 1846 1
3819 9333 1
3820 5 1
3820 189 1
3820 669 1
3820 3549 1
3820 6508 1
3821 542 1
3821 1587 1
3821 2006 1
3821 3287 1
3821 5503 1
3821 6817 1
3821 7090 1
3821 8685 1
3822 25 1
3822 107 1
3822 1257 1
3822 2996 1
3822 6445 1
3822 8185 1
3822 8393 1
3823 241 1
3823 273 1
3823 560 1
3823 3076 1
3824 36 1
3824 89 1
3824 225 1
3824 1070 1
3824 6358 1
3824 8054 1
3825 33 1
3825 227 1
3825 1274 1
3825 3056 1
3825 4297 1
3825 5033 1
3825 7419 1
3825 8342 1
3826 4 1
3826 298 1
3826 2169 1
3826 2312 1
3826 5342 1
3826 7165 1
3826 9592 1
3827 282 1
3827 2169 1
3827 2647 1
3827 3390 1
3827 5197 1
3827 5346 1
3827 7516 1
3827 8771 1
3828 755 1
3828 827 1
3828 1737 1
3828 2837 1
3828 4158 1
3828 4831 1
3828 6434 1
3828 7309 1
3828 9797 1
3829 78 1
3829 988 1
3829 1500 1
3829 3518 1
3829 7208 1
3829 8424 1
3830 642 1
3830 1781 1
3830 2931 1
3830 3249 1
3830 4868 1
3831 642 1
3831 1023 1
3831 1514 1
3831 2658 1
3831 6006 1
3831 9191 1
3832 277 1
3832 365 1
3832 806 1
3832 3522 1
3833 101 1
3833 523 1
3833 1714 1
3833 3550 1
3833 5070 1
3833 5475 1
3833 6582 1
3833 9323 1
3834 81 1
3834 89 1
3834 2281 1
3834 2677 1
3834 4139 1
3834 4708 1
3834 4713 1
3834 5302 1
3834 6647 1
3834 7174 1
3835 34 1
3835 261 1
3835 1122 1
3835 3062 1
3835 5010 1
3835 5390 1
3836 87 1
3836 306 1
3836 1102 1
3836 2993 1
3836 4288 1
3836 6134 1
3836 8606 1
3837 1 1
3837 1618 1
3837 1668 1
3837 2116 1
3837 7615 1
3838 49 1
3838 158 1
3838 1996 1
3838 2179 1
3838 3871 1
3838 4144 1
3838 5986 1
3839 59 1
3839 161 1
3839 629 1
3839 2191 1
3839 4907 1
3839 6248 1
3839 7543 1
3839 8291 1
3840 10 1
3840 1318 1
3840 1429 1
3840 2085 1
3840 6616 1
3841 3 1
3841 18 1
3841 244 1
3841 2690 1
3841 4148 1
3841 4325 1
3841 5972 1
3841 6659 1
3842 378 1
3842 731 1
3842 2943 1
3842 3264 1
3842 3989 1
3842 5032 1
3842 5216 1
3842 5603 1
3842 5630 1
3842 8577 1
3842 9621 1
3842 9927 1
3843 427 1
3843 1250 1
3843 1727 1
3843 3185 1
3843 8004 1
3843 8057 1
3844 76 1
3844 620 1
3844 692 1
3844 3601 1
3844 5213 1
3844 5411 1
3844 6059 1
3844 7636 1
3844 7679 1
3844 7901 1
3844 8098 1
3844 8318 1
3844 9484 1
3845 289 1
3845 402 1
3845 753 1
3845 1019 1
3845 5569 1
3845 5807 1
3845 6396 1
3845 7074 1
3845 9851 1
3846 338 1
3846 1064 1
3846 1134 1
3846 2027 1
3846 4616 1
3846 6332 1
3846 7364 1
3847 4 1
3847 24 1
3847 913 1
3847 1284 1
3847 5326 1
3848 20 1
3848 51 1
3848 386 1
3848 956 1
3848 4086 1
3848 8609 1
3849 49 1
3849 89 1
3849 395 1
3849 524 1
3849 6252 1
3850 55 1
3850 675 1
3850 1189 1
3850 1855 1
3850 4816 1
3850 5629 1
3851 25 1
3851 187 1
3851 309 1
3851 610 1
3851 5196 1
3851 6536 1
3852 126 1
3852 566 1
3852 830 1
3852 3078 1
3852 8468 1
3853 25 1
3853 1272 1
3853 2666 1
3853 3757 1
3854 40 1
3854 1525 1
3854 2220 1
3854 3309 1
3854 5391 1
3854 7391 1
3855 6 1
3855 377 1
3855 941 1
3855 1685 1
3856 369 1
3856 906 1
3856 1466 1
3856 3439 1
3857 2 1
3857 779 1
3857 2313 1
3857 3142 1
3857 7506 1
3858 351 1
3858 1657 1
3858 1850 1
3858 3035 1
3858 5087 1
3858 6212 1
3858 6729 1
3858 8994 1
3858 9935 1
3859 467 1
3859 720 1
3859 2547 1
3859 3067 1
3859 4216 1
3859 5592 1
3859 7732 1
3860 57 1
3860 1323 1
3860 2182 1
3860 2929 1
3860 3979 1
3860 4619 1
3860 4768 1
3860 6808 1
3860 8303 1
3860 9450 1
3861 17 1
3861 1029 1
3861 1268 1
3861 2792 1
3861 6917 1
3861 7735 1
3862 1323 1
3862 1610 1
3862 3044 1
3862 3337 1
3862 6242 1
3862 6828 1
3862 6902 1
3862 7542 1
3862 9857 1
3863 52 1
3863 1431 1
3863 2299 1
3863 2539 1
3863 6685 1
3864 19 1
3864 851 1
3864 2172 1
3864 2421 1
3864 5206 1
3864 5723 1
3864 6731 1
3864 7267 1
3864 9590 1
3865 1068 1
3865 1764 1
3865 2418 1
3865 3160 1
3865 6015 1
3866 9 1
3866 210 1
3866 353 1
3866 452 1
3866 8142 1
3866 9369 1
3867 1069 1
3867 1116 1
3867 1168 1
3867 1236 1
3867 5242 1
3867 8039 1
3868 42 1
3868 643 1
3868 848 1
3868 1758 1
3868 7010 1
3869 4 1
3869 610 1
3869 699 1
3869 3314 1
3870 598 1
3870 914 1
3870 2715 1
3870 2978 1
3870 4501 1
3870 6554 1
3871 89 1
3871 2535 1
3871 2746 1
3871 3838 1
3871 4144 1
3872 1280 1
3872 2180 1
3872 2749 1
3872 2929 1
3872 4619 1
3872 7553 1
3873 825 1
3873 2151 1
3873 3085 1
3873 3164 1
3873 6135 1
3873 6606 1
3873 8883 1
3874 34 1
3874 283 1
3874 1738 1
3874 3098 1
3874 6583 1
3874 7132 1
3875 259 1
3875 467 1
3875 3347 1
3875 3721 1
3875 4213 1
3875 8594 1
3876 137 1
3876 2651 1
3876 2865 1
3876 3522 1
3876 7131 1
3876 7572 1
3877 54 1
3877 393 1
3877 562 1
3877 951 1
3877 3893 1
3877 4837 1
3877 5084 1
3877 5525 1
3877 5527 1
3877 8939 1
3878 153 1
3878 1195 1
3878 2434 1
3878 3420 1
3879 20 1
3879 89 1
3879 107 1
3879 3173 1
3879 4232 1
3880 33 1
3880 82 1
3880 1702 1
3880 3637 1
3880 4449 1
3880 5035 1
3880 5133 1
3880 8020 1
3881 153 1
3881 683 1
3881 1195 1
3881 1714 1
3881 4487 1
3881 5854 1
3881 9788 1
3882 257 1
3882 2607 1
3882 2879 1
3882 3354 1
3882 4999 1
3882 5039 1
3882 5892 1
3882 6041 1
3882 7550 1
3882 8949 1
3883 348 1
3883 1965 1
3883 2666 1
3883 2903 1
3883 4769 1
3883 5589 1
3883 8616 1
3883 9328 1
3884 1 1
3884 97 1
3884 837 1
3884 1547 1
3885 54 1
3885 1301 1
3885 1373 1
3885 3207 1
3886 132 1
3886 157 1
3886 866 1
3886 920 1
3886 3987 1
3887 1 1
3887 283 1
3887 602 1
3887 1356 1
3887 8137 1
3888 2898 1
3888 3196 1
3888 3250 1
3888 3589 1
3888 6737 1
3889 17 1
3889 379 1
3889 2395 1
3889 3810 1
3889 9047 1
3890 6 1
3890 11 1
3890 2404 1
3890 3178 1
3890 5661 1
3890 8612 1
3891 369 1
3891 1626 1
3891 3179 1
3891 3446 1
3891 7317 1
3891 9526 1
3892 26 1
3892 131 1
3892 196 1
3892 2238 1
3892 4625 1
3893 27 1
3893 64 1
3893 587 1
3893 3877 1
3893 4332 1
3893 7232 1
3894 5 1
3894 81 1
3894 92 1
3894 532 1
3894 4539 1
3894 5666 1
3894 7127 1
3894 9760 1
3895 2 1
3895 2388 1
3895 2444 1
3895 3666 1
3896 33 1
3896 52 1
3896 698 1
3896 2156 1
3897 257 1
3897 697 1
3897 1058 1
3897 2421 1
3897 4915 1
3897 5193 1
3897 5916 1
3897 6668 1
3897 6964 1
3897 8408 1
3897 9842 1
3898 146 1
3898 1735 1
3898 2745 1
3898 2988 1
3898 7376 1
3898 8813 1
3899 937 1
3899 2162 1
3899 3669 1
3899 3777 1
3899 6431 1
3899 8871 1
3900 21 1
3900 65 1
3900 935 1
3900 2115 1
3900 5764 1
3900 7986 1
3900 9385 1
3901 561 1
3901 967 1
3901 3548 1
3901 3780 1
3901 7203 1
3901 8182 1
3902 706 1
3902 812 1
3902 1257 1
3902 1870 1
3902 4888 1
3902 6644 1
3903 170 1
3903 693 1
3903 983 1
3903 2590 1
3904 359 1
3904 887 1
3904 1112 1
3904 3131 1
3904 3922 1
3905 162 1
3905 2291 1
3905 3208 1
3905 3378 1
3905 4340 1
3905 6318 1
3905 6687 1
3905 8336 1
3906 11 1
3906 145 1
3906 981 1
3906 3306 1
3906 4357 1
3906 9444 1
3907 809 1
3907 1030 1
3907 1613 1
3907 2802 1
3907 5065 1
3907 7792 1
3907 7797 1
3907 8297 1
3908 53 1
3908 1994 1
3908 2529 1
3908 3241 1
3908 8557 1
3908 9043 1
3909 1 1
3909 396 1
3909 711 1
3909 2347 1
3909 4332 1
3909 5074 1
3909 8302 1
3910 1612 1
3910 1703 1
3910 1927 1
3910 3288 1
3910 4154 1
3910 4498 1
3910 5960 1
3910 7020 1
3910 9139 1
3911 2298 1
3911 2351 1
3911 3203 1
3911 3247 1
3911 4470 1
3911 6209 1
3911 7413 1
3912 9 1
3912 84 1
3912 523 1
3912 3419 1
3912 5179 1
3912 8663 1
3913 297 1
3913 2084 1
3913 2899 1
3913 3505 1
3913 6424 1
3913 7221 1
3913 9323 1
3914 39 1
3914 147 1
3914 470 1
3914 2252 1
3914 4740 1
3914 4849 1
3914 4929 1
3915 2 1
3915 27 1
3915 828 1
3915 2779 1
3915 4633 1
3915 6991 1
3915 8245 1
3916 1042 1
3916 1389 1
3916 2818 1
3916 2927 1
3916 4022 1
3916 4605 1
3916 7275 1
3917 60 1
3917 89 1
3917 303 1
3917 965 1
3918 10 1
3918 174 1
3918 1300 1
3918 2231 1
3918 4866 1
3918 5108 1
3919 66 1
3919 190 1
3919 246 1
3919 892 1
3920 74 1
3920 489 1
3920 1492 1
3920 2625 1
3921 353 1
3921 379 1
3921 2881 1
3921 3428 1
3921 3945 1
3921 8995 1
3922 10 1
3922 41 1
3922 3412 1
3922 3904 1
3922 4301 1
3922 6263 1
3922 8409 1
3923 682 1
3923 737 1
3923 2502 1
3923 3794 1
3923 4981 1
3923 5004 1
3923 9016 1
3924 1738 1
3924 2969 1
3924 2985 1
3924 3016 1
3924 4412 1
3924 8349 1
3924 9401 1
3924 9981 1
3925 337 1
3925 2059 1
3925 2749 1
3925 3289 1
3925 4032 1
3925 5029 1
3925 5774 1
3925 9729 1
3926 1 1
3926 68 1
3926 1247 1
3926 3275 1
3926 9486 1
3927 201 1
3927 756 1
3927 1305 1
3927 3314 1
3927 5954 1
3927 9550 1
3928 25 1
3928 238 1
3928 1110 1
3928 3398 1
3928 4526 1
3928 5985 1
3928 9388 1
3929 73 1
3929 258 1
3929 1832 1
3929 3210 1
3929 5520 1
3929 6759 1
3929 7583 1
3930 2 1
3930 320 1
3930 589 1
3930 2274 1
3930 5388 1
3930 7386 1
3931 2 1
3931 820 1
3931 1199 1
3931 1449 1
3931 7375 1
3931 7455 1
3931 7887 1
3932 579 1
3932 1149 1
3932 2651 1
3932 3563 1
3933 61 1
3933 1500 1
3933 1710 1
3933 2568 1
3933 9119 1
3934 5 1
3934 802 1
3934 1523 1
3934 3680 1
3935 9 1
3935 66 1
3935 1890 1
3935 3009 1
3935 5472 1
3935 7113 1
3935 7975 1
3936 17 1
3936 128 1
3936 202 1
3936 1123 1
3936 5731 1
3937 82 1
3937 85 1
3937 705 1
3937 869 1
3937 4888 1
3937 6703 1
3937 7299 1
3938 1 1
3938 41 1
3938 205 1
3938 585 1
3938 6663 1
3938 6682 1
3938 8782 1
3939 18 1
3939 1488 1
3939 2368 1
3939 3603 1
3939 5582 1
3939 8097 1
3940 11 1
3940 67 1
3940 305 1
3940 3509 1
3940 5849 1
3941 238 1
3941 1017 1
3941 1874 1
3941 3395 1
3941 6580 1
3942 4 1
3942 50 1
3942 438 1
3942 2533 1
3942 4945 1
3942 5211 1
3942 7534 1
3942 7946 1
3943 4 1
3943 145 1
3943 1204 1
3943 3659 1
3943 7359 1
3944 411 1
3944 443 1
3944 1119 1
3944 2161 1
3944 9371 1
3944 9396 1
3945 163 1
3945 2251 1
3945 2881 1
3945 3921 1
3945 4792 1
3945 7517 1
3946 203 1
3946 421 1
3946 1124 1
3946 2730 1
3947 587 1
3947 1122 1
3947 1483 1
3947 3170 1
3947 4504 1
3947 8209 1
3947 8258 1
3947 8359 1
3948 33 1
3948 227 1
3948 243 1
3948 3691 1
3949 345 1
3949 747 1
3949 1987 1
3949 3195 1
3949 4954 1
3949 9782 1
3950 17 1
3950 130 1
3950 322 1
3950 3109 1
3950 9372 1
3951 49 1
3951 741 1
3951 1320 1
3951 3090 1
3951 4207 1
3951 5752 1
3951 9519 1
3952 402 1
3952 547 1
3952 1528 1
3952 2665 1
3953 18 1
3953 52 1
3953 397 1
3953 1881 1
3954 915 1
3954 1371 1
3954 1550 1
3954 3156 1
3954 8592 1
3955 1 1
3955 174 1
3955 856 1
3955 3309 1
3956 1089 1
3956 1571 1
3956 1932 1
3956 2018 1
3956 4215 1
3956 5072 1
3956 7110 1
3956 7388 1
3956 8140 1
3957 9 1
3957 51 1
3957 163 1
3957 2889 1
3958 225 1
3958 542 1
3958 2289 1
3958 3607 1
3958 4882 1
3958 5201 1
3958 6642 1
3958 6850 1
3958 8551 1
3959 814 1
3959 1530 1
3959 1715 1
3959 3657 1
3959 6532 1
3959 6773 1
3959 9883 1
3960 134 1
3960 385 1
3960 1137 1
3960 2041 1
3960 9857 1
3961 498 1
3961 677 1
3961 3286 1
3961 3352 1
3962 415 1
3962 2282 1
3962 2361 1
3962 2811 1
3962 4417 1
3962 5757 1
3963 2 1
3963 17 1
3963 406 1
3963 1690 1
3963 4771 1
3963 5158 1
3963 5215 1
3963 6639 1
3963 7245 1
3963 7298 1
3963 8452 1
3963 9615 1
3964 730 1
3964 1041 1
3964 1487 1
3964 1620 1
3965 2 1
3965 772 1
3965 3217 1
3965 3237 1
3965 6669 1
3965 7756 1
3965 8933 1
3966 89 1
3966 90 1
3966 1284 1
3966 2319 1
3966 5832 1
3966 6518 1
3967 380 1
3967 990 1
3967 2428 1
3967 2829 1
3967 5266 1
3968 89 1
3968 2493 1
3968 3088 1
3968 3293 1
3968 4587 1
3968 5316 1
3969 883 1
3969 1013 1
3969 2082 1
3969 2207 1
3970 220 1
3970 627 1
3970 1798 1
3970 2161 1
3970 5640 1
3971 426 1
3971 590 1
3971 2497 1
3971 2683 1
3971 5476 1
3971 5567 1
3972 10 1
3972 38 1
3972 3036 1
3972 3339 1
3972 5185 1
3972 9555 1
3973 3 1
3973 564 1
3973 1970 1
3973 3724 1
3973 4257 1
3974 9 1
3974 129 1
3974 421 1
3974 566 1
3974 8147 1
3974 8806 1
3975 104 1
3975 1738 1
3975 2438 1
3975 2841 1
3975 5584 1
3975 5621 1
3975 6638 1
3976 75 1
3976 1454 1
3976 1999 1
3976 3443 1
3976 4634 1
3977 1401 1
3977 1645 1
3977 2297 1
3977 3039 1
3977 4046 1
3977 7258 1
3977 7603 1
3978 251 1
3978 975 1
3978 1658 1
3978 1810 1
3978 4418 1
3978 6398 1
3979 1525 1
3979 1898 1
3979 2929 1
3979 3860 1
3979 4988 1
3980 742 1
3980 1602 1
3980 2787 1
3980 3757 1
3980 4552 1
3980 5650 1
3980 9506 1
3980 9972 1
3981 1202 1
3981 1996 1
3981 2839 1
3981 2900 1
3981 4574 1
3981 5801 1
3981 7623 1
3981 9429 1
3982 26 1
3982 677 1
3982 794 1
3982 3334 1
3982 7057 1
3983 2 1
3983 8 1
3983 171 1
3983 690 1
3983 7718 1
3983 8802 1
3984 180 1
3984 478 1
3984 1602 1
3984 2698 1
3985 25 1
3985 54 1
3985 1002 1
3985 1218 1
3985 4971 1
3985 5438 1
3985 6044 1
3985 6863 1
3985 6920 1
3985 7317 1
3985 8296 1
3985 9944 1
3986 26 1
3986 530 1
3986 1785 1
3986 3791 1
3986 5790 1
3986 6419 1
3986 6798 1
3987 971 1
3987 1382 1
3987 3013 1
3987 3886 1
3987 4525 1
3988 11 1
3988 791 1
3988 2293 1
3988 2578 1
3988 5542 1
3989 707 1
3989 3348 1
3989 3590 1
3989 3842 1
3989 5362 1
3989 7631 1
3990 34 1
3990 762 1
3990 945 1
3990 1622 1
3990 7782 1
3990 8490 1
3990 9275 1
3991 46 1
3991 187 1
3991 2177 1
3991 2882 1
3992 98 1
3992 707 1
3992 1429 1
3992 1458 1
3992 5297 1
3992 6710 1
3992 8521 1
3993 153 1
3993 1090 1
3993 1221 1
3993 3667 1
3993 4379 1
3993 4408 1
3993 5993 1
3993 6125 1
3993 6588 1
3993 7856 1
3993 9018 1
3994 1 1
3994 338 1
3994 1612 1
3994 3702 1
3994 6645 1
3994 9904 1
3995 100 1
3995 862 1
3995 1482 1
3995 2625 1
3995 4746 1
3995 5156 1
3995 5254 1
3995 6206 1
3995 6803 1
3996 317 1
3996 848 1
3996 1572 1
3996 2811 1
3996 4008 1
3996 4222 1
3996 6196 1
3996 7622 1
3997 49 1
3997 216 1
3997 2273 1
3997 2283 1
3997 6236 1
3997 7493 1
3997 7578 1
3998 173 1
3998 182 1
3998 509 1
3998 2657 1
3999 875 1
3999 2091 1
3999 3321 1
3999 3369 1
4000 12 1
4000 17 1
4000 28 1
4000 103 1
4001 65 1
4001 1970 1
4001 3253 1
4001 3265 1
4001 5825 1
4001 6496 1
4002 1 1
4002 25 1
4002 696 1
4002 2922 1
4002 4003 1
4002 4333 1
4002 4647 1
4002 6192 1
4002 6370 1
4002 9517 1
4003 1 1
4003 315 1
4003 3401 1
4003 4002 1
4003 4441 1
4003 5218 1
4003 7331 1
4003 9517 1
4004 4 1
4004 27 1
4004 262 1
4004 2986 1
4004 4797 1
4004 7930 1
4004 8976 1
4004 9551 1
4005 2022 1
4005 2471 1
4005 2755 1
4005 3809 1
4005 8741 1
4006 1937 1
4006 2662 1
4006 3121 1
4006 3727 1
4007 90 1
4007 305 1
4007 581 1
4007 1143 1
4007 5053 1
4007 5081 1
4007 5443 1
4007 7462 1
4007 9459 1
4008 585 1
4008 703 1
4008 2269 1
4008 3996 1
4008 5872 1
4009 25 1
4009 345 1
4009 1451 1
4009 3253 1
4009 5044 1
4009 5153 1
4009 6156 1
4009 6715 1
4009 7112 1
4009 7257 1
4009 8748 1
4009 9922 1
4010 749 1
4010 1134 1
4010 2803 1
4010 3589 1
4010 6411 1
4010 8716 1
4010 9434 1
4011 81 1
4011 841 1
4011 1266 1
4011 1981 1
4011 5103 1
4011 5608 1
4011 7102 1
4012 66 1
4012 229 1
4012 773 1
4012 1094 1
4013 18 1
4013 814 1
4013 1285 1
4013 2883 1
4013 5549 1
4014 60 1
4014 483 1
4014 530 1
4014 804 1
4015 263 1
4015 1547 1
4015 1661 1
4015 2251 1
4016 54 1
4016 710 1
4016 811 1
4016 867 1
4017 33 1
4017 369 1
4017 1164 1
4017 2156 1
4017 4483 1
4017 9719 1
4018 62 1
4018 281 1
4018 845 1
4018 2296 1
4018 6797 1
4019 505 1
4019 542 1
4019 786 1
4019 1513 1
4019 4916 1
4019 4981 1
4019 6030 1
4019 7064 1
4019 8566 1
4019 9219 1
4020 128 1
4020 194 1
4020 350 1
4020 708 1
4020 5911 1
4020 9473 1
4021 1 1
4021 273 1
4021 556 1
4021 3781 1
4021 4535 1
4021 5182 1
4021 5249 1
4022 10 1
4022 91 1
4022 498 1
4022 3916 1
4023 206 1
4023 249 1
4023 2307 1
4023 2530 1
4024 66 1
4024 896 1
4024 1161 1
4024 1261 1
4024 4951 1
4024 8021 1
4025 1470 1
4025 2541 1
4025 2617 1
4025 2725 1
4026 644 1
4026 844 1
4026 858 1
4026 3601 1
4026 4035 1
4026 6172 1
4026 6447 1
4027 262 1
4027 442 1
4027 745 1
4027 1280 1
4027 4751 1
4027 7443 1
4027 9164 1
4027 9722 1
4028 17 1
4028 66 1
4028 1139 1
4028 1211 1
4028 5355 1
4028 6476 1
4028 7945 1
4028 9923 1
4029 1 1
4029 174 1
4029 2314 1
4029 2361 1
4029 7494 1
4030 434 1
4030 1318 1
4030 2085 1
4030 2122 1
4030 4945 1
4030 7066 1
4031 255 1
4031 444 1
4031 608 1
4031 3791 1
4031 8853 1
4032 12 1
4032 393 1
4032 3151 1
4032 3925 1
4033 486 1
4033 2125 1
4033 2613 1
4033 2878 1
4033 4811 1
4033 5098 1
4033 8106 1
4034 750 1
4034 3300 1
4034 3724 1
4034 3745 1
4034 5327 1
4034 6151 1
4035 154 1
4035 217 1
4035 844 1
4035 4026 1
4035 6172 1
4035 6376 1
4035 9010 1
4036 4 1
4036 579 1
4036 1350 1
4036 3365 1
4036 5865 1
4036 9815 1
4037 133 1
4037 226 1
4037 489 1
4037 781 1
4037 4668 1
4037 6061 1
4038 73 1
4038 91 1
4038 820 1
4038 1220 1
4039 231 1
4039 541 1
4039 2086 1
4039 2413 1
4039 4479 1
4039 4761 1
4039 8780 1
4040 74 1
4040 293 1
4040 1647 1
4040 2545 1
4041 761 1
4041 913 1
4041 2346 1
4041 2764 1
4041 5487 1
4041 5895 1
4041 8427 1
4041 8626 1
4042 230 1
4042 251 1
4042 965 1
4042 2867 1
4042 5878 1
4043 462 1
4043 540 1
4043 1732 1
4043 2502 1
4043 4175 1
4043 6416 1
4043 6438 1
4043 8677 1
4043 9740 1
4044 747 1
4044 2713 1
4044 2797 1
4044 3196 1
4044 5106 1
4045 75 1
4045 345 1
4045 521 1
4045 2907 1
4045 4282 1
4045 4453 1
4045 4598 1
4045 6154 1
4045 6687 1
4046 281 1
4046 1036 1
4046 1656 1
4046 3977 1
4046 9045 1
4047 18 1
4047 67 1
4047 889 1
4047 3051 1
4048 3 1
4048 721 1
4048 820 1
4048 1428 1
4048 5902 1
4049 757 1
4049 1225 1
4049 3295 1
4049 3489 1
4049 6607 1
4050 4 1
4050 1643 1
4050 1896 1
4050 2493 1
4051 101 1
4051 3419 1
4051 3541 1
4051 3670 1
4051 9931 1
4052 233 1
4052 1865 1
4052 2957 1
4052 3167 1
4052 4357 1
4052 5507 1
4052 7803 1
4053 19 1
4053 301 1
4053 1147 1
4053 3798 1
4053 5194 1
4053 5856 1
4053 6050 1
4053 6651 1
4053 8967 1
4054 12 1
4054 818 1
4054 880 1
4054 1165 1
4054 6001 1
4054 6500 1
4054 7467 1
4055 10 1
4055 18 1
4055 2280 1
4055 3234 1
4055 4119 1
4056 99 1
4056 738 1
4056 2265 1
4056 3183 1
4056 6924 1
4057 128 1
4057 1325 1
4057 2035 1
4057 2255 1
4058 629 1
4058 987 1
4058 1556 1
4058 2701 1
4058 5925 1
4058 6024 1
4058 6102 1
4058 6633 1
4058 6708 1
4058 9116 1
4058 9140 1
4059 1796 1
4059 2619 1
4059 2636 1
4059 3391 1
4059 8279 1
4060 8 1
4060 75 1
4060 297 1
4060 997 1
4061 89 1
4061 147 1
4061 418 1
4061 2926 1
4061 4878 1
4061 5475 1
4062 9 1
4062 55 1
4062 173 1
4062 1358 1
4063 91 1
4063 113 1
4063 1572 1
4063 1983 1
4063 5041 1
4063 7082 1
4063 8005 1
4064 483 1
4064 572 1
4064 1649 1
4064 3645 1
4065 188 1
4065 396 1
4065 1661 1
4065 2754 1
4065 4098 1
4065 4440 1
4065 4667 1
4065 5030 1
4065 5959 1
4065 6881 1
4065 7530 1
4065 7766 1
4065 9795 1
4066 202 1
4066 417 1
4066 459 1
4066 3245 1
4066 4183 1
4066 4227 1
4066 4980 1
4066 5322 1
4066 6272 1
4066 7464 1
4066 7884 1
4066 8646 1
4066 9158 1
4066 9720 1
4067 2 1
4067 849 1
4067 1590 1
4067 3664 1
4067 5420 1
4067 6253 1
4067 7446 1
4067 8438 1
4067 8741 1
4068 9 1
4068 43 1
4068 261 1
4068 366 1
4068 4576 1
4068 4987 1
4068 6667 1
4068 7156 1
4068 7182 1
4068 8828 1
4068 9844 1
4069 15 1
4069 33 1
4069 286 1
4069 2682 1
4069 5445 1
4069 9704 1
4070 17 1
4070 346 1
4070 1826 1
4070 1939 1
4070 4235 1
4070 5018 1
4070 7091 1
4070 8224 1
4071 27 1
4071 1017 1
4071 1283 1
4071 2749 1
4071 7715 1
4072 1057 1
4072 1523 1
4072 1962 1
4072 2374 1
4072 5115 1
4072 9118 1
4073 10 1
4073 43 1
4073 2176 1
4073 2638 1
4073 6387 1
4074 149 1
4074 177 1
4074 395 1
4074 1525 1
4074 6099 1
4074 7161 1
4074 7706 1
4074 8197 1
4075 3 1
4075 1672 1
4075 2388 1
4075 2848 1
4076 1212 1
4076 1667 1
4076 2589 1
4076 3409 1
4076 5803 1
4077 235 1
4077 310 1
4077 385 1
4077 1957 1
4077 6173 1
4077 8112 1
4077 8236 1
4077 8259 1
4078 323 1
4078 546 1
4078 2075 1
4078 3683 1
4079 60 1
4079 107 1
4079 1180 1
4079 2677 1
4079 8391 1
4079 9738 1
4080 25 1
4080 1791 1
4080 2538 1
4080 2746 1
4080 5283 1
4080 5695 1
4081 263 1
4081 364 1
4081 1684 1
4081 1797 1
4081 5239 1
4081 9739 1
4082 1079 1
4082 1608 1
4082 2356 1
4082 2565 1
4082 6420 1
4082 8173 1
4082 8854 1
4082 9069 1
4082 9515 1
4083 307 1
4083 1394 1
4083 2094 1
4083 3279 1
4083 8041 1
4084 31 1
4084 1858 1
4084 3035 1
4084 3530 1
4084 4906 1
4084 8688 1
4085 14 1
4085 147 1
4085 1185 1
4085 3656 1
4086 14 1
4086 533 1
4086 2716 1
4086 3848 1
4086 8172 1
4087 60 1
4087 1717 1
4087 2032 1
4087 3024 1
4087 4207 1
4087 5779 1
4088 601 1
4088 1154 1
4088 1493 1
4088 2739 1
4089 930 1
4089 1610 1
4089 2004 1
4089 2298 1
4089 6044 1
4089 6791 1
4090 580 1
4090 634 1
4090 652 1
4090 2469 1
4090 9697 1
4091 11 1
4091 1130 1
4091 1241 1
4091 1879 1
4091 4417 1
4091 6048 1
4091 6580 1
4091 6662 1
4091 6857 1
4091 6907 1
4091 7382 1
4091 7420 1
4091 7504 1
4091 8348 1
4091 9211 1
4091 9596 1
4091 9833 1
4092 81 1
4092 116 1
4092 1159 1
4092 1988 1
4092 4352 1
4092 5145 1
4092 8191 1
4092 9489 1
4093 2 1
4093 1641 1
4093 2111 1
4093 2662 1
4094 307 1
4094 2043 1
4094 2052 1
4094 3309 1
4094 6230 1
4094 7009 1
4094 7697 1
4094 9348 1
4095 3 1
4095 205 1
4095 422 1
4095 1588 1
4096 1283 1
4096 1434 1
4096 1996 1
4096 2132 1
4096 4284 1
4097 25 1
4097 163 1
4097 386 1
4097 394 1
4097 4524 1
4098 27 1
4098 258 1
4098 275 1
4098 4065 1
4098 4264 1
4098 4312 1
4098 7351 1
4098 7900 1
4098 8574 1
4099 628 1
4099 907 1
4099 953 1
4099 1541 1
4099 5169 1
4099 6450 1
4099 7651 1
4099 8017 1
4099 8141 1
4100 4 1
4100 89 1
4100 442 1
4100 1419 1
4100 4478 1
4101 2 1
4101 814 1
4101 1157 1
4101 1530 1
4101 9573 1
4102 41 1
4102 230 1
4102 627 1
4102 1628 1
4103 3 1
4103 1949 1
4103 2525 1
4103 2900 1
4104 5 1
4104 417 1
4104 1537 1
4104 1807 1
4104 4997 1
4104 6160 1
4105 938 1
4105 2739 1
4105 3363 1
4105 3766 1
4105 9354 1
4106 2 1
4106 406 1
4106 562 1
4106 3710 1
4106 4213 1
4106 6211 1
4106 6835 1
4107 103 1
4107 169 1
4107 310 1
4107 499 1
4107 5331 1
4107 6368 1
4108 152 1
4108 445 1
4108 1393 1
4108 2558 1
4108 4535 1
4108 7378 1
4108 8371 1
4108 8835 1
4108 9236 1
4109 11 1
4109 48 1
4109 1068 1
4109 2618 1
4109 4752 1
4109 7170 1
4109 8645 1
4109 9730 1
4110 425 1
4110 856 1
4110 1845 1
4110 2644 1
4110 8951 1
4111 28 1
4111 481 1
4111 488 1
4111 3056 1
4112 10 1
4112 82 1
4112 1259 1
4112 1999 1
4113 2042 1
4113 2155 1
4113 2212 1
4113 2329 1
4113 7410 1
4113 9680 1
4114 49 1
4114 154 1
4114 579 1
4114 957 1
4114 8277 1
4114 8806 1
4115 100 1
4115 1807 1
4115 1865 1
4115 2558 1
4115 4905 1
4115 8564 1
4116 483 1
4116 1936 1
4116 3501 1
4116 3534 1
4116 4197 1
4116 5569 1
4116 6176 1
4116 6874 1
4116 7942 1
4117 5 1
4117 9 1
4117 2791 1
4117 3184 1
4117 9005 1
4118 394 1
4118 1305 1
4118 1360 1
4118 1587 1
4118 7555 1
4119 179 1
4119 258 1
4119 1670 1
4119 4055 1
4119 4200 1
4119 4391 1
4120 5 1
4120 61 1
4120 823 1
4120 1174 1
4121 523 1
4121 1658 1
4121 1810 1
4121 2455 1
4121 4171 1
4121 4648 1
4121 4767 1
4121 4857 1
4121 6018 1
4121 9879 1
4122 10 1
4122 65 1
4122 340 1
4122 445 1
4122 4358 1
4122 6706 1
4122 6768 1
4122 6955 1
4122 7480 1
4123 42 1
4123 1668 1
4123 1790 1
4123 2382 1
4123 6428 1
4123 7184 1
4123 7523 1
4124 51 1
4124 1141 1
4124 1563 1
4124 2713 1
4125 11 1
4125 244 1
4125 1247 1
4125 3627 1
4125 5944 1
4126 893 1
4126 1073 1
4126 1486 1
4126 1674 1
4126 4303 1
4126 4873 1
4126 6356 1
4126 7211 1
4126 7503 1
4126 8242 1
4126 9668 1
4127 380 1
4127 885 1
4127 953 1
4127 2370 1
4128 412 1
4128 1255 1
4128 2396 1
4128 3343 1
4128 9734 1
4129 257 1
4129 1556 1
4129 1809 1
4129 2652 1
4129 8685 1
4130 42 1
4130 246 1
4130 636 1
4130 2542 1
4130 4752 1
4130 7293 1
4130 9898 1
4131 10 1
4131 13 1
4131 1470 1
4131 3736 1
4131 4330 1
4131 6777 1
4131 7224 1
4131 8268 1
4131 9052 1
4131 9174 1
4131 9813 1
4131 9892 1
4132 9 1
4132 25 1
4132 297 1
4132 1524 1
4132 4160 1
4132 6100 1
4132 6490 1
4132 9565 1
4133 42 1
4133 163 1
4133 2087 1
4133 3509 1
4133 8580 1
4134 227 1
4134 750 1
4134 1094 1
4134 1770 1
4135 11 1
4135 1129 1
4135 1269 1
4135 3802 1
4135 4198 1
4136 49 1
4136 613 1
4136 859 1
4136 2960 1
4136 7206 1
4137 25 1
4137 131 1
4137 1015 1
4137 1670 1
4137 4582 1
4137 5244 1
4137 6558 1
4137 6755 1
4137 9752 1
4137 9761 1
4137 9831 1
4138 1303 1
4138 1363 1
4138 1495 1
4138 2562 1
4139 43 1
4139 99 1
4139 1428 1
4139 3834 1
4139 4634 1
4139 4677 1
4139 5264 1
4139 6647 1
4139 6711 1
4139 6918 1
4139 8496 1
4140 1082 1
4140 1132 1
4140 1874 1
4140 2130 1
4140 5584 1
4140 6319 1
4140 7035 1
4140 8829 1
4141 10 1
4141 2026 1
4141 2170 1
4141 3028 1
4142 1 1
4142 51 1
4142 661 1
4142 2769 1
4143 161 1
4143 965 1
4143 2299 1
4143 2670 1
4144 282 1
4144 742 1
4144 3838 1
4144 3871 1
4145 41 1
4145 777 1
4145 922 1
4145 2820 1
4145 4247 1
4145 5239 1
4146 9 1
4146 60 1
4146 769 1
4146 2660 1
4146 4274 1
4146 8395 1
4146 8396 1
4147 61 1
4147 557 1
4147 3390 1
4147 3675 1
4147 5791 1
4147 6145 1
4148 428 1
4148 430 1
4148 1377 1
4148 3841 1
4148 5730 1
4149 4 1
4149 210 1
4149 891 1
4149 2857 1
4149 4395 1
4149 5866 1
4149 9033 1
4150 60 1
4150 397 1
4150 586 1
4150 1067 1
4150 7757 1
4151 21 1
4151 1122 1
4151 2639 1
4151 3441 1
4152 1 1
4152 4 1
4152 83 1
4152 1013 1
4152 5920 1
4152 9441 1
4152 9737 1
4153 9 1
4153 116 1
4153 1363 1
4153 2508 1
4153 5685 1
4153 6974 1
4153 8670 1
4154 81 1
4154 757 1
4154 3278 1
4154 3910 1
4154 7196 1
4154 7744 1
4154 8560 1
4154 9306 1
4155 77 1
4155 182 1
4155 189 1
4155 3195 1
4155 5078 1
4155 5100 1
4155 7235 1
4155 7713 1
4156 4 1
4156 777 1
4156 1874 1
4156 2473 1
4156 4602 1
4156 4643 1
4156 6408 1
4156 8447 1
4157 17 1
4157 517 1
4157 2186 1
4157 3610 1
4157 8715 1
4157 9177 1
4157 9651 1
4158 12 1
4158 2047 1
4158 2939 1
4158 3828 1
4158 9641 1
4159 62 1
4159 128 1
4159 145 1
4159 1331 1
4159 5949 1
4159 6568 1
4159 8099 1
4159 9977 1
4160 745 1
4160 2030 1
4160 2267 1
4160 4132 1
4160 6609 1
4161 418 1
4161 480 1
4161 1400 1
4161 3777 1
4161 5679 1
4161 6392 1
4161 8703 1
4161 9240 1
4162 105 1
4162 189 1
4162 786 1
4162 1926 1
4162 7906 1
4163 4 1
4163 8 1
4163 1157 1
4163 1589 1
4163 5041 1
4163 6566 1
4164 541 1
4164 721 1
4164 860 1
4164 2173 1
4165 78 1
4165 2769 1
4165 3579 1
4165 3628 1
4165 5051 1
4166 853 1
4166 2827 1
4166 3001 1
4166 3038 1
4166 4677 1
4167 6 1
4167 932 1
4167 1355 1
4167 1715 1
4167 5393 1
4167 5624 1
4167 6804 1
4167 8164 1
4167 9011 1
4168 210 1
4168 308 1
4168 1349 1
4168 1526 1
4169 29 1
4169 771 1
4169 1189 1
4169 1201 1
4169 5969 1
4169 9301 1
4170 141 1
4170 377 1
4170 1304 1
4170 2216 1
4170 6603 1
4171 38 1
4171 360 1
4171 1359 1
4171 4121 1
4171 5585 1
4172 25 1
4172 354 1
4172 452 1
4172 3026 1
4172 5433 1
4173 9 1
4173 591 1
4173 1307 1
4173 3493 1
4173 4237 1
4173 4652 1
4173 4783 1
4173 5667 1
4173 5824 1
4173 9802 1
4173 9859 1
4174 788 1
4174 1427 1
4174 1881 1
4174 3063 1
4174 4347 1
4174 7899 1
4175 20 1
4175 211 1
4175 670 1
4175 4043 1
4175 8267 1
4176 1 1
4176 147 1
4176 481 1
4176 684 1
4176 5591 1
4176 6926 1
4176 7718 1
4176 8744 1
4177 113 1
4177 462 1
4177 2076 1
4177 2803 1
4177 6130 1
4177 7316 1
4177 8146 1
4178 570 1
4178 572 1
4178 665 1
4178 2139 1
4178 6256 1
4179 27 1
4179 329 1
4179 1295 1
4179 2255 1
4179 4974 1
4179 5071 1
4179 6157 1
4179 7344 1
4180 89 1
4180 230 1
4180 308 1
4180 1384 1
4180 4434 1
4180 7358 1
4180 8925 1
4180 9933 1
4181 76 1
4181 915 1
4181 1572 1
4181 1770 1
4181 5094 1
4181 5334 1
4181 8376 1
4181 8675 1
4181 8943 1
4182 81 1
4182 1241 1
4182 1350 1
4182 3811 1
4182 8355 1
4182 8472 1
4182 9664 1
4183 19 1
4183 459 1
4183 883 1
4183 4066 1
4183 7144 1
4183 8557 1
4184 414 1
4184 790 1
4184 1283 1
4184 1451 1
4184 4468 1
4184 5165 1
4184 8132 1
4185 59 1
4185 1428 1
4185 3510 1
4185 3548 1
4185 4908 1
4186 237 1
4186 324 1
4186 1041 1
4186 2622 1
4186 5454 1
4186 5846 1
4186 7186 1
4187 1579 1
4187 2186 1
4187 2577 1
4187 3341 1
4187 4615 1
4187 8407 1
4187 8613 1
4188 768 1
4188 787 1
4188 1114 1
4188 1119 1
4188 4638 1
4188 6002 1
4188 9170 1
4189 11 1
4189 464 1
4189 594 1
4189 3151 1
4189 6692 1
4190 28 1
4190 412 1
4190 465 1
4190 938 1
4190 6162 1
4190 6262 1
4190 7835 1
4191 467 1
4191 707 1
4191 2026 1
4191 2190 1
4191 5138 1
4191 6277 1
4192 4 1
4192 979 1
4192 2427 1
4192 2914 1
4192 5480 1
4192 7779 1
4192 9084 1
4192 9386 1
4193 33 1
4193 515 1
4193 794 1
4193 2610 1
4193 4910 1
4193 5407 1
4193 5976 1
4193 6225 1
4193 7838 1
4194 626 1
4194 1020 1
4194 1684 1
4194 2418 1
4194 4749 1
4194 5166 1
4194 6873 1
4195 329 1
4195 1809 1
4195 2074 1
4195 3787 1
4196 1202 1
4196 1250 1
4196 3097 1
4196 3251 1
4196 4910 1
4196 6385 1
4196 7319 1
4196 8944 1
4196 9229 1
4196 9347 1
4197 5 1
4197 21 1
4197 60 1
4197 4116 1
4197 4475 1
4197 5569 1
4197 6701 1
4197 7405 1
4197 8834 1
4197 8971 1
4197 9909 1
4198 515 1
4198 1042 1
4198 3810 1
4198 4135 1
4198 5090 1
4198 7700 1
4199 36 1
4199 1714 1
4199 1855 1
4199 3705 1
4200 354 1
4200 2043 1
4200 2326 1
4200 4119 1
4200 6058 1
4201 215 1
4201 281 1
4201 1211 1
4201 3394 1
4201 4640 1
4201 4867 1
4201 4899 1
4201 6451 1
4201 9154 1
4202 306 1
4202 1150 1
4202 2506 1
4202 3070 1
4202 4846 1
4202 8921 1
4203 55 1
4203 428 1
4203 784 1
4203 3793 1
4203 6680 1
4203 9821 1
4204 54 1
4204 1701 1
4204 2002 1
4204 3619 1
4204 7295 1
4205 259 1
4205 696 1
4205 2275 1
4205 2751 1
4205 5061 1
4205 8119 1
4205 9675 1
4206 21 1
4206 180 1
4206 860 1
4206 1478 1
4206 9549 1
4207 720 1
4207 3090 1
4207 3951 1
4207 4087 1
4207 5752 1
4207 8760 1
4208 154 1
4208 311 1
4208 1555 1
4208 2084 1
4208 5091 1
4209 462 1
4209 2292 1
4209 2684 1
4209 3428 1
4209 4807 1
4209 8519 1
4209 9706 1
4210 2 1
4210 14 1
4210 243 1
4210 715 1
4210 4428 1
4210 5141 1
4210 5763 1
4210 5850 1
4210 6836 1
4210 7903 1
4211 1281 1
4211 2529 1
4211 2954 1
4211 3159 1
4211 4230 1
4212 49 1
4212 637 1
4212 914 1
4212 2675 1
4212 5308 1
4213 370 1
4213 980 1
4213 3875 1
4213 4106 1
4213 5510 1
4214 526 1
4214 865 1
4214 2787 1
4214 3635 1
4214 9415 1
4215 164 1
4215 340 1
4215 1089 1
4215 3956 1
4215 4306 1
4215 5072 1
4215 5404 1
4215 6673 1
4215 8406 1
4215 9342 1
4216 6 1
4216 65 1
4216 403 1
4216 3859 1
4216 5553 1
4217 310 1
4217 406 1
4217 1283 1
4217 3661 1
4217 7369 1
4217 8577 1
4217 9156 1
4217 9712 1
4218 49 1
4218 178 1
4218 2127 1
4218 2637 1
4218 7255 1
4218 8499 1
4219 35 1
4219 197 1
4219 1305 1
4219 1916 1
4219 8258 1
4220 35 1
4220 161 1
4220 171 1
4220 202 1
4220 9824 1
4221 172 1
4221 474 1
4221 525 1
4221 2397 1
4222 317 1
4222 848 1
4222 1572 1
4222 3996 1
4222 4427 1
4222 6723 1
4223 1 1
4223 265 1
4223 805 1
4223 1839 1
4223 4252 1
4223 4819 1
4223 8086 1
4223 8986 1
4224 31 1
4224 738 1
4224 1585 1
4224 2207 1
4224 4392 1
4224 4734 1
4225 366 1
4225 641 1
4225 733 1
4225 3379 1
4225 5661 1
4226 142 1
4226 251 1
4226 1756 1
4226 3574 1
4227 33 1
4227 202 1
4227 2681 1
4227 4066 1
4227 7005 1
4227 7464 1
4228 73 1
4228 268 1
4228 618 1
4228 3531 1
4228 5888 1
4229 2 1
4229 1851 1
4229 2714 1
4229 3108 1
4229 9525 1
4230 425 1
4230 1281 1
4230 1626 1
4230 4211 1
4230 6383 1
4231 311 1
4231 533 1
4231 541 1
4231 3582 1
4231 9721 1
4232 1787 1
4232 1986 1
4232 3173 1
4232 3879 1
4232 6075 1
4233 81 1
4233 1269 1
4233 1293 1
4233 2275 1
4233 5045 1
4233 5601 1
4233 5870 1
4233 6788 1
4234 487 1
4234 645 1
4234 2568 1
4234 3642 1
4235 66 1
4235 1225 1
4235 1939 1
4235 4070 1
4235 7136 1
4236 23 1
4236 715 1
4236 1283 1
4236 3012 1
4236 8250 1
4236 9426 1
4237 259 1
4237 573 1
4237 1307 1
4237 4173 1
4237 4423 1
4237 7305 1
4237 8487 1
4238 627 1
4238 968 1
4238 1463 1
4238 2391 1
4238 4575 1
4238 5128 1
4239 164 1
4239 185 1
4239 439 1
4239 626 1
4240 9 1
4240 585 1
4240 707 1
4240 2434 1
4241 881 1
4241 908 1
4241 1010 1
4241 1397 1
4242 641 1
4242 2538 1
4242 2769 1
4242 3704 1
4242 6770 1
4242 6995 1
4243 684 1
4243 1358 1
4243 2542 1
4243 3685 1
4243 4725 1
4243 5423 1
4243 6816 1
4244 30 1
4244 210 1
4244 638 1
4244 2378 1
4245 587 1
4245 2137 1
4245 2416 1
4245 2491 1
4245 5642 1
4246 964 1
4246 1783 1
4246 2122 1
4246 3107 1
4246 4388 1
4246 5946 1
4246 7944 1
4247 179 1
4247 1486 1
4247 3313 1
4247 4145 1
4248 1057 1
4248 1446 1
4248 2041 1
4248 2079 1
4248 5532 1
4248 7034 1
4248 7571 1
4249 18 1
4249 75 1
4249 276 1
4249 1865 1
4249 5395 1
4249 8007 1
4249 9875 1
4250 25 1
4250 44 1
4250 63 1
4250 89 1
4250 5383 1
4250 7051 1
4250 8163 1
4250 8705 1
4251 2 1
4251 396 1
4251 886 1
4251 1851 1
4251 4618 1
4251 4890 1
4251 6137 1
4251 7730 1
4251 7879 1
4251 9745 1
4252 11 1
4252 541 1
4252 1567 1
4252 4223 1
4252 4819 1
4252 6898 1
4252 8986 1
4253 49 1
4253 158 1
4253 865 1
4253 1468 1
4253 4982 1
4253 5230 1
4253 7971 1
4254 60 1
4254 2215 1
4254 2413 1
4254 2864 1
4255 118 1
4255 651 1
4255 1395 1
4255 1676 1
4256 147 1
4256 699 1
4256 1522 1
4256 2347 1
4257 9 1
4257 144 1
4257 3724 1
4257 3973 1
4257 7152 1
4257 7609 1
4257 9005 1
4258 74 1
4258 1001 1
4258 1363 1
4258 1762 1
4258 6323 1
4258 7734 1
4259 1082 1
4259 2124 1
4259 2130 1
4259 2900 1
4259 5089 1
4259 8123 1
4259 9466 1
4259 9942 1
4260 132 1
4260 553 1
4260 1731 1
4260 1821 1
4260 4309 1
4260 4533 1
4260 6112 1
4260 9671 1
4261 513 1
4261 1383 1
4261 1818 1
4261 2637 1
4261 6949 1
4261 6975 1
4261 7298 1
4262 408 1
4262 716 1
4262 1704 1
4262 3636 1
4263 146 1
4263 1465 1
4263 3506 1
4263 3686 1
4263 5330 1
4263 5670 1
4263 6048 1
4263 8155 1
4264 1788 1
4264 1815 1
4264 2339 1
4264 4098 1
4265 1386 1
4265 2539 1
4265 2564 1
4265 2605 1
4265 4896 1
4265 5078 1
4266 236 1
4266 1017 1
4266 2314 1
4266 3524 1
4266 7043 1
4266 7140 1
4266 9374 1
4266 9877 1
4267 372 1
4267 1390 1
4267 1994 1
4267 3610 1
4267 4503 1
4267 4550 1
4267 7427 1
4267 8888 1
4268 249 1
4268 643 1
4268 2102 1
4268 3628 1
4268 9723 1
4269 11 1
4269 18 1
4269 466 1
4269 1693 1
4269 4704 1
4269 8444 1
4269 8757 1
4270 38 1
4270 116 1
4270 163 1
4270 2151 1
4270 4484 1
4270 4976 1
4270 5868 1
4271 174 1
4271 1657 1
4271 2436 1
4271 3078 1
4271 6665 1
4271 7579 1
4271 8997 1
4271 9828 1
4272 123 1
4272 1041 1
4272 1620 1
4272 3818 1
4272 7857 1
4272 8763 1
4272 9101 1
4272 9653 1
4273 89 1
4273 434 1
4273 1154 1
4273 1954 1
4273 5688 1
4273 7242 1
4273 7593 1
4273 8014 1
4273 9776 1
4274 60 1
4274 769 1
4274 1041 1
4274 4146 1
4275 57 1
4275 97 1
4275 1073 1
4275 1415 1
4275 4294 1
4275 4403 1
4275 4791 1
4275 8697 1
4276 89 1
4276 107 1
4276 1928 1
4276 3482 1
4276 6154 1
4276 7397 1
4277 2 1
4277 9 1
4277 1040 1
4277 1071 1
4277 4552 1
4277 5732 1
4277 7121 1
4278 105 1
4278 181 1
4278 566 1
4278 1274 1
4279 1 1
4279 92 1
4279 283 1
4279 1012 1
4279 5237 1
4279 6520 1
4280 46 1
4280 471 1
4280 1361 1
4280 2138 1
4280 5443 1
4281 25 1
4281 930 1
4281 1257 1
4281 2996 1
4281 4508 1
4281 7400 1
4281 7796 1
4281 7808 1
4281 9102 1
4281 9566 1
4282 521 1
4282 1083 1
4282 1288 1
4282 4045 1
4282 6003 1
4282 6266 1
4283 91 1
4283 1726 1
4283 2441 1
4283 2690 1
4283 4834 1
4283 7899 1
4284 28 1
4284 1445 1
4284 2761 1
4284 4096 1
4284 5367 1
4285 50 1
4285 67 1
4285 2070 1
4285 2545 1
4285 7749 1
4286 11 1
4286 137 1
4286 163 1
4286 1738 1
4286 5944 1
4287 17 1
4287 269 1
4287 429 1
4287 521 1
4288 497 1
4288 799 1
4288 2434 1
4288 3836 1
4289 163 1
4289 1921 1
4289 3579 1
4289 3636 1
4290 699 1
4290 982 1
4290 1170 1
4290 1186 1
4290 5001 1
4290 9533 1
4291 682 1
4291 1401 1
4291 2654 1
4291 2914 1
4291 6250 1
4291 7811 1
4291 7986 1
4292 146 1
4292 653 1
4292 1044 1
4292 2178 1
4293 481 1
4293 713 1
4293 1271 1
4293 1947 1
4293 5617 1
4293 9274 1
4294 18 1
4294 395 1
4294 1490 1
4294 4275 1
4294 9476 1
4295 937 1
4295 2026 1
4295 2170 1
4295 2504 1
4295 5675 1
4296 54 1
4296 89 1
4296 468 1
4296 2680 1
4296 8455 1
4296 9770 1
4297 1 1
4297 33 1
4297 1274 1
4297 3825 1
4297 4394 1
4297 5068 1
4297 5481 1
4297 6446 1
4297 7813 1
4298 21 1
4298 837 1
4298 2169 1
4298 2435 1
4298 5026 1
4298 7014 1
4298 9319 1
4299 3 1
4299 5 1
4299 107 1
4299 959 1
4299 4621 1
4299 9031 1
4300 4 1
4300 165 1
4300 2276 1
4300 2380 1
4300 5552 1
4300 9753 1
4301 1 1
4301 143 1
4301 873 1
4301 3922 1
4301 5259 1
4301 8399 1
4301 9763 1
4301 9817 1
4302 288 1
4302 435 1
4302 1566 1
4302 1662 1
4303 667 1
4303 1607 1
4303 3548 1
4303 4126 1
4303 6830 1
4303 7794 1
4304 2 1
4304 358 1
4304 749 1
4304 2537 1
4304 5092 1
4305 89 1
4305 1928 1
4305 2100 1
4305 2118 1
4305 5351 1
4305 6338 1
4305 9257 1
4306 164 1
4306 1994 1
4306 2249 1
4306 4215 1
4306 5086 1
4306 6891 1
4306 9080 1
4306 9342 1
4307 67 1
4307 858 1
4307 1777 1
4307 2955 1
4307 8107 1
4307 9215 1
4308 25 1
4308 33 1
4308 2681 1
4308 2985 1
4308 5710 1
4308 7448 1
4308 7778 1
4308 8781 1
4309 1131 1
4309 1731 1
4309 2349 1
4309 4260 1
4309 6112 1
4310 10 1
4310 133 1
4310 2460 1
4310 3491 1
4310 4779 1
4310 4883 1
4311 84 1
4311 426 1
4311 566 1
4311 1363 1
4312 275 1
4312 1562 1
4312 2037 1
4312 4098 1
4313 1939 1
4313 2739 1
4313 3241 1
4313 3519 1
4313 7450 1
4313 7453 1
4313 7711 1
4313 7733 1
4314 5 1
4314 677 1
4314 782 1
4314 2225 1
4314 5758 1
4314 5845 1
4314 6086 1
4314 6489 1
4314 7882 1
4314 8636 1
4315 1 1
4315 941 1
4315 1194 1
4315 1645 1
4316 852 1
4316 1842 1
4316 1891 1
4316 2340 1
4316 4579 1
4317 11 1
4317 38 1
4317 260 1
4317 2346 1
4317 4506 1
4317 4924 1
4318 73 1
4318 258 1
4318 825 1
4318 1651 1
4319 9 1
4319 583 1
4319 642 1
4319 3682 1
4319 5804 1
4320 14 1
4320 23 1
4320 354 1
4320 1613 1
4320 4353 1
4321 163 1
4321 1625 1
4321 1955 1
4321 3533 1
4321 9258 1
4322 2 1
4322 29 1
4322 210 1
4322 902 1
4323 4 1
4323 134 1
4323 169 1
4323 3293 1
4323 5143 1
4323 8919 1
4323 9151 1
4324 144 1
4324 1052 1
4324 1459 1
4324 1713 1
4324 4515 1
4324 9293 1
4325 3 1
4325 526 1
4325 2054 1
4325 3841 1
4326 139 1
4326 410 1
4326 995 1
4326 1903 1
4326 4991 1
4326 6944 1
4326 9990 1
4327 135 1
4327 1054 1
4327 1065 1
4327 1290 1
4327 5231 1
4327 6197 1
4327 6297 1
4327 8159 1
4328 33 1
4328 932 1
4328 1275 1
4328 2883 1
4328 4658 1
4328 7090 1
4329 435 1
4329 918 1
4329 1948 1
4329 2529 1
4330 10 1
4330 1306 1
4330 2186 1
4330 4131 1
4330 4641 1
4330 5964 1
4330 9052 1
4330 9175 1
4330 9313 1
4331 195 1
4331 1116 1
4331 1312 1
4331 3033 1
4331 5671 1
4331 5998 1
4331 8093 1
4331 8388 1
4331 8779 1
4331 8852 1
4332 1188 1
4332 1736 1
4332 3893 1
4332 3909 1
4332 4339 1
4332 7232 1
4333 27 1
4333 123 1
4333 1597 1
4333 4002 1
4334 6 1
4334 69 1
4334 571 1
4334 1035 1
4334 5289 1
4334 5463 1
4334 6462 1
4334 6803 1
4335 298 1
4335 628 1
4335 1363 1
4335 1853 1
4335 6928 1
4335 7247 1
4336 434 1
4336 1830 1
4336 2011 1
4336 2488 1
4337 205 1
4337 265 1
4337 840 1
4337 1468 1
4337 4464 1
4337 5202 1
4337 5251 1
4337 5885 1
4337 7966 1
4338 5 1
4338 139 1
4338 947 1
4338 2177 1
4338 4485 1
4338 5233 1
4338 7149 1
4339 138 1
4339 1736 1
4339 2475 1
4339 4332 1
4339 6702 1
4340 27 1
4340 397 1
4340 1300 1
4340 3905 1
4340 4697 1
4340 6318 1
4340 6693 1
4340 8336 1
4340 8815 1
4341 38 1
4341 1174 1
4341 1833 1
4341 3210 1
4341 7076 1
4342 46 1
4342 99 1
4342 607 1
4342 1847 1
4342 4643 1
4342 4836 1
4342 5405 1
4342 5424 1
4342 6503 1
4343 36 1
4343 81 1
4343 1035 1
4343 2890 1
4343 6114 1
4344 784 1
4344 1850 1
4344 2072 1
4344 2381 1
4345 1 1
4345 4 1
4345 526 1
4345 944 1
4345 6553 1
4346 42 1
4346 59 1
4346 1249 1
4346 3283 1
4346 4990 1
4347 1106 1
4347 1881 1
4347 3299 1
4347 4174 1
4347 4544 1
4347 9190 1
4348 15 1
4348 594 1
4348 1258 1
4348 1384 1
4349 25 1
4349 1325 1
4349 2493 1
4349 3020 1
4349 4904 1
4349 6023 1
4349 8010 1
4350 50 1
4350 146 1
4350 403 1
4350 553 1
4350 4887 1
4350 5072 1
4350 5129 1
4350 5277 1
4350 5707 1
4350 6413 1
4350 6497 1
4351 11 1
4351 162 1
4351 2375 1
4351 2483 1
4351 6628 1
4351 6666 1
4352 151 1
4352 598 1
4352 913 1
4352 4092 1
4352 5145 1
4352 9841 1
4353 354 1
4353 1084 1
4353 1151 1
4353 4320 1
4353 6556 1
4354 267 1
4354 539 1
4354 648 1
4354 2197 1
4354 4449 1
4354 5762 1
4354 5889 1
4354 9377 1
4355 350 1
4355 633 1
4355 1254 1
4355 3120 1
4356 498 1
4356 1221 1
4356 1298 1
4356 3067 1
4357 85 1
4357 233 1
4357 3906 1
4357 4052 1
4357 5507 1
4357 7833 1
4358 237 1
4358 445 1
4358 668 1
4358 4122 1
4358 5497 1
4358 7480 1
4359 317 1
4359 945 1
4359 2714 1
4359 2754 1
4359 5213 1
4360 229 1
4360 828 1
4360 1317 1
4360 2748 1
4361 38 1
4361 389 1
4361 462 1
4361 2525 1
4361 5671 1
4362 11 1
4362 634 1
4362 1630 1
4362 2359 1
4362 6492 1
4362 9089 1
4362 9835 1
4363 2 1
4363 48 1
4363 1139 1
4363 1824 1
4363 9402 1
4364 2 1
4364 436 1
4364 488 1
4364 2855 1
4364 6094 1
4365 299 1
4365 885 1
4365 1105 1
4365 3266 1
4365 9703 1
4366 53 1
4366 155 1
4366 611 1
4366 882 1
4366 5694 1
4367 972 1
4367 1062 1
4367 1197 1
4367 2155 1
4368 825 1
4368 1191 1
4368 1481 1
4368 1537 1
4368 5928 1
4368 6160 1
4368 7533 1
4369 34 1
4369 413 1
4369 2954 1
4369 3117 1
4369 4827 1
4369 5006 1
4369 5290 1
4369 5471 1
4369 5571 1
4369 6649 1
4370 50 1
4370 1261 1
4370 2343 1
4370 2514 1
4370 8532 1
4371 276 1
4371 918 1
4371 1938 1
4371 2529 1
4371 4635 1
4371 5705 1
4372 38 1
4372 103 1
4372 523 1
4372 1652 1
4373 2136 1
4373 2393 1
4373 3659 1
4373 3803 1
4373 4851 1
4373 7821 1
4373 8423 1
4374 411 1
4374 540 1
4374 676 1
4374 1732 1
4375 419 1
4375 1394 1
4375 2603 1
4375 3396 1
4376 515 1
4376 706 1
4376 1207 1
4376 1559 1
4377 2124 1
4377 2808 1
4377 3518 1
4377 3787 1
4377 4742 1
4377 6434 1
4377 6728 1
4377 7141 1
4377 8116 1
4378 25 1
4378 65 1
4378 247 1
4378 2747 1
4379 25 1
4379 50 1
4379 3667 1
4379 3993 1
4379 6021 1
4380 50 1
4380 108 1
4380 480 1
4380 1658 1
4381 9 1
4381 42 1
4381 457 1
4381 568 1
4382 91 1
4382 939 1
4382 1647 1
4382 3123 1
4382 5163 1
4382 9802 1
4383 11 1
4383 1657 1
4383 2389 1
4383 2841 1
4383 4492 1
4383 6392 1
4384 29 1
4384 966 1
4384 1807 1
4384 2651 1
4384 7930 1
4385 32 1
4385 1316 1
4385 2150 1
4385 3786 1
4385 6206 1
4385 6811 1
4385 7708 1
4385 9150 1
4385 9266 1
4386 41 1
4386 69 1
4386 714 1
4386 3188 1
4386 4857 1
4386 5267 1
4386 6413 1
4386 7216 1
4386 8230 1
4386 8757 1
4387 17 1
4387 862 1
4387 1076 1
4387 3297 1
4387 9378 1
4387 9654 1
4388 963 1
4388 2122 1
4388 2507 1
4388 4246 1
4389 49 1
4389 423 1
4389 732 1
4389 3282 1
4390 242 1
4390 610 1
4390 1428 1
4390 1948 1
4390 4616 1
4390 6900 1
4390 7201 1
4391 60 1
4391 76 1
4391 258 1
4391 4119 1
4391 8987 1
4392 73 1
4392 738 1
4392 3051 1
4392 4224 1
4393 20 1
4393 241 1
4393 649 1
4393 1465 1
4393 6282 1
4393 7926 1
4394 613 1
4394 788 1
4394 2754 1
4394 4297 1
4394 4991 1
4394 7696 1
4395 323 1
4395 529 1
4395 891 1
4395 4149 1
4395 5445 1
4395 9222 1
4396 49 1
4396 1097 1
4396 2897 1
4396 3369 1
4396 5230 1
4396 6471 1
4396 9881 1
4397 6 1
4397 41 1
4397 386 1
4397 3515 1
4397 5975 1
4397 7850 1
4398 14 1
4398 311 1
4398 609 1
4398 999 1
4398 5900 1
4398 9620 1
4399 569 1
4399 858 1
4399 1062 1
4399 1568 1
4399 5956 1
4400 99 1
4400 141 1
4400 677 1
4400 929 1
4400 9686 1
4401 9 1
4401 1500 1
4401 1894 1
4401 3261 1
4401 4523 1
4401 5522 1
4401 6972 1
4401 7587 1
4401 7758 1
4401 9296 1
4402 44 1
4402 956 1
4402 1966 1
4402 2752 1
4402 8061 1
4402 8286 1
4402 9195 1
4403 226 1
4403 2261 1
4403 3210 1
4403 4275 1
4403 4548 1
4403 5649 1
4403 6414 1
4403 8839 1
4404 745 1
4404 1815 1
4404 1841 1
4404 3444 1
4404 7302 1
4404 7855 1
4404 9164 1
4405 11 1
4405 19 1
4405 282 1
4405 1849 1
4405 5951 1
4405 7357 1
4405 9751 1
4406 33 1
4406 731 1
4406 2412 1
4406 2610 1
4406 5219 1
4406 5483 1
4406 7243 1
4406 8271 1
4407 18 1
4407 82 1
4407 3417 1
4407 3491 1
4407 6563 1
4407 8448 1
4408 51 1
4408 270 1
4408 361 1
4408 3993 1
4409 2 1
4409 557 1
4409 1012 1
4409 3327 1
4409 4820 1
4409 5605 1
4409 5611 1
4409 7387 1
4409 8364 1
4409 9951 1
4410 985 1
4410 1756 1
4410 2237 1
4410 3772 1
4410 5204 1
4410 7276 1
4411 1317 1
4411 1668 1
4411 2881 1
4411 3428 1
4411 4731 1
4411 6486 1
4412 144 1
4412 1738 1
4412 2919 1
4412 3924 1
4412 7238 1
4412 7931 1
4413 907 1
4413 1568 1
4413 2365 1
4413 3302 1
4414 49 1
4414 2543 1
4414 2551 1
4414 2610 1
4414 5332 1
4414 8000 1
4415 11 1
4415 37 1
4415 65 1
4415 2283 1
4415 8432 1
4416 836 1
4416 2441 1
4416 2813 1
4416 3467 1
4416 5665 1
4416 9065 1
4417 66 1
4417 762 1
4417 3962 1
4417 4091 1
4417 6662 1
4417 9211 1
4418 68 1
4418 975 1
4418 1705 1
4418 3978 1
4418 5366 1
4418 6920 1
4418 7098 1
4419 299 1
4419 1024 1
4419 2574 1
4419 3282 1
4419 5432 1
4419 5908 1
4420 483 1
4420 2182 1
4420 2381 1
4420 2925 1
4420 9961 1
4421 18 1
4421 74 1
4421 677 1
4421 2137 1
4422 194 1
4422 569 1
4422 1363 1
4422 1933 1
4422 5762 1
4422 6657 1
4423 259 1
4423 2134 1
4423 3558 1
4423 4237 1
4423 8050 1
4423 8442 1
4424 1241 1
4424 2251 1
4424 2792 1
4424 3389 1
4424 6697 1
4424 7616 1
4425 98 1
4425 460 1
4425 652 1
4425 731 1
4425 9008 1
4425 9506 1
4426 169 1
4426 522 1
4426 1888 1
4426 1942 1
4426 9727 1
4427 871 1
4427 1197 1
4427 2757 1
4427 4222 1
4427 9339 1
4428 14 1
4428 243 1
4428 1547 1
4428 4210 1
4428 6836 1
4429 9 1
4429 54 1
4429 169 1
4429 1066 1
4430 17 1
4430 25 1
4430 2246 1
4430 3150 1
4430 4673 1
4430 4800 1
4430 5399 1
4430 7329 1
4431 2 1
4431 128 1
4431 2875 1
4431 2945 1
4431 7142 1
4432 9 1
4432 690 1
4432 1951 1
4432 3525 1
4433 2 1
4433 101 1
4433 1339 1
4433 2804 1
4434 10 1
4434 89 1
4434 183 1
4434 4180 1
4434 4600 1
4434 5456 1
4434 6313 1
4434 7195 1
4434 7358 1
4434 7937 1
4434 8363 1
4435 17 1
4435 42 1
4435 265 1
4435 818 1
4435 8299 1
4436 4 1
4436 1075 1
4436 1102 1
4436 2976 1
4436 5350 1
4436 9278 1
4437 85 1
4437 297 1
4437 1481 1
4437 2841 1
4438 1380 1
4438 1627 1
4438 2755 1
4438 2967 1
4438 5796 1
4439 43 1
4439 643 1
4439 971 1
4439 2605 1
4439 9623 1
4440 1661 1
4440 2440 1
4440 3689 1
4440 4065 1
4441 465 1
4441 695 1
4441 3730 1
4441 4003 1
4442 81 1
4442 337 1
4442 2350 1
4442 3315 1
4442 7817 1
4443 5 1
4443 260 1
4443 337 1
4443 1973 1
4443 8708 1
4444 63 1
4444 788 1
4444 1452 1
4444 3740 1
4445 150 1
4445 235 1
4445 650 1
4445 1202 1
4446 401 1
4446 892 1
4446 3075 1
4446 3394 1
4446 6677 1
4446 7304 1
4447 124 1
4447 473 1
4447 987 1
4447 3706 1
4447 5028 1
4447 5180 1
4447 5453 1
4447 7328 1
4448 209 1
4448 767 1
4448 2148 1
4448 2170 1
4449 570 1
4449 1964 1
4449 3880 1
4449 4354 1
4449 9377 1
4450 333 1
4450 621 1
4450 2466 1
4450 2634 1
4450 5451 1
4451 89 1
4451 979 1
4451 1557 1
4451 2207 1
4451 7904 1
4451 8013 1
4451 8287 1
4451 9063 1
4452 378 1
4452 380 1
4452 400 1
4452 978 1
4452 4886 1
4452 5135 1
4452 5855 1
4452 6536 1
4452 8936 1
4452 9246 1
4452 9624 1
4453 18 1
4453 2907 1
4453 3172 1
4453 4045 1
4453 6745 1
4454 36 1
4454 181 1
4454 1419 1
4454 3298 1
4454 4860 1
4454 7218 1
4454 7599 1
4455 4 1
4455 220 1
4455 2305 1
4455 3266 1
4455 5298 1
4455 6448 1
4455 6726 1
4456 5 1
4456 1012 1
4456 1280 1
4456 2595 1
4457 196 1
4457 259 1
4457 381 1
4457 1884 1
4457 5863 1
4457 7040 1
4457 7581 1
4457 8695 1
4458 21 1
4458 85 1
4458 547 1
4458 3164 1
4459 25 1
4459 90 1
4459 1422 1
4459 2967 1
4459 4520 1
4459 5766 1
4459 5796 1
4460 1 1
4460 37 1
4460 357 1
4460 3155 1
4461 2 1
4461 1240 1
4461 1740 1
4461 3481 1
4462 17 1
4462 1237 1
4462 1742 1
4462 2326 1
4463 4 1
4463 569 1
4463 1105 1
4463 1712 1
4463 4605 1
4464 265 1
4464 840 1
4464 1468 1
4464 4337 1
4464 8947 1
4465 146 1
4465 624 1
4465 1404 1
4465 3108 1
4465 4700 1
4465 5177 1
4465 5511 1
4465 8714 1
4465 9201 1
4466 1538 1
4466 2268 1
4466 2441 1
4466 2588 1
4466 4763 1
4466 5311 1
4467 97 1
4467 180 1
4467 1310 1
4467 2010 1
4467 5138 1
4467 6293 1
4467 7256 1
4467 8285 1
4468 33 1
4468 414 1
4468 1451 1
4468 4184 1
4468 4753 1
4468 4968 1
4468 7946 1
4468 9434 1
4469 9 1
4469 41 1
4469 2503 1
4469 3145 1
4470 337 1
4470 2298 1
4470 2678 1
4470 3911 1
4471 10 1
4471 83 1
4471 2170 1
4471 3614 1
4471 5934 1
4472 25 1
4472 218 1
4472 1501 1
4472 2371 1
4473 121 1
4473 258 1
4473 912 1
4473 3123 1
4473 6888 1
4473 7531 1
4474 5 1
4474 1505 1
4474 2700 1
4474 3729 1
4475 60 1
4475 2483 1
4475 2895 1
4475 4197 1
4475 8951 1
4476 29 1
4476 42 1
4476 126 1
4476 464 1
4476 4559 1
4476 5260 1
4476 7418 1
4476 7890 1
4476 8125 1
4477 20 1
4477 44 1
4477 95 1
4477 1533 1
4478 188 1
4478 341 1
4478 2946 1
4478 4100 1
4479 11 1
4479 278 1
4479 291 1
4479 4039 1
4480 162 1
4480 1355 1
4480 1630 1
4480 2716 1
4480 6804 1
4481 19 1
4481 81 1
4481 424 1
4481 1133 1
4481 8222 1
4482 2 1
4482 171 1
4482 1321 1
4482 2889 1
4482 4500 1
4482 7003 1
4482 7665 1
4483 33 1
4483 2059 1
4483 3546 1
4483 4017 1
4483 5737 1
4483 9989 1
4484 233 1
4484 1033 1
4484 2894 1
4484 4270 1
4484 4976 1
4485 537 1
4485 947 1
4485 2585 1
4485 4338 1
4485 6719 1
4486 434 1
4486 1101 1
4486 1558 1
4486 3543 1
4486 6303 1
4486 6409 1
4486 7242 1
4486 9436 1
4486 9683 1
4487 153 1
4487 683 1
4487 1714 1
4487 3881 1
4487 9788 1
4488 33 1
4488 545 1
4488 3200 1
4488 3691 1
4489 429 1
4489 1174 1
4489 2531 1
4489 3362 1
4489 5207 1
4489 5359 1
4489 7740 1
4489 8470 1
4490 33 1
4490 281 1
4490 298 1
4490 2578 1
4490 5227 1
4490 5491 1
4490 6945 1
4490 9716 1
4490 9861 1
4491 942 1
4491 1331 1
4491 2908 1
4491 3185 1
4491 8932 1
4492 11 1
4492 1658 1
4492 3215 1
4492 4383 1
4492 7910 1
4493 394 1
4493 451 1
4493 580 1
4493 611 1
4493 4956 1
4493 9743 1
4493 9765 1
4494 953 1
4494 1711 1
4494 2931 1
4494 3249 1
4495 20 1
4495 369 1
4495 481 1
4495 3416 1
4495 4649 1
4495 5165 1
4495 7352 1
4495 8597 1
4496 17 1
4496 194 1
4496 865 1
4496 2369 1
4496 5004 1
4497 25 1
4497 129 1
4497 202 1
4497 1493 1
4497 5953 1
4497 9127 1
4497 9562 1
4498 65 1
4498 238 1
4498 1612 1
4498 3910 1
4499 1619 1
4499 1947 1
4499 2351 1
4499 2597 1
4499 5387 1
4500 273 1
4500 767 1
4500 1321 1
4500 4482 1
4501 17 1
4501 1614 1
4501 2978 1
4501 3870 1
4501 4863 1
4501 7751 1
4502 1 1
4502 138 1
4502 1037 1
4502 2283 1
4502 4847 1
4503 1994 1
4503 2486 1
4503 2691 1
4503 4267 1
4503 4764 1
4504 3 1
4504 1134 1
4504 1483 1
4504 3947 1
4504 5278 1
4505 82 1
4505 525 1
4505 692 1
4505 889 1
4505 9478 1
4506 138 1
4506 361 1
4506 657 1
4506 4317 1
4506 6317 1
4506 7260 1
4506 8485 1
4506 8817 1
4506 9087 1
4506 9957 1
4507 9 1
4507 2069 1
4507 2146 1
4507 3795 1
4507 5409 1
4507 9867 1
4508 25 1
4508 930 1
4508 2996 1
4508 4281 1
4509 46 1
4509 154 1
4509 1828 1
4509 3126 1
4509 5816 1
4509 8329 1
4510 161 1
4510 1033 1
4510 1202 1
4510 1244 1
4511 65 1
4511 1057 1
4511 3412 1
4511 3483 1
4511 6432 1
4511 7385 1
4511 8309 1
4511 9752 1
4512 921 1
4512 1842 1
4512 2945 1
4512 3633 1
4512 6308 1
4512 8842 1
4512 9127 1
4513 243 1
4513 340 1
4513 858 1
4513 1313 1
4513 7084 1
4513 7290 1
4513 8993 1
4514 41 1
4514 508 1
4514 1131 1
4514 2473 1
4514 4755 1
4514 6088 1
4514 6118 1
4514 7499 1
4515 394 1
4515 1147 1
4515 2582 1
4515 4324 1
4515 4956 1
4515 6610 1
4516 149 1
4516 172 1
4516 177 1
4516 2074 1
4516 6201 1
4516 7086 1
4516 7681 1
4517 99 1
4517 260 1
4517 261 1
4517 1090 1
4517 7603 1
4517 8952 1
4518 1 1
4518 91 1
4518 1612 1
4518 1953 1
4519 41 1
4519 146 1
4519 1285 1
4519 3700 1
4519 4792 1
4520 25 1
4520 1422 1
4520 1709 1
4520 4459 1
4520 5301 1
4521 38 1
4521 44 1
4521 95 1
4521 427 1
4521 5491 1
4521 7229 1
4521 7772 1
4522 386 1
4522 1156 1
4522 1572 1
4522 3757 1
4523 36 1
4523 298 1
4523 2169 1
4523 4401 1
4523 6779 1
4523 7342 1
4523 7587 1
4523 9458 1
4523 9839 1
4524 394 1
4524 2049 1
4524 2499 1
4524 4097 1
4524 9115 1
4525 38 1
4525 2503 1
4525 2538 1
4525 3987 1
4525 7747 1
4526 1161 1
4526 1655 1
4526 1700 1
4526 3928 1
4526 5985 1
4526 6027 1
4527 33 1
4527 154 1
4527 384 1
4527 642 1
4527 8857 1
4528 383 1
4528 1329 1
4528 2013 1
4528 3226 1
4528 4689 1
4528 7543 1
4529 77 1
4529 225 1
4529 1433 1
4529 3797 1
4530 1404 1
4530 1809 1
4530 1985 1
4530 2879 1
4530 6528 1
4530 8753 1
4530 9392 1
4531 9 1
4531 2041 1
4531 2153 1
4531 2267 1
4531 4719 1
4531 5003 1
4531 5358 1
4531 9040 1
4532 545 1
4532 651 1
4532 810 1
4532 2761 1
4532 5740 1
4533 369 1
4533 2465 1
4533 3670 1
4533 4260 1
4533 8465 1
4533 8905 1
4533 8924 1
4533 9303 1
4534 18 1
4534 329 1
4534 514 1
4534 3818 1
4534 7221 1
4534 7429 1
4534 7712 1
4535 177 1
4535 445 1
4535 4021 1
4535 4108 1
4535 6099 1
4535 6312 1
4535 8311 1
4535 8371 1
4536 531 1
4536 923 1
4536 1706 1
4536 2941 1
4536 5186 1
4536 9209 1
4537 1990 1
4537 2443 1
4537 2809 1
4537 3098 1
4537 5467 1
4538 12 1
4538 235 1
4538 530 1
4538 1348 1
4538 5116 1
4539 1133 1
4539 1769 1
4539 2558 1
4539 3894 1
4539 6845 1
4539 7361 1
4539 8593 1
4540 28 1
4540 185 1
4540 554 1
4540 1547 1
4540 5948 1
4540 6270 1
4540 7754 1
4541 18 1
4541 380 1
4541 981 1
4541 1144 1
4541 6083 1
4541 7088 1
4541 8039 1
4541 9954 1
4542 41 1
4542 630 1
4542 2749 1
4542 3483 1
4542 4983 1
4542 6520 1
4542 9960 1
4543 11 1
4543 293 1
4543 1074 1
4543 2370 1
4543 4995 1
4543 8972 1
4544 1881 1
4544 2569 1
4544 2941 1
4544 4347 1
4544 6978 1
4545 62 1
4545 696 1
4545 2889 1
4545 3027 1
4545 6095 1
4545 6437 1
4546 380 1
4546 868 1
4546 978 1
4546 2302 1
4546 9541 1
4547 81 1
4547 106 1
4547 498 1
4547 2817 1
4547 9021 1
4548 113 1
4548 226 1
4548 1276 1
4548 4403 1
4548 5724 1
4549 841 1
4549 1226 1
4549 1515 1
4549 1822 1
4549 4797 1
4549 5350 1
4549 7795 1
4549 9023 1
4549 9717 1
4550 372 1
4550 755 1
4550 2345 1
4550 4267 1
4550 7002 1
4550 9408 1
4551 580 1
4551 968 1
4551 1465 1
4551 3683 1
4551 5897 1
4551 7717 1
4551 9854 1
4552 2581 1
4552 3498 1
4552 3980 1
4552 4277 1
4552 5732 1
4553 35 1
4553 1528 1
4553 2426 1
4553 2757 1
4553 4859 1
4553 7190 1
4553 8292 1
4553 9504 1
4554 34 1
4554 273 1
4554 805 1
4554 1749 1
4554 7365 1
4554 8304 1
4555 147 1
4555 771 1
4555 1843 1
4555 2090 1
4555 8112 1
4555 9058 1
4555 9369 1
4555 9529 1
4556 9 1
4556 250 1
4556 1306 1
4556 2907 1
4556 6973 1
4557 33 1
4557 1842 1
4557 2194 1
4557 3184 1
4557 8930 1
4557 9631 1
4558 166 1
4558 305 1
4558 1787 1
4558 1867 1
4558 6069 1
4559 9 1
4559 1898 1
4559 2740 1
4559 4476 1
4559 5260 1
4559 7890 1
4559 8068 1
4560 189 1
4560 555 1
4560 1288 1
4560 3594 1
4560 7299 1
4560 8755 1
4560 9238 1
4561 18 1
4561 593 1
4561 1906 1
4561 3606 1
4561 4584 1
4561 4655 1
4561 6065 1
4561 6724 1
4562 282 1
4562 412 1
4562 449 1
4562 2647 1
4562 7798 1
4562 8866 1
4563 9 1
4563 322 1
4563 787 1
4563 2289 1
4563 5020 1
4563 9125 1
4564 966 1
4564 997 1
4564 1012 1
4564 1103 1
4564 6356 1
4564 8018 1
4564 9256 1
4565 6 1
4565 488 1
4565 703 1
4565 1323 1
4565 6331 1
4566 9 1
4566 103 1
4566 946 1
4566 2374 1
4566 4710 1
4566 5613 1
4566 5957 1
4566 8325 1
4566 8693 1
4567 1 1
4567 25 1
4567 1297 1
4567 2299 1
4567 5828 1
4567 6246 1
4567 6588 1
4568 26 1
4568 877 1
4568 937 1
4568 3626 1
4568 4998 1
4568 9655 1
4569 73 1
4569 627 1
4569 1284 1
4569 2105 1
4569 6229 1
4569 6747 1
4569 9531 1
4570 1 1
4570 49 1
4570 1232 1
4570 3099 1
4571 162 1
4571 926 1
4571 995 1
4571 2901 1
4571 4660 1
4571 5023 1
4571 5215 1
4571 8427 1
4571 9018 1
4572 323 1
4572 426 1
4572 1044 1
4572 2578 1
4573 12 1
4573 36 1
4573 1060 1
4573 1644 1
4573 6572 1
4573 8214 1
4573 9240 1
4574 91 1
4574 354 1
4574 2900 1
4574 3981 1
4574 6509 1
4574 7077 1
4574 7123 1
4575 139 1
4575 1266 1
4575 1463 1
4575 4238 1
4576 170 1
4576 366 1
4576 3340 1
4576 4068 1
4577 699 1
4577 1170 1
4577 1913 1
4577 3706 1
4577 4953 1
4577 6300 1
4577 7180 1
4578 2 1
4578 51 1
4578 1194 1
4578 2713 1
4578 6813 1
4578 7576 1
4578 8053 1
4579 227 1
4579 395 1
4579 3553 1
4579 4316 1
4579 5177 1
4579 6205 1
4579 6367 1
4579 8329 1
4579 9378 1
4580 173 1
4580 1610 1
4580 2209 1
4580 3348 1
4580 5652 1
4580 6276 1
4580 6291 1
4580 7186 1
4580 7566 1
4580 8127 1
4581 852 1
4581 1443 1
4581 1516 1
4581 2554 1
4581 7348 1
4581 8270 1
4582 25 1
4582 1015 1
4582 1670 1
4582 4137 1
4583 91 1
4583 987 1
4583 1250 1
4583 1556 1
4583 5204 1
4583 5592 1
4583 6676 1
4583 9617 1
4584 628 1
4584 3515 1
4584 3606 1
4584 4561 1
4584 6016 1
4584 8470 1
4585 41 1
4585 1958 1
4585 2466 1
4585 3070 1
4585 4653 1
4585 5192 1
4586 10 1
4586 212 1
4586 377 1
4586 2619 1
4586 5955 1
4587 165 1
4587 381 1
4587 577 1
4587 3968 1
4587 8801 1
4588 38 1
4588 314 1
4588 661 1
4588 2066 1
4588 5214 1
4588 5676 1
4588 6394 1
4588 6593 1
4588 6672 1
4588 7155 1
4589 583 1
4589 804 1
4589 914 1
4589 1439 1
4589 7071 1
4589 7335 1
4590 251 1
4590 2949 1
4590 3365 1
4590 3508 1
4591 885 1
4591 953 1
4591 1177 1
4591 3288 1
4591 5480 1
4591 5620 1
4591 9039 1
4592 2 1
4592 42 1
4592 612 1
4592 1319 1
4592 5526 1
4593 4 1
4593 354 1
4593 868 1
4593 2031 1
4593 6185 1
4593 7334 1
4593 8455 1
4593 8603 1
4593 9227 1
4594 70 1
4594 586 1
4594 593 1
4594 1587 1
4594 6838 1
4594 8247 1
4595 41 1
4595 51 1
4595 405 1
4595 2202 1
4595 5842 1
4595 7558 1
4596 97 1
4596 237 1
4596 551 1
4596 2111 1
4596 6505 1
4597 661 1
4597 1383 1
4597 1832 1
4597 2456 1
4598 27 1
4598 523 1
4598 3654 1
4598 4045 1
4598 4855 1
4598 7231 1
4599 75 1
4599 2800 1
4599 3354 1
4599 3543 1
4600 2270 1
4600 2589 1
4600 2602 1
4600 4434 1
4600 6313 1
4601 7 1
4601 451 1
4601 1681 1
4601 2460 1
4601 4951 1
4601 5369 1
4601 5414 1
4601 7418 1
4601 7423 1
4601 8111 1
4601 9784 1
4602 9 1
4602 471 1
4602 2596 1
4602 4156 1
4602 4643 1
4602 4836 1
4602 5410 1
4602 5424 1
4602 7301 1
4602 8158 1
4602 8811 1
4603 50 1
4603 123 1
4603 3205 1
4603 3686 1
4603 4887 1
4604 254 1
4604 487 1
4604 2353 1
4604 2966 1
4605 927 1
4605 1084 1
4605 3916 1
4605 4463 1
4605 5063 1
4605 6650 1
4605 7361 1
4605 7575 1
4605 9672 1
4606 19 1
4606 25 1
4606 1290 1
4606 1652 1
4606 6267 1
4606 9228 1
4607 394 1
4607 861 1
4607 3115 1
4607 3655 1
4608 43 1
4608 126 1
4608 926 1
4608 2605 1
4609 385 1
4609 483 1
4609 861 1
4609 2101 1
4609 6494 1
4609 7058 1
4609 7591 1
4610 839 1
4610 903 1
4610 2844 1
4610 3298 1
4610 4812 1
4610 6103 1
4611 785 1
4611 948 1
4611 2026 1
4611 3797 1
4611 5991 1
4611 8227 1
4611 8937 1
4612 49 1
4612 216 1
4612 2610 1
4612 2746 1
4612 4625 1
4612 6270 1
4612 7137 1
4612 7738 1
4612 9866 1
4613 51 1
4613 513 1
4613 591 1
4613 1608 1
4613 5780 1
4613 6309 1
4613 8827 1
4614 714 1
4614 1270 1
4614 3126 1
4614 3769 1
4614 4796 1
4614 6319 1
4614 6369 1
4614 8135 1
4615 1329 1
4615 2186 1
4615 2577 1
4615 4187 1
4615 9596 1
4616 2027 1
4616 3185 1
4616 3846 1
4616 4390 1
4616 6332 1
4617 58 1
4617 907 1
4617 931 1
4617 3702 1
4617 5747 1
4617 7045 1
4617 7140 1
4617 9269 1
4617 9903 1
4617 9962 1
4618 2 1
4618 780 1
4618 886 1
4618 4251 1
4618 6531 1
4619 18 1
4619 2929 1
4619 3860 1
4619 3872 1
4619 6825 1
4620 138 1
4620 809 1
4620 1878 1
4620 1889 1
4620 5468 1
4620 5718 1
4620 6894 1
4620 7160 1
4620 8200 1
4620 8693 1
4620 9181 1
4620 9787 1
4620 9886 1
4621 132 1
4621 1748 1
4621 3391 1
4621 4299 1
4621 9031 1
4622 699 1
4622 971 1
4622 1393 1
4622 3208 1
4622 6810 1
4623 50 1
4623 217 1
4623 1227 1
4623 3810 1
4623 4930 1
4623 6979 1
4624 257 1
4624 292 1
4624 359 1
4624 2795 1
4624 9816 1
4625 3 1
4625 1908 1
4625 3892 1
4625 4612 1
4625 4737 1
4625 5247 1
4626 18 1
4626 275 1
4626 322 1
4626 1167 1
4626 4634 1
4626 9122 1
4626 9960 1
4627 41 1
4627 868 1
4627 922 1
4627 2820 1
4627 8326 1
4627 8399 1
4628 340 1
4628 505 1
4628 1143 1
4628 1401 1
4629 25 1
4629 376 1
4629 442 1
4629 2454 1
4629 4839 1
4629 7770 1
4629 8229 1
4630 41 1
4630 145 1
4630 1331 1
4630 2290 1
4631 310 1
4631 1083 1
4631 1560 1
4631 3602 1
4631 6334 1
4631 8784 1
4632 9 1
4632 173 1
4632 3677 1
4632 3692 1
4632 4919 1
4633 2 1
4633 1202 1
4633 2617 1
4633 3915 1
4633 5858 1
4633 6105 1
4633 6184 1
4633 6991 1
4634 556 1
4634 3976 1
4634 4139 1
4634 4626 1
4634 5546 1
4635 83 1
4635 1268 1
4635 1938 1
4635 4371 1
4635 5356 1
4636 18 1
4636 662 1
4636 1361 1
4636 1924 1
4636 5427 1
4637 75 1
4637 403 1
4637 1890 1
4637 3054 1
4637 4978 1
4637 8923 1
4638 787 1
4638 1565 1
4638 1722 1
4638 4188 1
4638 6002 1
4638 7341 1
4639 62 1
4639 881 1
4639 1397 1
4639 1506 1
4640 4 1
4640 17 1
4640 131 1
4640 4201 1
4640 4775 1
4640 4899 1
4640 6755 1
4640 8262 1
4641 779 1
4641 1015 1
4641 1469 1
4641 4330 1
4641 7739 1
4641 8741 1
4641 9820 1
4642 1 1
4642 78 1
4642 150 1
4642 1930 1
4643 805 1
4643 4156 1
4643 4342 1
4643 4602 1
4643 4836 1
4643 5424 1
4644 636 1
4644 738 1
4644 1542 1
4644 3458 1
4644 4943 1
4644 5848 1
4645 1195 1
4645 1340 1
4645 1365 1
4645 2459 1
4645 7850 1
4646 4 1
4646 330 1
4646 594 1
4646 1154 1
4646 7525 1
4647 89 1
4647 2462 1
4647 3687 1
4647 4002 1
4648 20 1
4648 246 1
4648 1658 1
4648 4121 1
4649 20 1
4649 369 1
4649 481 1
4649 4495 1
4649 5057 1
4649 5165 1
4649 5979 1
4649 6690 1
4649 7352 1
4649 8357 1
4649 8597 1
4649 8629 1
4649 8669 1
4650 2 1
4650 838 1
4650 1612 1
4650 3229 1
4650 5224 1
4650 7442 1
4650 7702 1
4651 676 1
4651 955 1
4651 1642 1
4651 3321 1
4651 6102 1
4651 8502 1
4651 8962 1
4652 498 1
4652 2630 1
4652 3734 1
4652 4173 1
4653 2 1
4653 546 1
4653 3070 1
4653 4585 1
4653 6885 1
4653 8057 1
4653 9073 1
4654 25 1
4654 555 1
4654 1513 1
4654 3372 1
4654 4699 1
4655 18 1
4655 573 1
4655 2523 1
4655 4561 1
4655 7034 1
4655 7929 1
4656 17 1
4656 514 1
4656 522 1
4656 1034 1
4656 5688 1
4657 211 1
4657 265 1
4657 2667 1
4657 3763 1
4657 5999 1
4657 7126 1
4658 18 1
4658 519 1
4658 1275 1
4658 4328 1
4658 6848 1
4658 9155 1
4659 38 1
4659 282 1
4659 805 1
4659 2182 1
4659 5428 1
4659 8614 1
4660 8 1
4660 58 1
4660 88 1
4660 4571 1
4661 17 1
4661 221 1
4661 1193 1
4661 3153 1
4662 221 1
4662 436 1
4662 1419 1
4662 2062 1
4663 1274 1
4663 1291 1
4663 1924 1
4663 2947 1
4663 5513 1
4663 6207 1
4663 6589 1
4663 9708 1
4664 9 1
4664 59 1
4664 65 1
4664 778 1
4665 28 1
4665 194 1
4665 1575 1
4665 2235 1
4665 4970 1
4665 5599 1
4665 5916 1
4665 6231 1
4665 8567 1
4665 9158 1
4665 9602 1
4665 9779 1
4665 9866 1
4666 22 1
4666 607 1
4666 638 1
4666 3059 1
4666 4746 1
4667 188 1
4667 228 1
4667 2363 1
4667 4065 1
4667 7766 1
4668 28 1
4668 781 1
4668 1730 1
4668 4037 1
4669 25 1
4669 639 1
4669 1401 1
4669 2762 1
4669 4949 1
4670 451 1
4670 1217 1
4670 1468 1
4670 1764 1
4671 297 1
4671 1052 1
4671 2293 1
4671 3607 1
4672 217 1
4672 304 1
4672 1395 1
4672 3174 1
4673 25 1
4673 225 1
4673 692 1
4673 4430 1
4673 8019 1
4674 20 1
4674 1238 1
4674 1465 1
4674 3506 1
4674 6830 1
4674 9343 1
4675 1 1
4675 323 1
4675 1373 1
4675 1952 1
4675 5252 1
4675 8622 1
4676 267 1
4676 506 1
4676 1002 1
4676 3052 1
4676 7038 1
4677 43 1
4677 2827 1
4677 4139 1
4677 4166 1
4677 5267 1
4678 338 1
4678 587 1
4678 1050 1
4678 1547 1
4678 6812 1
4679 20 1
4679 173 1
4679 1737 1
4679 2443 1
4680 460 1
4680 637 1
4680 2821 1
4680 3140 1
4681 2 1
4681 113 1
4681 2693 1
4681 3459 1
4682 14 1
4682 129 1
4682 364 1
4682 635 1
4682 8753 1
4683 163 1
4683 473 1
4683 1995 1
4683 2170 1
4683 5320 1
4683 7763 1
4683 9683 1
4684 5 1
4684 349 1
4684 2537 1
4684 3631 1
4684 5493 1
4684 5867 1
4685 51 1
4685 116 1
4685 608 1
4685 609 1
4686 323 1
4686 547 1
4686 905 1
4686 3601 1
4686 8689 1
4687 1 1
4687 12 1
4687 1191 1
4687 2335 1
4687 5228 1
4687 8795 1
4688 4 1
4688 692 1
4688 1602 1
4688 2677 1
4689 5 1
4689 11 1
4689 3226 1
4689 4528 1
4689 4780 1
4690 213 1
4690 502 1
4690 772 1
4690 1856 1
4690 4889 1
4691 1 1
4691 165 1
4691 994 1
4691 2599 1
4692 19 1
4692 45 1
4692 3277 1
4692 3297 1
4692 4958 1
4692 8184 1
4693 10 1
4693 1385 1
4693 1628 1
4693 3122 1
4693 4837 1
4693 6319 1
4694 180 1
4694 685 1
4694 1310 1
4694 3459 1
4694 7958 1
4695 49 1
4695 89 1
4695 1320 1
4695 2603 1
4696 849 1
4696 2386 1
4696 2873 1
4696 3405 1
4696 5309 1
4697 3 1
4697 25 1
4697 3073 1
4697 4340 1
4697 6193 1
4697 6535 1
4697 8904 1
4697 9204 1
4697 9244 1
4697 9628 1
4698 19 1
4698 33 1
4698 486 1
4698 1199 1
4698 5967 1
4698 6335 1
4699 67 1
4699 437 1
4699 1513 1
4699 4654 1
4699 6657 1
4699 9544 1
4700 146 1
4700 266 1
4700 930 1
4700 4465 1
4700 6767 1
4700 8641 1
4700 9392 1
4701 700 1
4701 1015 1
4701 1450 1
4701 2261 1
4701 8022 1
4702 11 1
4702 39 1
4702 97 1
4702 2896 1
4702 4902 1
4702 7215 1
4703 1712 1
4703 1937 1
4703 2926 1
4703 3749 1
4703 8491 1
4703 9641 1
4704 11 1
4704 81 1
4704 1908 1
4704 4269 1
4705 6 1
4705 1075 1
4705 1130 1
4705 3714 1
4705 4787 1
4705 4940 1
4705 6518 1
4705 7420 1
4705 7655 1
4705 9355 1
4706 1116 1
4706 2092 1
4706 3105 1
4706 3125 1
4707 515 1
4707 693 1
4707 2981 1
4707 3793 1
4707 7995 1
4708 749 1
4708 1068 1
4708 3408 1
4708 3834 1
4709 89 1
4709 1177 1
4709 2074 1
4709 2991 1
4709 5567 1
4710 946 1
4710 1706 1
4710 2374 1
4710 4566 1
4710 5613 1
4710 5724 1
4710 7474 1
4711 10 1
4711 1823 1
4711 1989 1
4711 1995 1
4711 7175 1
4712 627 1
4712 766 1
4712 1442 1
4712 2540 1
4713 330 1
4713 2831 1
4713 3553 1
4713 3834 1
4713 5148 1
4713 6544 1
4714 81 1
4714 370 1
4714 532 1
4714 658 1
4714 4900 1
4714 5195 1
4714 5510 1
4714 6877 1
4714 7439 1
4714 9153 1
4715 50 1
4715 146 1
4715 154 1
4715 2805 1
4715 5277 1
4715 5417 1
4715 7691 1
4715 8079 1
4715 9359 1
4716 283 1
4716 778 1
4716 2091 1
4716 3784 1
4717 425 1
4717 1476 1
4717 1726 1
4717 2863 1
4717 4818 1
4717 4884 1
4717 8276 1
4718 27 1
4718 2310 1
4718 2561 1
4718 2855 1
4719 9 1
4719 221 1
4719 2041 1
4719 4531 1
4719 5358 1
4719 8015 1
4719 8795 1
4720 1 1
4720 661 1
4720 1409 1
4720 3315 1
4721 473 1
4721 934 1
4721 1199 1
4721 3315 1
4721 6796 1
4721 9245 1
4722 858 1
4722 1589 1
4722 1795 1
4722 1801 1
4723 562 1
4723 641 1
4723 2990 1
4723 3008 1
4724 161 1
4724 225 1
4724 317 1
4724 3078 1
4724 8290 1
4725 43 1
4725 773 1
4725 2542 1
4725 4243 1
4725 5106 1
4726 89 1
4726 975 1
4726 1734 1
4726 2856 1
4726 8605 1
4726 8907 1
4727 25 1
4727 305 1
4727 794 1
4727 1617 1
4728 49 1
4728 810 1
4728 2787 1
4728 3593 1
4728 5127 1
4729 146 1
4729 357 1
4729 1181 1
4729 3560 1
4729 4977 1
4729 6933 1
4729 7917 1
4729 7979 1
4730 622 1
4730 693 1
4730 1539 1
4730 2689 1
4730 6389 1
4730 6983 1
4730 8539 1
4731 929 1
4731 2377 1
4731 3738 1
4731 4411 1
4731 5660 1
4732 414 1
4732 682 1
4732 1451 1
4732 2906 1
4732 6447 1
4732 8701 1
4733 19 1
4733 81 1
4733 2157 1
4733 3642 1
4733 5756 1
4733 9267 1
4734 381 1
4734 738 1
4734 1585 1
4734 4224 1
4734 5913 1
4734 7370 1
4735 89 1
4735 244 1
4735 425 1
4735 2086 1
4735 4746 1
4735 6867 1
4735 7703 1
4736 349 1
4736 1350 1
4736 1787 1
4736 3445 1
4736 7804 1
4737 1306 1
4737 1908 1
4737 2073 1
4737 4625 1
4737 4975 1
4737 8185 1
4737 8818 1
4738 25 1
4738 43 1
4738 204 1
4738 848 1
4738 5437 1
4738 6740 1
4739 14 1
4739 409 1
4739 1234 1
4739 1523 1
4739 6683 1
4739 7320 1
4739 9362 1
4740 147 1
4740 470 1
4740 2252 1
4740 3914 1
4740 4929 1
4740 5591 1
4740 7512 1
4740 8933 1
4741 6 1
4741 10 1
4741 2649 1
4741 2862 1
4741 7467 1
4742 868 1
4742 1336 1
4742 3787 1
4742 4377 1
4743 30 1
4743 538 1
4743 1524 1
4743 1667 1
4743 9000 1
4744 129 1
4744 850 1
4744 1852 1
4744 2665 1
4744 9994 1
4745 282 1
4745 1051 1
4745 3577 1
4745 3734 1
4745 8264 1
4745 9768 1
4746 987 1
4746 3995 1
4746 4666 1
4746 4735 1
4746 5519 1
4746 5545 1
4746 6078 1
4746 7653 1
4747 41 1
4747 73 1
4747 221 1
4747 2450 1
4747 5941 1
4747 8313 1
4747 8702 1
4747 9256 1
4747 9954 1
4748 185 1
4748 625 1
4748 945 1
4748 1974 1
4748 5176 1
4748 6116 1
4748 6669 1
4748 6681 1
4748 7209 1
4748 7334 1
4748 7532 1
4748 9603 1
4749 141 1
4749 1618 1
4749 1642 1
4749 4194 1
4749 7674 1
4749 9793 1
4750 33 1
4750 906 1
4750 3002 1
4750 3707 1
4750 5174 1
4750 5355 1
4750 7875 1
4751 97 1
4751 458 1
4751 607 1
4751 4027 1
4751 6038 1
4751 7826 1
4751 9722 1
4752 2056 1
4752 2394 1
4752 4109 1
4752 4130 1
4752 7293 1
4752 8956 1
4753 33 1
4753 1276 1
4753 2930 1
4753 4468 1
4753 6388 1
4753 9892 1
4754 137 1
4754 361 1
4754 825 1
4754 1804 1
4754 6636 1
4755 777 1
4755 964 1
4755 2473 1
4755 4514 1
4756 1 1
4756 16 1
4756 907 1
4756 3035 1
4756 6513 1
4756 7013 1
4756 9250 1
4757 89 1
4757 878 1
4757 2460 1
4757 3256 1
4757 7406 1
4758 49 1
4758 697 1
4758 784 1
4758 1435 1
4759 43 1
4759 1205 1
4759 1737 1
4759 2421 1
4759 4815 1
4760 11 1
4760 2025 1
4760 3617 1
4760 3795 1
4761 215 1
4761 1033 1
4761 1301 1
4761 4039 1
4761 5500 1
4761 6056 1
4761 7178 1
4761 7627 1
4761 8056 1
4761 8780 1
4762 233 1
4762 353 1
4762 1276 1
4762 1490 1
4763 2124 1
4763 2441 1
4763 2588 1
4763 4466 1
4763 5603 1
4763 5769 1
4763 6409 1
4763 7726 1
4763 7791 1
4763 9208 1
4764 1 1
4764 459 1
4764 1994 1
4764 4503 1
4764 6333 1
4765 2 1
4765 2305 1
4765 2366 1
4765 2390 1
4765 5298 1
4765 6113 1
4765 9054 1
4766 9 1
4766 1177 1
4766 1982 1
4766 2826 1
4766 9860 1
4767 298 1
4767 2409 1
4767 2809 1
4767 4121 1
4768 788 1
4768 2735 1
4768 3724 1
4768 3860 1
4768 6808 1
4769 634 1
4769 2016 1
4769 3493 1
4769 3883 1
4769 6919 1
4769 7214 1
4769 8161 1
4769 8524 1
4770 105 1
4770 642 1
4770 2266 1
4770 2379 1
4771 1690 1
4771 2930 1
4771 3251 1
4771 3963 1
4771 6388 1
4771 7460 1
4771 8452 1
4771 9665 1
4772 163 1
4772 965 1
4772 1159 1
4772 3807 1
4772 6570 1
4772 8330 1
4773 2 1
4773 96 1
4773 1340 1
4773 3757 1
4773 5699 1
4774 68 1
4774 217 1
4774 1121 1
4774 1227 1
4774 4823 1
4774 6279 1
4774 6531 1
4774 9255 1
4775 131 1
4775 994 1
4775 1574 1
4775 4640 1
4775 7253 1
4776 1 1
4776 641 1
4776 1909 1
4776 2275 1
4777 129 1
4777 364 1
4777 602 1
4777 1550 1
4777 5341 1
4777 8630 1
4777 9632 1
4778 18 1
4778 995 1
4778 1379 1
4778 1705 1
4778 5047 1
4778 6612 1
4778 8078 1
4778 9044 1
4779 225 1
4779 1331 1
4779 2330 1
4779 4310 1
4779 4875 1
4779 6279 1
4779 6695 1
4779 7449 1
4780 1 1
4780 288 1
4780 1551 1
4780 4689 1
4781 2 1
4781 18 1
4781 505 1
4781 2769 1
4781 6060 1
4781 7003 1
4781 7795 1
4781 9625 1
4782 18 1
4782 43 1
4782 121 1
4782 1441 1
4782 4799 1
4783 557 1
4783 1664 1
4783 2114 1
4783 4173 1
4784 11 1
4784 220 1
4784 396 1
4784 828 1
4784 5741 1
4785 162 1
4785 946 1
4785 1116 1
4785 1807 1
4785 5637 1
4785 6249 1
4785 9423 1
4785 9837 1
4786 19 1
4786 212 1
4786 838 1
4786 2881 1
4786 4935 1
4786 6225 1
4786 9755 1
4787 6 1
4787 1075 1
4787 3714 1
4787 4705 1
4788 149 1
4788 630 1
4788 1592 1
4788 2025 1
4789 550 1
4789 590 1
4789 747 1
4789 1744 1
4789 5918 1
4790 448 1
4790 1241 1
4790 3338 1
4790 3768 1
4790 5062 1
4790 6621 1
4791 11 1
4791 57 1
4791 1317 1
4791 4275 1
4791 6010 1
4791 8969 1
4792 146 1
4792 1398 1
4792 3945 1
4792 4519 1
4793 11 1
4793 162 1
4793 301 1
4793 1878 1
4794 33 1
4794 1017 1
4794 1561 1
4794 3707 1
4794 6839 1
4794 7493 1
4794 8068 1
4795 421 1
4795 1939 1
4795 2435 1
4795 3403 1
4795 6142 1
4796 99 1
4796 3210 1
4796 3769 1
4796 4614 1
4797 4 1
4797 235 1
4797 4004 1
4797 4549 1
4798 978 1
4798 2302 1
4798 2641 1
4798 2962 1
4799 18 1
4799 121 1
4799 1441 1
4799 4782 1
4799 6557 1
4799 9721 1
4799 9858 1
4800 25 1
4800 50 1
4800 211 1
4800 4430 1
4800 8965 1
4801 41 1
4801 48 1
4801 394 1
4801 569 1
4801 5319 1
4801 6418 1
4802 74 1
4802 1643 1
4802 2680 1
4802 2973 1
4802 8880 1
4803 11 1
4803 306 1
4803 2427 1
4803 3074 1
4803 9386 1
4804 25 1
4804 2219 1
4804 2251 1
4804 3026 1
4805 256 1
4805 757 1
4805 2493 1
4805 3088 1
4806 400 1
4806 604 1
4806 645 1
4806 3241 1
4807 98 1
4807 731 1
4807 3699 1
4807 4209 1
4807 4970 1
4808 164 1
4808 842 1
4808 3695 1
4808 3802 1
4809 75 1
4809 2286 1
4809 2454 1
4809 2791 1
4809 4852 1
4809 6772 1
4809 7310 1
4809 9732 1
4810 28 1
4810 42 1
4810 43 1
4810 201 1
4810 7943 1
4810 8339 1
4811 124 1
4811 230 1
4811 1568 1
4811 4033 1
4811 5372 1
4811 5699 1
4812 657 1
4812 839 1
4812 1929 1
4812 4610 1
4812 6321 1
4812 8047 1
4813 216 1
4813 1271 1
4813 2114 1
4813 3812 1
4813 6510 1
4813 7371 1
4813 9323 1
4814 18 1
4814 1229 1
4814 2690 1
4814 3513 1
4814 6106 1
4814 6414 1
4814 9565 1
4815 1045 1
4815 1205 1
4815 3570 1
4815 4759 1
4815 5398 1
4815 5535 1
4815 5862 1
4816 34 1
4816 505 1
4816 1189 1
4816 3850 1
4816 9290 1
4817 706 1
4817 773 1
4817 1017 1
4817 2478 1
4817 5575 1
4817 9584 1
4817 9626 1
4818 426 1
4818 1476 1
4818 2216 1
4818 4717 1
4818 5401 1
4818 5673 1
4818 5761 1
4819 11 1
4819 1167 1
4819 4223 1
4819 4252 1
4819 5127 1
4819 6898 1
4819 6997 1
4819 8086 1
4819 8986 1
4820 1012 1
4820 2595 1
4820 3184 1
4820 4409 1
4820 4955 1
4820 9951 1
4821 26 1
4821 31 1
4821 2269 1
4821 3235 1
4821 5817 1
4821 8417 1
4822 74 1
4822 369 1
4822 2020 1
4822 3761 1
4822 9861 1
4823 105 1
4823 116 1
4823 717 1
4823 4774 1
4823 5775 1
4824 2 1
4824 853 1
4824 2630 1
4824 3082 1
4824 6120 1
4825 300 1
4825 685 1
4825 1762 1
4825 2497 1
4825 6008 1
4825 7049 1
4826 115 1
4826 437 1
4826 2018 1
4826 2192 1
4827 428 1
4827 1658 1
4827 1701 1
4827 4369 1
4827 5655 1
4827 5931 1
4828 6 1
4828 111 1
4828 830 1
4828 3565 1
4829 62 1
4829 569 1
4829 811 1
4829 2278 1
4830 137 1
4830 1236 1
4830 3468 1
4830 3477 1
4830 5927 1
4830 7383 1
4831 411 1
4831 827 1
4831 1818 1
4831 3828 1
4831 5370 1
4831 6899 1
4831 9797 1
4832 97 1
4832 937 1
4832 3074 1
4832 3626 1
4832 6314 1
4833 28 1
4833 1647 1
4833 1737 1
4833 1966 1
4834 36 1
4834 219 1
4834 796 1
4834 4283 1
4834 5422 1
4834 8910 1
4834 9169 1
4834 9410 1
4834 9612 1
4835 18 1
4835 483 1
4835 1641 1
4835 1679 1
4835 5800 1
4835 9931 1
4836 1194 1
4836 4342 1
4836 4602 1
4836 4643 1
4836 5151 1
4836 7776 1
4837 2 1
4837 2851 1
4837 3877 1
4837 4693 1
4837 5938 1
4837 6534 1
4837 7186 1
4837 9859 1
4838 699 1
4838 1518 1
4838 2659 1
4838 2892 1
4839 25 1
4839 380 1
4839 2454 1
4839 4629 1
4839 9643 1
4840 25 1
4840 297 1
4840 1456 1
4840 2827 1
4840 7492 1
4840 7661 1
4840 8965 1
4840 9476 1
4841 958 1
4841 1466 1
4841 2343 1
4841 2846 1
4841 6614 1
4842 2361 1
4842 2658 1
4842 2659 1
4842 3410 1
4842 7578 1
4842 8582 1
4843 41 1
4843 185 1
4843 1291 1
4843 2766 1
4843 5656 1
4843 6856 1
4843 8114 1
4844 325 1
4844 673 1
4844 1497 1
4844 3059 1
4845 210 1
4845 701 1
4845 1770 1
4845 2740 1
4845 8186 1
4846 306 1
4846 2506 1
4846 3183 1
4846 4202 1
4846 5754 1
4846 6780 1
4846 6927 1
4846 8766 1
4847 675 1
4847 706 1
4847 2393 1
4847 4502 1
4847 8856 1
4847 9948 1
4848 5 1
4848 473 1
4848 637 1
4848 2369 1
4849 59 1
4849 1583 1
4849 3545 1
4849 3914 1
4849 9798 1
4850 380 1
4850 2261 1
4850 2293 1
4850 2332 1
4850 4960 1
4850 6114 1
4850 7409 1
4850 8750 1
4850 9056 1
4851 11 1
4851 640 1
4851 1207 1
4851 4373 1
4852 39 1
4852 163 1
4852 3393 1
4852 4809 1
4852 5940 1
4852 7541 1
4852 9057 1
4853 970 1
4853 2222 1
4853 2410 1
4853 3674 1
4853 8537 1
4854 73 1
4854 307 1
4854 2742 1
4854 2954 1
4854 6527 1
4854 6544 1
4854 7248 1
4855 4 1
4855 27 1
4855 2768 1
4855 4598 1
4856 235 1
4856 1537 1
4856 2093 1
4856 2803 1
4856 7405 1
4856 9215 1
4857 1532 1
4857 3622 1
4857 4121 1
4857 4386 1
4857 5551 1
4857 8541 1
4858 42 1
4858 332 1
4858 407 1
4858 2740 1
4858 5181 1
4858 5750 1
4858 7350 1
4858 8477 1
4859 26 1
4859 1482 1
4859 3438 1
4859 4553 1
4859 6370 1
4859 7190 1
4860 396 1
4860 1027 1
4860 2593 1
4860 4454 1
4860 9940 1
4861 853 1
4861 1574 1
4861 1876 1
4861 3148 1
4861 5677 1
4861 6644 1
4861 7369 1
4861 7547 1
4861 7680 1
4862 60 1
4862 419 1
4862 522 1
4862 2369 1
4863 73 1
4863 876 1
4863 1612 1
4863 4501 1
4863 6673 1
4864 42 1
4864 148 1
4864 674 1
4864 1598 1
4864 5425 1
4865 324 1
4865 947 1
4865 1340 1
4865 2073 1
4865 5243 1
4865 9181 1
4866 16 1
4866 38 1
4866 390 1
4866 3918 1
4866 5244 1
4866 5431 1
4866 8474 1
4867 85 1
4867 3051 1
4867 3394 1
4867 4201 1
4867 7956 1
4867 8206 1
4867 9154 1
4868 571 1
4868 1208 1
4868 1872 1
4868 3830 1
4868 6528 1
4869 10 1
4869 267 1
4869 1056 1
4869 1251 1
4869 6401 1
4869 6934 1
4870 268 1
4870 941 1
4870 1092 1
4870 3097 1
4870 7319 1
4871 411 1
4871 2850 1
4871 2851 1
4871 3090 1
4872 34 1
4872 258 1
4872 403 1
4872 741 1
4873 1 1
4873 1674 1
4873 2247 1
4873 4126 1
4873 5434 1
4873 5965 1
4873 6463 1
4873 6842 1
4874 1284 1
4874 1628 1
4874 3661 1
4874 3694 1
4875 165 1
4875 1835 1
4875 3034 1
4875 4779 1
4875 9906 1
4876 78 1
4876 178 1
4876 1225 1
4876 3235 1
4876 5347 1
4876 7259 1
4876 9853 1
4877 251 1
4877 573 1
4877 2523 1
4877 2959 1
4877 5440 1
4877 7614 1
4878 418 1
4878 1937 1
4878 2194 1
4878 4061 1
4878 8315 1
4878 8563 1
4879 1626 1
4879 1891 1
4879 2852 1
4879 3004 1
4880 509 1
4880 971 1
4880 1995 1
4880 2525 1
4881 4 1
4881 769 1
4881 2442 1
4881 2892 1
4881 9578 1
4882 144 1
4882 275 1
4882 929 1
4882 3958 1
4882 5201 1
4882 9060 1
4883 442 1
4883 683 1
4883 3090 1
4883 4310 1
4883 8195 1
4883 9873 1
4884 41 1
4884 227 1
4884 425 1
4884 4717 1
4884 5156 1
4884 7064 1
4884 8115 1
4884 8276 1
4884 8419 1
4884 9114 1
4884 9803 1
4885 37 1
4885 1551 1
4885 2349 1
4885 2824 1
4885 5736 1
4885 7014 1
4886 36 1
4886 849 1
4886 978 1
4886 4452 1
4886 6374 1
4886 7548 1
4886 8151 1
4886 8707 1
4887 50 1
4887 2085 1
4887 4350 1
4887 4603 1
4888 202 1
4888 1257 1
4888 3902 1
4888 3937 1
4889 260 1
4889 1909 1
4889 3683 1
4889 4690 1
4889 6454 1
4889 7351 1
4889 7500 1
4889 9302 1
4890 2 1
4890 9 1
4890 1851 1
4890 4251 1
4890 6604 1
4890 6861 1
4890 8670 1
4890 9932 1
4891 449 1
4891 790 1
4891 1415 1
4891 3305 1
4892 826 1
4892 1653 1
4892 2082 1
4892 3202 1
4893 11 1
4893 100 1
4893 464 1
4893 3683 1
4893 6617 1
4894 9 1
4894 42 1
4894 410 1
4894 2870 1
4894 9634 1
4895 685 1
4895 1194 1
4895 1552 1
4895 2176 1
4896 2 1
4896 636 1
4896 1479 1
4896 4265 1
4897 273 1
4897 297 1
4897 1825 1
4897 2203 1
4897 8634 1
4898 479 1
4898 546 1
4898 1278 1
4898 3134 1
4898 6240 1
4898 6245 1
4898 7874 1
4898 8556 1
4898 9512 1
4899 281 1
4899 1211 1
4899 4201 1
4899 4640 1
4900 11 1
4900 852 1
4900 1597 1
4900 4714 1
4900 5195 1
4900 6980 1
4900 9427 1
4901 89 1
4901 323 1
4901 1566 1
4901 3750 1
4901 5708 1
4901 7778 1
4902 25 1
4902 58 1
4902 858 1
4902 4702 1
4903 42 1
4903 545 1
4903 1140 1
4903 3328 1
4903 5217 1
4903 5378 1
4903 7216 1
4903 8220 1
4904 909 1
4904 939 1
4904 2493 1
4904 4349 1
4904 6091 1
4905 100 1
4905 627 1
4905 2065 1
4905 4115 1
4905 7284 1
4905 9564 1
4906 628 1
4906 941 1
4906 3530 1
4906 4084 1
4906 7663 1
4906 8241 1
4906 8770 1
4907 30 1
4907 259 1
4907 654 1
4907 3839 1
4907 5892 1
4908 97 1
4908 2167 1
4908 3510 1
4908 4185 1
4908 7163 1
4908 8046 1
4908 8680 1
4908 9278 1
4908 9467 1
4909 9 1
4909 10 1
4909 235 1
4909 3207 1
4909 5782 1
4909 6989 1
4909 7354 1
4910 427 1
4910 1250 1
4910 4193 1
4910 4196 1
4910 7838 1
4910 7940 1
4911 2 1
4911 360 1
4911 1428 1
4911 1545 1
4912 36 1
4912 212 1
4912 787 1
4912 3769 1
4913 534 1
4913 610 1
4913 2571 1
4913 3229 1
4913 5224 1
4913 5775 1
4913 7434 1
4913 8348 1
4914 225 1
4914 2486 1
4914 2691 1
4914 3066 1
4914 6337 1
4915 324 1
4915 1058 1
4915 2421 1
4915 3897 1
4915 6668 1
4916 9 1
4916 147 1
4916 505 1
4916 4019 1
4916 5421 1
4916 7064 1
4916 7325 1
4916 7596 1
4917 28 1
4917 155 1
4917 348 1
4917 1409 1
4917 6838 1
4917 7918 1
4918 11 1
4918 595 1
4918 1038 1
4918 3196 1
4918 9493 1
4919 10 1
4919 194 1
4919 3817 1
4919 4632 1
4920 168 1
4920 726 1
4920 971 1
4920 3724 1
4920 8520 1
4920 9001 1
4921 10 1
4921 57 1
4921 805 1
4921 943 1
4921 8638 1
4922 1067 1
4922 1555 1
4922 2272 1
4922 3503 1
4922 9139 1
4922 9305 1
4923 4 1
4923 149 1
4923 637 1
4923 3244 1
4923 4949 1
4923 7309 1
4924 20 1
4924 38 1
4924 1212 1
4924 4317 1
4924 6179 1
4924 8669 1
4925 519 1
4925 2246 1
4925 2257 1
4925 3175 1
4926 73 1
4926 364 1
4926 958 1
4926 3248 1
4927 11 1
4927 499 1
4927 1329 1
4927 2358 1
4927 5122 1
4927 6949 1
4928 322 1
4928 795 1
4928 2642 1
4928 3419 1
4928 5471 1
4928 7079 1
4929 39 1
4929 2466 1
4929 3914 1
4929 4740 1
4930 401 1
4930 975 1
4930 1188 1
4930 4623 1
4931 1379 1
4931 2907 1
4931 3145 1
4931 3442 1
4931 9600 1
4931 9625 1
4932 10 1
4932 14 1
4932 17 1
4932 1521 1
4932 6727 1
4932 8443 1
4933 27 1
4933 246 1
4933 891 1
4933 2725 1
4933 8506 1
4933 9760 1
4934 27 1
4934 1385 1
4934 3035 1
4934 3122 1
4934 5678 1
4935 227 1
4935 748 1
4935 2881 1
4935 4786 1
4936 74 1
4936 390 1
4936 1986 1
4936 2388 1
4937 13 1
4937 28 1
4937 1137 1
4937 2637 1
4938 11 1
4938 190 1
4938 1872 1
4938 3142 1
4938 5715 1
4938 5784 1
4938 7416 1
4939 9 1
4939 18 1
4939 65 1
4939 1523 1
4939 7973 1
4939 9494 1
4940 2 1
4940 2529 1
4940 3099 1
4940 4705 1
4940 5006 1
4940 5293 1
4940 5457 1
4941 211 1
4941 255 1
4941 297 1
4941 770 1
4942 150 1
4942 244 1
4942 653 1
4942 2613 1
4942 6297 1
4942 7714 1
4943 738 1
4943 1678 1
4943 2884 1
4943 4644 1
4943 6211 1
4943 7025 1
4944 426 1
4944 1452 1
4944 2009 1
4944 3478 1
4945 25 1
4945 828 1
4945 3942 1
4945 4030 1
4945 7401 1
4945 7577 1
4945 8403 1
4946 601 1
4946 1429 1
4946 1889 1
4946 1913 1
4947 28 1
4947 1163 1
4947 1185 1
4947 3689 1
4948 32 1
4948 1102 1
4948 1551 1
4948 1826 1
4948 5932 1
4948 6875 1
4948 9928 1
4949 259 1
4949 1401 1
4949 4669 1
4949 4923 1
4949 6171 1
4949 6929 1
4949 8414 1
4949 8880 1
4950 5 1
4950 85 1
4950 207 1
4950 246 1
4950 6818 1
4950 7872 1
4951 7 1
4951 2505 1
4951 4024 1
4951 4601 1
4952 38 1
4952 1797 1
4952 3341 1
4952 3630 1
4952 6918 1
4953 699 1
4953 1170 1
4953 1913 1
4953 4577 1
4953 8352 1
4953 8820 1
4954 345 1
4954 786 1
4954 3067 1
4954 3949 1
4954 8746 1
4955 634 1
4955 1012 1
4955 1655 1
4955 4820 1
4955 9465 1
4956 394 1
4956 833 1
4956 4493 1
4956 4515 1
4956 5831 1
4956 8678 1
4956 9988 1
4957 147 1
4957 237 1
4957 541 1
4957 1101 1
4957 5037 1
4957 8974 1
4957 9167 1
4958 188 1
4958 945 1
4958 3277 1
4958 4692 1
4958 5059 1
4958 7988 1
4958 8060 1
4958 8184 1
4959 17 1
4959 27 1
4959 1717 1
4959 2694 1
4960 1038 1
4960 1217 1
4960 3045 1
4960 4850 1
4960 7409 1
4960 9056 1
4961 49 1
4961 356 1
4961 714 1
4961 2002 1
4961 7295 1
4962 2 1
4962 175 1
4962 297 1
4962 2600 1
4962 8054 1
4962 9650 1
4963 81 1
4963 2600 1
4963 3775 1
4963 3811 1
4963 5514 1
4963 6871 1
4963 7999 1
4964 25 1
4964 622 1
4964 794 1
4964 3083 1
4964 6004 1
4964 8370 1
4965 50 1
4965 67 1
4965 443 1
4965 746 1
4965 5300 1
4965 8321 1
4966 242 1
4966 273 1
4966 464 1
4966 894 1
4966 4969 1
4966 6203 1
4967 1 1
4967 1350 1
4967 1622 1
4967 3811 1
4967 7676 1
4968 482 1
4968 1016 1
4968 1395 1
4968 4468 1
4969 464 1
4969 1002 1
4969 2621 1
4969 4966 1
4969 6237 1
4969 7289 1
4969 9822 1
4970 246 1
4970 2904 1
4970 4665 1
4970 4807 1
4970 6231 1
4970 9158 1
4970 9950 1
4971 281 1
4971 2103 1
4971 2315 1
4971 3985 1
4971 6452 1
4971 6920 1
4971 7511 1
4971 9273 1
4972 74 1
4972 150 1
4972 406 1
4972 3340 1
4972 5458 1
4972 5642 1
4972 5981 1
4972 6013 1
4973 194 1
4973 1310 1
4973 2614 1
4973 3010 1
4973 5252 1
4973 6487 1
4974 913 1
4974 1853 1
4974 2988 1
4974 4179 1
4975 569 1
4975 1756 1
4975 2893 1
4975 4737 1
4976 49 1
4976 697 1
4976 4270 1
4976 4484 1
4976 5073 1
4977 69 1
4977 611 1
4977 1364 1
4977 4729 1
4977 6933 1
4977 9484 1
4977 9743 1
4978 465 1
4978 569 1
4978 675 1
4978 4637 1
4978 5550 1
4979 4 1
4979 27 1
4979 275 1
4979 2768 1
4979 5772 1
4979 7045 1
4980 202 1
4980 737 1
4980 1241 1
4980 4066 1
4980 6087 1
4980 6757 1
4980 8554 1
4981 3033 1
4981 3794 1
4981 3923 1
4981 4019 1
4981 7959 1
4981 8093 1
4981 8247 1
4981 9016 1
4982 158 1
4982 418 1
4982 2265 1
4982 4253 1
4983 2306 1
4983 2749 1
4983 3483 1
4983 4542 1
4983 6432 1
4983 9960 1
4984 100 1
4984 1811 1
4984 2581 1
4984 3371 1
4984 7656 1
4984 9451 1
4985 281 1
4985 702 1
4985 1594 1
4985 2764 1
4985 7590 1
4986 202 1
4986 265 1
4986 877 1
4986 1059 1
4986 5178 1
4986 7065 1
4986 8632 1
4986 9598 1
4987 509 1
4987 1699 1
4987 3657 1
4987 4068 1
4987 7589 1
4988 132 1
4988 3391 1
4988 3670 1
4988 3979 1
4989 58 1
4989 459 1
4989 514 1
4989 2834 1
4989 5412 1
4989 7056 1
4989 7259 1
4989 7320 1
4990 718 1
4990 1001 1
4990 1249 1
4990 4346 1
4990 7146 1
4990 7441 1
4991 356 1
4991 788 1
4991 4326 1
4991 4394 1
4991 7696 1
4991 8864 1
4992 57 1
4992 233 1
4992 2197 1
4992 3180 1
4992 5213 1
4992 8141 1
4992 9894 1
4993 25 1
4993 1518 1
4993 1691 1
4993 2423 1
4993 5488 1
4993 5836 1
4993 6244 1
4993 6438 1
4993 7911 1
4993 9526 1
4994 422 1
4994 1747 1
4994 2311 1
4994 2523 1
4994 5256 1
4994 6847 1
4994 6970 1
4994 7304 1
4994 8047 1
4994 8822 1
4994 9128 1
4994 9652 1
4995 885 1
4995 897 1
4995 2370 1
4995 4543 1
4995 9382 1
4996 25 1
4996 467 1
4996 612 1
4996 2904 1
4996 5044 1
4996 5344 1
4997 69 1
4997 904 1
4997 2678 1
4997 4104 1
4997 8300 1
4998 937 1
4998 1130 1
4998 1936 1
4998 4568 1
4998 5653 1
4998 6352 1
4998 6514 1
4998 6619 1
4999 1 1
4999 990 1
4999 3354 1
4999 3882 1
4999 7168 1
5000 30 1
5000 74 1
5000 642 1
5000 830 1
5001 258 1
5001 298 1
5001 1514 1
5001 4290 1
5001 7449 1
5001 8512 1
5002 21 1
5002 1785 1
5002 1954 1
5002 2621 1
5002 6643 1
5002 6989 1
5002 8843 1
5002 9821 1
5003 89 1
5003 2153 1
5003 2524 1
5003 4531 1
5003 5087 1
5003 8805 1
5003 9109 1
5003 9202 1
5004 1583 1
5004 2194 1
5004 3923 1
5004 4496 1
5004 6932 1
5004 7416 1
5005 445 1
5005 1218 1
5005 1836 1
5005 2094 1
5005 5345 1
5005 7503 1
5006 10 1
5006 3117 1
5006 4369 1
5006 4940 1
5006 5293 1
5006 5457 1
5006 8232 1
5007 9 1
5007 89 1
5007 385 1
5007 2326 1
5007 5728 1
5007 6865 1
5007 7511 1
5008 329 1
5008 727 1
5008 3243 1
5008 3779 1
5008 5623 1
5008 5633 1
5008 6796 1
5008 8058 1
5009 18 1
5009 354 1
5009 993 1
5009 1095 1
5009 7133 1
5010 34 1
5010 261 1
5010 854 1
5010 3835 1
5011 18 1
5011 83 1
5011 1147 1
5011 1181 1
5011 9978 1
5012 84 1
5012 337 1
5012 1943 1
5012 2870 1
5012 6450 1
5013 4 1
5013 84 1
5013 1105 1
5013 3197 1
5013 5713 1
5014 473 1
5014 678 1
5014 2290 1
5014 2833 1
5014 6295 1
5014 9666 1
5015 17 1
5015 161 1
5015 1419 1
5015 3016 1
5015 5769 1
5016 2 1
5016 85 1
5016 196 1
5016 574 1
5017 18 1
5017 75 1
5017 97 1
5017 775 1
5017 5395 1
5017 6033 1
5017 6842 1
5018 17 1
5018 74 1
5018 2440 1
5018 4070 1
5018 5118 1
5018 5994 1
5018 8761 1
5019 74 1
5019 237 1
5019 2006 1
5019 3734 1
5019 5120 1
5019 7023 1
5019 7361 1
5019 8356 1
5019 8368 1
5019 8895 1
5019 9936 1
5020 356 1
5020 787 1
5020 1515 1
5020 4563 1
5021 126 1
5021 280 1
5021 1064 1
5021 1250 1
5022 10 1
5022 297 1
5022 781 1
5022 3492 1
5022 9986 1
5023 17 1
5023 162 1
5023 2446 1
5023 4571 1
5023 5151 1
5024 155 1
5024 281 1
5024 892 1
5024 2813 1
5024 5227 1
5024 6209 1
5025 2 1
5025 59 1
5025 733 1
5025 1781 1
5025 5945 1
5025 8807 1
5026 21 1
5026 837 1
5026 2369 1
5026 4298 1
5027 5 1
5027 1187 1
5027 2772 1
5027 2782 1
5027 9870 1
5028 987 1
5028 1170 1
5028 3706 1
5028 4447 1
5029 19 1
5029 1150 1
5029 2505 1
5029 3925 1
5029 9221 1
5030 117 1
5030 277 1
5030 2087 1
5030 4065 1
5030 8861 1
5031 2 1
5031 69 1
5031 167 1
5031 1221 1
5032 97 1
5032 378 1
5032 647 1
5032 3842 1
5033 33 1
5033 227 1
5033 1890 1
5033 3825 1
5033 6029 1
5033 9631 1
5034 1 1
5034 345 1
5034 426 1
5034 3749 1
5035 19 1
5035 134 1
5035 164 1
5035 3880 1
5036 171 1
5036 297 1
5036 684 1
5036 1075 1
5036 6055 1
5036 6866 1
5036 8236 1
5036 9995 1
5037 581 1
5037 945 1
5037 1213 1
5037 4957 1
5037 9971 1
5038 132 1
5038 1603 1
5038 2403 1
5038 3448 1
5038 6852 1
5038 7078 1
5038 8784 1
5038 9608 1
5039 737 1
5039 1241 1
5039 3338 1
5039 3882 1
5039 5892 1
5039 8679 1
5040 561 1
5040 594 1
5040 1154 1
5040 3548 1
5040 5236 1
5041 17 1
5041 403 1
5041 4063 1
5041 4163 1
5041 5043 1
5041 7861 1
5041 8307 1
5041 9718 1
5042 4 1
5042 349 1
5042 1267 1
5042 1397 1
5042 6184 1
5042 7024 1
5042 7506 1
5043 1353 1
5043 2951 1
5043 3361 1
5043 5041 1
5043 6652 1
5044 25 1
5044 1127 1
5044 4009 1
5044 4996 1
5044 6156 1
5044 6359 1
5044 7257 1
5045 123 1
5045 249 1
5045 1852 1
5045 4233 1
5045 5642 1
5046 121 1
5046 641 1
5046 1499 1
5046 2673 1
5047 665 1
5047 1771 1
5047 2322 1
5047 4778 1
5048 74 1
5048 291 1
5048 898 1
5048 1139 1
5048 5166 1
5048 6068 1
5048 6316 1
5048 7945 1
5048 8851 1
5049 427 1
5049 1383 1
5049 1458 1
5049 1889 1
5049 5359 1
5049 6159 1
5049 7108 1
5050 15 1
5050 932 1
5050 1259 1
5050 3619 1
5050 6994 1
5050 9113 1
5050 9134 1
5051 50 1
5051 59 1
5051 1181 1
5051 4165 1
5051 6140 1
5051 7255 1
5051 8003 1
5052 198 1
5052 202 1
5052 822 1
5052 2676 1
5053 243 1
5053 2506 1
5053 2543 1
5053 4007 1
5053 9504 1
5054 19 1
5054 41 1
5054 876 1
5054 3538 1
5054 5284 1
5054 9979 1
5055 29 1
5055 1213 1
5055 1281 1
5055 1427 1
5055 8968 1
5056 18 1
5056 150 1
5056 841 1
5056 3690 1
5056 5545 1
5057 122 1
5057 626 1
5057 2454 1
5057 4649 1
5058 9 1
5058 2099 1
5058 3390 1
5058 3716 1
5058 5112 1
5058 6226 1
5058 8060 1
5059 2 1
5059 422 1
5059 3277 1
5059 4958 1
5060 1482 1
5060 1820 1
5060 3207 1
5060 3653 1
5060 8306 1
5060 9945 1
5061 190 1
5061 1328 1
5061 1653 1
5061 4205 1
5061 5246 1
5061 5500 1
5061 6595 1
5062 11 1
5062 194 1
5062 583 1
5062 4790 1
5062 5101 1
5062 5377 1
5062 8717 1
5062 9685 1
5063 560 1
5063 1433 1
5063 2830 1
5063 4605 1
5063 8177 1
5064 11 1
5064 522 1
5064 828 1
5064 2411 1
5064 6081 1
5065 202 1
5065 277 1
5065 1157 1
5065 3907 1
5065 8136 1
5066 27 1
5066 771 1
5066 2558 1
5066 3443 1
5067 357 1
5067 865 1
5067 1581 1
5067 1703 1
5068 2 1
5068 33 1
5068 1274 1
5068 4297 1
5068 8026 1
5069 2373 1
5069 3107 1
5069 3374 1
5069 3535 1
5069 5736 1
5069 7104 1
5069 9424 1
5070 2062 1
5070 2105 1
5070 2716 1
5070 3833 1
5071 329 1
5071 673 1
5071 881 1
5071 4179 1
5072 2534 1
5072 3956 1
5072 4215 1
5072 4350 1
5072 6497 1
5072 8738 1
5073 382 1
5073 569 1
5073 1573 1
5073 4976 1
5073 9475 1
5073 9702 1
5074 1700 1
5074 2266 1
5074 2308 1
5074 3909 1
5074 5358 1
5074 6573 1
5074 8752 1
5075 4 1
5075 139 1
5075 2976 1
5075 3101 1
5075 5770 1
5075 7768 1
5076 202 1
5076 611 1
5076 2651 1
5076 3681 1
5076 6294 1
5076 9243 1
5077 193 1
5077 523 1
5077 1626 1
5077 2115 1
5077 6383 1
5077 6634 1
5077 6772 1
5077 7317 1
5078 1530 1
5078 3195 1
5078 4155 1
5078 4265 1
5079 217 1
5079 797 1
5079 1218 1
5079 2687 1
5079 6175 1
5080 25 1
5080 970 1
5080 2173 1
5080 2493 1
5080 8954 1
5080 9119 1
5081 227 1
5081 236 1
5081 522 1
5081 4007 1
5081 8165 1
5082 242 1
5082 322 1
5082 1379 1
5082 2642 1
5082 5495 1
5082 5907 1
5082 6022 1
5082 6072 1
5082 6947 1
5082 8120 1
5082 8725 1
5082 8911 1
5083 95 1
5083 149 1
5083 1061 1
5083 1935 1
5084 562 1
5084 1153 1
5084 2990 1
5084 3877 1
5084 9974 1
5085 230 1
5085 705 1
5085 1034 1
5085 3329 1
5085 6355 1
5085 8828 1
5086 28 1
5086 214 1
5086 555 1
5086 4306 1
5086 5643 1
5087 738 1
5087 3537 1
5087 3858 1
5087 5003 1
5087 8087 1
5088 6 1
5088 74 1
5088 1331 1
5088 2213 1
5089 18 1
5089 30 1
5089 2900 1
5089 4259 1
5089 6266 1
5089 8123 1
5090 2 1
5090 9 1
5090 3521 1
5090 4198 1
5090 6553 1
5090 9134 1
5090 9390 1
5090 9601 1
5091 25 1
5091 115 1
5091 161 1
5091 4208 1
5091 6718 1
5091 7275 1
5091 7888 1
5092 221 1
5092 2471 1
5092 2518 1
5092 4304 1
5093 133 1
5093 465 1
5093 473 1
5093 953 1
5094 76 1
5094 524 1
5094 1714 1
5094 4181 1
5094 8943 1
5095 26 1
5095 1081 1
5095 1343 1
5095 1825 1
5096 113 1
5096 216 1
5096 1270 1
5096 2341 1
5096 7668 1
5097 154 1
5097 1426 1
5097 1645 1
5097 2137 1
5097 5308 1
5097 6324 1
5097 8115 1
5097 8196 1
5097 9864 1
5098 237 1
5098 1359 1
5098 3710 1
5098 4033 1
5099 9 1
5099 321 1
5099 396 1
5099 3156 1
5099 7282 1
5100 565 1
5100 2490 1
5100 3195 1
5100 4155 1
5100 9231 1
5101 194 1
5101 564 1
5101 3417 1
5101 5062 1
5101 7568 1
5102 17 1
5102 451 1
5102 487 1
5102 676 1
5102 5130 1
5102 6274 1
5102 8758 1
5103 81 1
5103 193 1
5103 373 1
5103 4011 1
5103 8083 1
5104 190 1
5104 421 1
5104 1337 1
5104 2399 1
5105 132 1
5105 196 1
5105 1707 1
5105 3534 1
5106 1890 1
5106 2797 1
5106 4044 1
5106 4725 1
5107 10 1
5107 1965 1
5107 2957 1
5107 3314 1
5107 8151 1
5108 10 1
5108 459 1
5108 1640 1
5108 3918 1
5108 6375 1
5108 7839 1
5109 33 1
5109 505 1
5109 2156 1
5109 2990 1
5109 9384 1
5110 17 1
5110 2314 1
5110 2495 1
5110 3627 1
5110 7508 1
5110 7791 1
5111 6 1
5111 153 1
5111 803 1
5111 1451 1
5112 9 1
5112 779 1
5112 2569 1
5112 5058 1
5112 5158 1
5112 8199 1
5113 41 1
5113 294 1
5113 1670 1
5113 3395 1
5113 6782 1
5113 7611 1
5113 9649 1
5114 76 1
5114 108 1
5114 116 1
5114 388 1
5115 259 1
5115 298 1
5115 2341 1
5115 4072 1
5115 6287 1
5116 12 1
5116 235 1
5116 1865 1
5116 4538 1
5116 7432 1
5116 8277 1
5116 9067 1
5117 1091 1
5117 1248 1
5117 1939 1
5117 3121 1
5117 5683 1
5117 7182 1
5117 7831 1
5117 8533 1
5118 17 1
5118 483 1
5118 3064 1
5118 5018 1
5118 5994 1
5119 1191 1
5119 1530 1
5119 2809 1
5119 3697 1
5119 5429 1
5119 8912 1
5119 9086 1
5120 131 1
5120 856 1
5120 2611 1
5120 5019 1
5120 7023 1
5120 7030 1
5121 160 1
5121 707 1
5121 938 1
5121 3343 1
5121 5270 1
5121 7537 1
5121 8887 1
5122 11 1
5122 2155 1
5122 2243 1
5122 4927 1
5122 6040 1
5123 18 1
5123 1028 1
5123 1075 1
5123 3490 1
5123 8092 1
5123 8303 1
5123 8383 1
5123 8428 1
5123 9002 1
5124 191 1
5124 769 1
5124 1369 1
5124 3587 1
5125 361 1
5125 608 1
5125 714 1
5125 3067 1
5125 6312 1
5126 202 1
5126 665 1
5126 966 1
5126 1874 1
5127 797 1
5127 1167 1
5127 4728 1
5127 4819 1
5127 8365 1
5128 17 1
5128 156 1
5128 627 1
5128 4238 1
5128 7191 1
5129 75 1
5129 403 1
5129 2811 1
5129 4350 1
5129 5707 1
5129 8121 1
5129 9492 1
5130 9 1
5130 1160 1
5130 2200 1
5130 5102 1
5130 6542 1
5130 7103 1
5130 7123 1
5130 9232 1
5131 9 1
5131 1113 1
5131 2555 1
5131 3580 1
5131 6891 1
5131 8514 1
5131 8692 1
5132 2 1
5132 7 1
5132 1268 1
5132 2093 1
5132 5859 1
5132 6336 1
5132 6700 1
5132 7775 1
5133 33 1
5133 1798 1
5133 3286 1
5133 3880 1
5133 5426 1
5134 227 1
5134 958 1
5134 1977 1
5134 2141 1
5134 5668 1
5134 5874 1
5135 124 1
5135 1017 1
5135 3368 1
5135 4452 1
5135 6268 1
5136 285 1
5136 362 1
5136 707 1
5136 789 1
5136 6162 1
5137 126 1
5137 200 1
5137 964 1
5137 1755 1
5138 41 1
5138 1291 1
5138 4191 1
5138 4467 1
5138 6293 1
5138 7683 1
5138 7978 1
5138 8672 1
5139 430 1
5139 653 1
5139 867 1
5139 1526 1
5139 6714 1
5139 8661 1
5140 738 1
5140 1211 1
5140 2765 1
5140 3364 1
5140 7716 1
5140 8954 1
5141 715 1
5141 1933 1
5141 2379 1
5141 4210 1
5141 6252 1
5141 7558 1
5141 9244 1
5142 147 1
5142 268 1
5142 2283 1
5142 2863 1
5143 134 1
5143 169 1
5143 1745 1
5143 4323 1
5144 139 1
5144 365 1
5144 1684 1
5144 2282 1
5144 9943 1
5145 347 1
5145 2477 1
5145 4092 1
5145 4352 1
5145 5279 1
5145 6430 1
5145 6619 1
5145 7792 1
5146 4 1
5146 102 1
5146 135 1
5146 2945 1
5146 8991 1
5147 27 1
5147 68 1
5147 532 1
5147 699 1
5147 5820 1
5147 7452 1
5148 90 1
5148 1379 1
5148 2967 1
5148 4713 1
5148 5796 1
5148 5929 1
5148 5930 1
5148 6544 1
5149 429 1
5149 899 1
5149 1124 1
5149 3614 1
5149 6260 1
5149 7630 1
5150 138 1
5150 242 1
5150 1564 1
5150 1883 1
5150 9958 1
5151 162 1
5151 2682 1
5151 4836 1
5151 5023 1
5152 649 1
5152 738 1
5152 762 1
5152 1585 1
5152 8957 1
5152 9406 1
5153 433 1
5153 1451 1
5153 1481 1
5153 4009 1
5153 5445 1
5153 8782 1
5153 9228 1
5153 9483 1
5154 27 1
5154 390 1
5154 1986 1
5154 2294 1
5154 6914 1
5155 18 1
5155 82 1
5155 484 1
5155 1442 1
5155 7291 1
5155 9125 1
5156 650 1
5156 2625 1
5156 3995 1
5156 4884 1
5157 300 1
5157 485 1
5157 867 1
5157 2346 1
5157 5482 1
5157 8188 1
5158 2 1
5158 2569 1
5158 3963 1
5158 5112 1
5158 8322 1
5159 17 1
5159 995 1
5159 1025 1
5159 1557 1
5159 5849 1
5159 6709 1
5160 660 1
5160 1566 1
5160 1605 1
5160 3236 1
5160 6958 1
5161 9 1
5161 2014 1
5161 2019 1
5161 2994 1
5161 5403 1
5162 257 1
5162 769 1
5162 1324 1
5162 2117 1
5162 5463 1
5162 5471 1
5162 5961 1
5162 8488 1
5163 538 1
5163 1647 1
5163 3337 1
5163 4382 1
5164 1044 1
5164 1682 1
5164 2889 1
5164 3634 1
5164 6433 1
5165 80 1
5165 4184 1
5165 4495 1
5165 4649 1
5165 5979 1
5165 6767 1
5165 7230 1
5165 8234 1
5166 74 1
5166 2662 1
5166 4194 1
5166 5048 1
5167 765 1
5167 2059 1
5167 2569 1
5167 3818 1
5167 6978 1
5168 375 1
5168 1685 1
5168 1937 1
5168 2703 1
5168 6419 1
5169 340 1
5169 449 1
5169 628 1
5169 4099 1
5169 5249 1
5169 9054 1
5170 1221 1
5170 1415 1
5170 2760 1
5170 3730 1
5170 6752 1
5170 6875 1
5170 7106 1
5171 4 1
5171 116 1
5171 1557 1
5171 1847 1
5171 5689 1
5171 5868 1
5171 6688 1
5172 493 1
5172 604 1
5172 1389 1
5172 3810 1
5172 6271 1
5173 60 1
5173 577 1
5173 3002 1
5173 3389 1
5173 6166 1
5174 89 1
5174 1584 1
5174 2333 1
5174 4750 1
5174 5503 1
5174 7875 1
5175 26 1
5175 235 1
5175 344 1
5175 1553 1
5175 7844 1
5175 8818 1
5176 113 1
5176 138 1
5176 625 1
5176 4748 1
5176 6049 1
5176 8489 1
5177 642 1
5177 1798 1
5177 4465 1
5177 4579 1
5177 9940 1
5178 877 1
5178 1424 1
5178 2355 1
5178 4986 1
5179 87 1
5179 1939 1
5179 2030 1
5179 3912 1
5179 8663 1
5180 48 1
5180 365 1
5180 848 1
5180 4447 1
5180 9790 1
5181 868 1
5181 2740 1
5181 2820 1
5181 4858 1
5181 5380 1
5182 138 1
5182 273 1
5182 3781 1
5182 4021 1
5183 300 1
5183 1180 1
5183 1387 1
5183 1783 1
5184 4 1
5184 216 1
5184 1935 1
5184 3104 1
5184 8955 1
5185 294 1
5185 1704 1
5185 2365 1
5185 3972 1
5185 9176 1
5185 9598 1
5186 923 1
5186 1916 1
5186 1960 1
5186 4536 1
5186 7456 1
5187 25 1
5187 662 1
5187 2225 1
5187 3045 1
5187 5274 1
5188 628 1
5188 819 1
5188 927 1
5188 2684 1
5189 4 1
5189 18 1
5189 1490 1
5189 3041 1
5189 5714 1
5189 7743 1
5189 8868 1
5189 9295 1
5190 11 1
5190 152 1
5190 1506 1
5190 2695 1
5190 9194 1
5191 216 1
5191 994 1
5191 1451 1
5191 1894 1
5192 9 1
5192 445 1
5192 3070 1
5192 4585 1
5193 2062 1
5193 3075 1
5193 3394 1
5193 3897 1
5193 6668 1
5193 8529 1
5193 8743 1
5193 9475 1
5194 1028 1
5194 1433 1
5194 2481 1
5194 4053 1
5194 5700 1
5194 5701 1
5194 6050 1
5194 6475 1
5194 7708 1
5195 17 1
5195 94 1
5195 4714 1
5195 4900 1
5195 6032 1
5195 9073 1
5196 25 1
5196 1919 1
5196 3518 1
5196 3851 1
5196 5748 1
5196 7647 1
5196 7986 1
5196 9096 1
5197 1281 1
5197 1499 1
5197 2169 1
5197 3827 1
5197 8906 1
5197 9243 1
5198 15 1
5198 933 1
5198 1915 1
5198 1999 1
5198 7210 1
5199 89 1
5199 203 1
5199 1472 1
5199 3256 1
5199 9939 1
5200 216 1
5200 329 1
5200 933 1
5200 2101 1
5200 7848 1
5200 9188 1
5200 9318 1
5201 929 1
5201 2961 1
5201 3958 1
5201 4882 1
5201 5283 1
5201 9060 1
5202 53 1
5202 173 1
5202 2900 1
5202 4337 1
5202 5251 1
5202 6234 1
5203 332 1
5203 451 1
5203 2703 1
5203 3718 1
5204 2209 1
5204 2443 1
5204 4410 1
5204 4583 1
5204 5555 1
5205 18 1
5205 160 1
5205 329 1
5205 947 1
5206 1683 1
5206 2172 1
5206 3090 1
5206 3864 1
5207 267 1
5207 334 1
5207 2531 1
5207 4489 1
5208 291 1
5208 1357 1
5208 2162 1
5208 2540 1
5209 19 1
5209 74 1
5209 261 1
5209 1023 1
5209 7497 1
5210 9 1
5210 1253 1
5210 3335 1
5210 3633 1
5210 7528 1
5210 8441 1
5210 8698 1
5210 8872 1
5211 76 1
5211 493 1
5211 2533 1
5211 3942 1
5212 329 1
5212 727 1
5212 3017 1
5212 3243 1
5212 6281 1
5212 8009 1
5212 9373 1
5213 57 1
5213 3844 1
5213 4359 1
5213 4992 1
5213 6203 1
5214 69 1
5214 314 1
5214 1041 1
5214 4588 1
5214 6476 1
5214 8491 1
5215 1690 1
5215 1945 1
5215 3963 1
5215 4571 1
5215 7460 1
5216 287 1
5216 1002 1
5216 2353 1
5216 3842 1
5217 1140 1
5217 1654 1
5217 2451 1
5217 4903 1
5217 6541 1
5217 7216 1
5217 8220 1
5218 1 1
5218 1978 1
5218 3223 1
5218 4003 1
5219 41 1
5219 65 1
5219 2610 1
5219 4406 1
5219 5483 1
5219 6054 1
5219 7277 1
5219 8318 1
5219 8643 1
5219 8989 1
5220 14 1
5220 66 1
5220 775 1
5220 2444 1
5221 74 1
5221 898 1
5221 975 1
5221 1971 1
5222 59 1
5222 77 1
5222 532 1
5222 575 1
5222 8725 1
5223 155 1
5223 1872 1
5223 2265 1
5223 3724 1
5223 6631 1
5223 8616 1
5224 154 1
5224 3229 1
5224 4650 1
5224 4913 1
5224 7886 1
5225 481 1
5225 601 1
5225 1289 1
5225 1767 1
5225 7302 1
5226 259 1
5226 298 1
5226 1234 1
5226 2134 1
5226 7618 1
5226 8420 1
5227 33 1
5227 155 1
5227 4490 1
5227 5024 1
5227 5491 1
5227 5667 1
5227 9728 1
5227 9844 1
5228 12 1
5228 233 1
5228 662 1
5228 4687 1
5229 175 1
5229 718 1
5229 773 1
5229 3077 1
5230 49 1
5230 227 1
5230 4253 1
5230 4396 1
5231 92 1
5231 1953 1
5231 3715 1
5231 4327 1
5231 6197 1
5232 9 1
5232 54 1
5232 809 1
5232 2534 1
5232 6533 1
5232 8954 1
5232 9363 1
5233 127 1
5233 2692 1
5233 2954 1
5233 4338 1
5233 5558 1
5234 5 1
5234 650 1
5234 1249 1
5234 1511 1
5234 5724 1
5235 74 1
5235 291 1
5235 1387 1
5235 3267 1
5235 7221 1
5236 297 1
5236 561 1
5236 3548 1
5236 5040 1
5237 467 1
5237 2563 1
5237 2599 1
5237 4279 1
5237 6760 1
5237 7472 1
5237 8340 1
5238 9 1
5238 44 1
5238 70 1
5238 1483 1
5238 5270 1
5239 50 1
5239 1684 1
5239 4081 1
5239 4145 1
5239 6503 1
5239 6642 1
5239 6725 1
5239 9080 1
5240 91 1
5240 267 1
5240 986 1
5240 2197 1
5241 431 1
5241 459 1
5241 1050 1
5241 3643 1
5241 5295 1
5241 9422 1
5242 2221 1
5242 2437 1
5242 2805 1
5242 3867 1
5243 1 1
5243 41 1
5243 77 1
5243 4865 1
5243 8099 1
5243 9688 1
5244 16 1
5244 1015 1
5244 4137 1
5244 4866 1
5244 5431 1
5244 5926 1
5244 7220 1
5244 7411 1
5244 7949 1
5244 9736 1
5245 473 1
5245 1811 1
5245 3487 1
5245 3656 1
5246 314 1
5246 1532 1
5246 1653 1
5246 5061 1
5246 6595 1
5247 16 1
5247 578 1
5247 1983 1
5247 4625 1
5247 6845 1
5247 9683 1
5248 314 1
5248 1413 1
5248 1757 1
5248 1857 1
5249 1216 1
5249 2531 1
5249 4021 1
5249 5169 1
5249 5576 1
5249 6474 1
5249 7852 1
5250 3 1
5250 4 1
5250 63 1
5250 672 1
5250 5711 1
5250 7473 1
5250 7534 1
5251 1468 1
5251 2574 1
5251 4337 1
5251 5202 1
5252 1 1
5252 483 1
5252 4675 1
5252 4973 1
5252 7151 1
5253 2 1
5253 39 1
5253 1174 1
5253 3449 1
5254 153 1
5254 834 1
5254 1090 1
5254 3995 1
5254 9903 1
5255 57 1
5255 259 1
5255 1445 1
5255 1813 1
5255 9176 1
5256 27 1
5256 1747 1
5256 2313 1
5256 4994 1
5256 7937 1
5257 421 1
5257 1124 1
5257 1587 1
5257 1722 1
5257 5525 1
5257 6445 1
5257 7751 1
5257 8754 1
5258 2 1
5258 289 1
5258 2900 1
5258 3682 1
5258 6841 1
5259 1 1
5259 11 1
5259 1551 1
5259 4301 1
5259 6298 1
5259 6805 1
5260 132 1
5260 2719 1
5260 4476 1
5260 4559 1
5261 221 1
5261 474 1
5261 1266 1
5261 3423 1
5261 5355 1
5261 6040 1
5261 6849 1
5261 7885 1
5261 9694 1
5262 33 1
5262 89 1
5262 262 1
5262 2050 1
5263 9 1
5263 53 1
5263 153 1
5263 2190 1
5264 11 1
5264 497 1
5264 751 1
5264 4139 1
5265 317 1
5265 465 1
5265 2050 1
5265 2090 1
5266 699 1
5266 971 1
5266 2829 1
5266 3967 1
5266 7494 1
5266 8767 1
5267 69 1
5267 262 1
5267 4386 1
5267 4677 1
5267 6413 1
5267 8230 1
5268 12 1
5268 254 1
5268 1035 1
5268 3026 1
5268 9409 1
5269 11 1
5269 17 1
5269 24 1
5269 75 1
5270 9 1
5270 2269 1
5270 5121 1
5270 5238 1
5270 9518 1
5271 41 1
5271 1009 1
5271 1456 1
5271 2714 1
5271 5527 1
5271 6202 1
5271 7687 1
5271 9284 1
5271 9525 1
5272 81 1
5272 514 1
5272 710 1
5272 3754 1
5272 9306 1
5273 394 1
5273 639 1
5273 748 1
5273 3400 1
5273 5366 1
5274 297 1
5274 1099 1
5274 1645 1
5274 5187 1
5274 5805 1
5275 41 1
5275 654 1
5275 2546 1
5275 2851 1
5276 128 1
5276 147 1
5276 425 1
5276 2202 1
5276 5956 1
5276 6887 1
5276 7687 1
5276 8522 1
5276 9524 1
5277 146 1
5277 658 1
5277 4350 1
5277 4715 1
5277 9359 1
5278 1483 1
5278 1657 1
5278 3078 1
5278 4504 1
5278 7996 1
5279 91 1
5279 347 1
5279 2477 1
5279 5145 1
5279 7731 1
5279 7762 1
5280 9 1
5280 80 1
5280 723 1
5280 2858 1
5281 481 1
5281 2385 1
5281 3122 1
5281 3728 1
5281 7122 1
5281 9443 1
5282 10 1
5282 130 1
5282 1162 1
5282 2450 1
5282 9677 1
5283 929 1
5283 1791 1
5283 4080 1
5283 5201 1
5284 73 1
5284 211 1
5284 876 1
5284 5054 1
5284 8543 1
5285 28 1
5285 90 1
5285 410 1
5285 981 1
5285 8457 1
5285 9599 1
5286 2 1
5286 18 1
5286 25 1
5286 1257 1
5286 5565 1
5287 667 1
5287 1202 1
5287 2034 1
5287 2045 1
5287 5841 1
5287 8706 1
5287 9543 1
5288 9 1
5288 28 1
5288 83 1
5288 3716 1
5288 7358 1
5289 4 1
5289 1529 1
5289 3109 1
5289 4334 1
5289 9393 1
5290 413 1
5290 1685 1
5290 2954 1
5290 4369 1
5291 410 1
5291 1350 1
5291 1373 1
5291 2210 1
5292 25 1
5292 281 1
5292 368 1
5292 1123 1
5292 5448 1
5292 7157 1
5293 874 1
5293 2529 1
5293 4940 1
5293 5006 1
5293 6493 1
5293 9693 1
5294 105 1
5294 107 1
5294 1610 1
5294 3562 1
5294 5492 1
5294 6422 1
5295 73 1
5295 459 1
5295 2318 1
5295 5241 1
5295 5579 1
5296 18 1
5296 330 1
5296 425 1
5296 2548 1
5297 98 1
5297 564 1
5297 623 1
5297 3992 1
5298 1385 1
5298 2305 1
5298 4455 1
5298 4765 1
5298 9054 1
5299 179 1
5299 370 1
5299 2228 1
5299 2263 1
5299 6107 1
5299 6294 1
5300 91 1
5300 2821 1
5300 3564 1
5300 4965 1
5300 7260 1
5300 8913 1
5301 25 1
5301 2450 1
5301 3538 1
5301 4520 1
5301 6231 1
5302 982 1
5302 2453 1
5302 3113 1
5302 3834 1
5303 2 1
5303 18 1
5303 1017 1
5303 1583 1
5304 2 1
5304 929 1
5304 2431 1
5304 2466 1
5305 1 1
5305 61 1
5305 1775 1
5305 3275 1
5305 6692 1
5305 7612 1
5306 11 1
5306 34 1
5306 321 1
5306 1013 1
5307 18 1
5307 57 1
5307 835 1
5307 2016 1
5307 5740 1
5307 6953 1
5307 7767 1
5307 8892 1
5308 983 1
5308 1646 1
5308 4212 1
5308 5097 1
5308 6504 1
5308 6964 1
5309 288 1
5309 2773 1
5309 2949 1
5309 4696 1
5310 51 1
5310 198 1
5310 1161 1
5310 1725 1
5311 138 1
5311 1818 1
5311 2268 1
5311 4466 1
5311 7789 1
5312 28 1
5312 1531 1
5312 3174 1
5312 3460 1
5312 6567 1
5313 323 1
5313 468 1
5313 1044 1
5313 2346 1
5313 7866 1
5313 8602 1
5313 9061 1
5314 633 1
5314 1596 1
5314 1715 1
5314 2638 1
5315 41 1
5315 505 1
5315 755 1
5315 1580 1
5315 9929 1
5316 10 1
5316 263 1
5316 3293 1
5316 3968 1
5316 9680 1
5317 11 1
5317 777 1
5317 1137 1
5317 1518 1
5317 7459 1
5317 7590 1
5318 102 1
5318 244 1
5318 985 1
5318 1349 1
5319 41 1
5319 569 1
5319 3266 1
5319 4801 1
5319 7492 1
5320 27 1
5320 510 1
5320 1802 1
5320 4683 1
5320 8832 1
5320 9693 1
5321 2 1
5321 256 1
5321 1032 1
5321 2170 1
5322 17 1
5322 1420 1
5322 3220 1
5322 4066 1
5322 5574 1
5322 6352 1
5322 7718 1
5322 9948 1
5323 1 1
5323 222 1
5323 944 1
5323 958 1
5323 5450 1
5323 7621 1
5323 9726 1
5323 9910 1
5324 2 1
5324 69 1
5324 1380 1
5324 3121 1
5324 5615 1
5324 5882 1
5324 6914 1
5325 18 1
5325 620 1
5325 1293 1
5325 1320 1
5326 4 1
5326 58 1
5326 2831 1
5326 3847 1
5327 10 1
5327 477 1
5327 3724 1
5327 4034 1
5328 11 1
5328 50 1
5328 963 1
5328 1796 1
5329 539 1
5329 628 1
5329 1195 1
5329 1414 1
5329 7483 1
5329 9615 1
5330 155 1
5330 1128 1
5330 3686 1
5330 4263 1
5330 7506 1
5330 8635 1
5331 51 1
5331 71 1
5331 151 1
5331 4107 1
5332 550 1
5332 2090 1
5332 2641 1
5332 4414 1
5332 6674 1
5333 586 1
5333 1009 1
5333 1698 1
5333 3381 1
5333 6870 1
5334 1221 1
5334 1377 1
5334 2418 1
5334 4181 1
5335 114 1
5335 1302 1
5335 1454 1
5335 2457 1
5335 7610 1
5335 7700 1
5335 7804 1
5336 467 1
5336 2337 1
5336 3354 1
5336 3805 1
5336 7974 1
5336 9279 1
5337 547 1
5337 1239 1
5337 1586 1
5337 1777 1
5337 8117 1
5337 8420 1
5338 747 1
5338 873 1
5338 1026 1
5338 1435 1
5338 5712 1
5338 7490 1
5338 8443 1
5338 9889 1
5339 144 1
5339 1009 1
5339 2372 1
5339 3058 1
5339 7686 1
5340 73 1
5340 1735 1
5340 2977 1
5340 3353 1
5340 8317 1
5341 58 1
5341 129 1
5341 1074 1
5341 4777 1
5341 5841 1
5342 4 1
5342 1511 1
5342 2169 1
5342 3826 1
5342 5627 1
5342 5631 1
5342 9738 1
5343 71 1
5343 151 1
5343 1572 1
5343 1885 1
5344 108 1
5344 388 1
5344 1035 1
5344 4996 1
5344 6012 1
5345 1050 1
5345 1218 1
5345 1382 1
5345 5005 1
5345 6144 1
5346 282 1
5346 2169 1
5346 2647 1
5346 3827 1
5347 259 1
5347 3235 1
5347 3506 1
5347 4876 1
5348 5 1
5348 75 1
5348 802 1
5348 3259 1
5348 5936 1
5348 7163 1
5349 339 1
5349 427 1
5349 2235 1
5349 3007 1
5349 7227 1
5349 9508 1
5350 2976 1
5350 3035 1
5350 4436 1
5350 4549 1
5350 5645 1
5351 387 1
5351 757 1
5351 1555 1
5351 4305 1
5351 9580 1
5352 51 1
5352 127 1
5352 594 1
5352 3753 1
5353 36 1
5353 532 1
5353 2807 1
5353 3713 1
5353 9108 1
5353 9681 1
5354 17 1
5354 187 1
5354 421 1
5354 2880 1
5354 6697 1
5355 906 1
5355 4028 1
5355 4750 1
5355 5261 1
5355 5687 1
5355 9767 1
5356 113 1
5356 297 1
5356 1938 1
5356 4635 1
5356 7101 1
5357 1188 1
5357 2257 1
5357 3006 1
5357 3748 1
5357 6165 1
5358 427 1
5358 4531 1
5358 4719 1
5358 5074 1
5358 6573 1
5359 427 1
5359 1174 1
5359 4489 1
5359 5049 1
5359 6159 1
5360 26 1
5360 2538 1
5360 2685 1
5360 2746 1
5360 6035 1
5361 4 1
5361 99 1
5361 2362 1
5361 3038 1
5361 5864 1
5361 5892 1
5361 6935 1
5361 9686 1
5362 199 1
5362 707 1
5362 1980 1
5362 3989 1
5363 20 1
5363 1711 1
5363 2139 1
5363 3433 1
5363 7764 1
5363 8019 1
5363 9578 1
5364 2 1
5364 4 1
5364 11 1
5364 1848 1
5364 6554 1
5364 6846 1
5364 9691 1
5364 9735 1
5365 92 1
5365 501 1
5365 650 1
5365 3515 1
5366 68 1
5366 748 1
5366 4418 1
5366 5273 1
5366 7239 1
5367 1459 1
5367 2746 1
5367 2761 1
5367 4284 1
5367 8802 1
5368 107 1
5368 547 1
5368 2530 1
5368 2744 1
5369 7 1
5369 451 1
5369 1681 1
5369 4601 1
5369 6974 1
5369 8115 1
5370 138 1
5370 847 1
5370 2600 1
5370 4831 1
5370 8833 1
5370 8906 1
5370 8926 1
5370 9338 1
5370 9462 1
5370 9913 1
5371 649 1
5371 1930 1
5371 2238 1
5371 2552 1
5371 6218 1
5371 8072 1
5372 447 1
5372 805 1
5372 2889 1
5372 4811 1
5372 7171 1
5372 8087 1
5372 9132 1
5373 1429 1
5373 1982 1
5373 3130 1
5373 3749 1
5373 6673 1
5373 8465 1
5374 129 1
5374 850 1
5374 1821 1
5374 2931 1
5374 5396 1
5374 7652 1
5375 866 1
5375 1533 1
5375 1964 1
5375 2848 1
5376 21 1
5376 272 1
5376 3333 1
5376 3522 1
5377 598 1
5377 1167 1
5377 3335 1
5377 5062 1
5377 5437 1
5377 6470 1
5378 18 1
5378 19 1
5378 278 1
5378 4903 1
5379 21 1
5379 970 1
5379 1537 1
5379 3391 1
5379 7891 1
5380 267 1
5380 593 1
5380 868 1
5380 5181 1
5380 6443 1
5380 7342 1
5380 8416 1
5381 365 1
5381 1468 1
5381 1794 1
5381 2348 1
5381 6954 1
5382 11 1
5382 17 1
5382 258 1
5382 1627 1
5383 2456 1
5383 2899 1
5383 3757 1
5383 4250 1
5383 7951 1
5383 8506 1
5383 8648 1
5383 9346 1
5384 11 1
5384 252 1
5384 1619 1
5384 1793 1
5384 7608 1
5384 9049 1
5385 594 1
5385 1033 1
5385 2371 1
5385 2528 1
5385 6264 1
5386 317 1
5386 474 1
5386 945 1
5386 2749 1
5386 5464 1
5386 6171 1
5386 6228 1
5386 8573 1
5387 427 1
5387 1619 1
5387 2597 1
5387 4499 1
5387 8378 1
5388 2274 1
5388 2647 1
5388 3212 1
5388 3930 1
5389 1451 1
5389 2675 1
5389 2841 1
5389 3041 1
5390 10 1
5390 1647 1
5390 2786 1
5390 3835 1
5390 5895 1
5391 40 1
5391 1525 1
5391 2276 1
5391 3854 1
5391 7529 1
5392 33 1
5392 116 1
5392 314 1
5392 2026 1
5393 9 1
5393 211 1
5393 514 1
5393 4167 1
5393 5909 1
5393 8164 1
5394 428 1
5394 1164 1
5394 1925 1
5394 2999 1
5395 75 1
5395 2579 1
5395 4249 1
5395 5017 1
5395 8007 1
5395 9875 1
5396 11 1
5396 133 1
5396 2781 1
5396 5374 1
5396 8071 1
5396 8889 1
5397 979 1
5397 1668 1
5397 2464 1
5397 2785 1
5398 593 1
5398 829 1
5398 3210 1
5398 4815 1
5399 4 1
5399 25 1
5399 56 1
5399 4430 1
5400 219 1
5400 755 1
5400 2057 1
5400 3188 1
5400 9979 1
5401 10 1
5401 759 1
5401 1790 1
5401 4818 1
5401 5725 1
5401 6698 1
5401 8649 1
5401 8938 1
5402 17 1
5402 110 1
5402 525 1
5402 2637 1
5402 5420 1
5402 6156 1
5402 9088 1
5403 1714 1
5403 2873 1
5403 2994 1
5403 5161 1
5404 12 1
5404 2287 1
5404 2633 1
5404 4215 1
5405 99 1
5405 667 1
5405 3461 1
5405 4342 1
5405 5929 1
5406 9 1
5406 337 1
5406 2468 1
5406 2651 1
5406 6190 1
5407 165 1
5407 437 1
5407 2610 1
5407 4193 1
5407 7588 1
5408 44 1
5408 46 1
5408 226 1
5408 2811 1
5409 354 1
5409 2146 1
5409 2427 1
5409 4507 1
5409 6487 1
5410 9 1
5410 273 1
5410 1145 1
5410 4602 1
5410 7773 1
5410 8389 1
5410 8535 1
5411 1392 1
5411 1997 1
5411 3309 1
5411 3844 1
5411 5628 1
5412 2361 1
5412 2834 1
5412 3507 1
5412 4989 1
5412 7056 1
5412 7073 1
5412 8450 1
5412 9762 1
5413 4 1
5413 451 1
5413 2965 1
5413 3762 1
5413 6238 1
5413 8047 1
5413 9097 1
5414 479 1
5414 1123 1
5414 3561 1
5414 4601 1
5414 6165 1
5414 6371 1
5414 8297 1
5415 391 1
5415 649 1
5415 1218 1
5415 2490 1
5415 5719 1
5416 33 1
5416 176 1
5416 348 1
5416 356 1
5416 6472 1
5417 2 1
5417 57 1
5417 154 1
5417 4715 1
5418 1 1
5418 9 1
5418 445 1
5418 2132 1
5419 1292 1
5419 1881 1
5419 2327 1
5419 3147 1
5419 7827 1
5420 754 1
5420 3664 1
5420 4067 1
5420 5402 1
5420 6741 1
5420 7086 1
5420 7531 1
5421 57 1
5421 147 1
5421 585 1
5421 4916 1
5421 5745 1
5421 7569 1
5422 219 1
5422 564 1
5422 2978 1
5422 4834 1
5422 7740 1
5422 8570 1
5422 8661 1
5422 9410 1
5423 11 1
5423 18 1
5423 3265 1
5423 4243 1
5423 5777 1
5424 146 1
5424 4342 1
5424 4602 1
5424 4643 1
5425 25 1
5425 674 1
5425 2181 1
5425 4864 1
5425 6357 1
5425 6600 1
5426 794 1
5426 919 1
5426 1469 1
5426 5133 1
5426 7805 1
5426 9646 1
5427 1 1
5427 4 1
5427 18 1
5427 4636 1
5427 6776 1
5427 6981 1
5427 9248 1
5427 9912 1
5428 62 1
5428 805 1
5428 2606 1
5428 4659 1
5428 7484 1
5428 7790 1
5428 9083 1
5428 9701 1
5429 18 1
5429 91 1
5429 2809 1
5429 5119 1
5429 8642 1
5429 8912 1
5429 9642 1
5430 141 1
5430 2198 1
5430 3107 1
5430 3485 1
5430 7596 1
5431 1194 1
5431 1645 1
5431 4866 1
5431 5244 1
5431 7092 1
5431 8474 1
5431 9349 1
5432 41 1
5432 276 1
5432 1828 1
5432 4419 1
5432 7678 1
5433 1051 1
5433 2517 1
5433 3514 1
5433 4172 1
5433 5634 1
5433 7217 1
5433 8017 1
5434 1074 1
5434 1574 1
5434 2247 1
5434 4873 1
5434 5479 1
5434 6463 1
5434 6842 1
5434 7902 1
5435 354 1
5435 698 1
5435 1178 1
5435 2237 1
5436 330 1
5436 1414 1
5436 2091 1
5436 2548 1
5436 5811 1
5436 6260 1
5436 8310 1
5436 9308 1
5437 204 1
5437 1167 1
5437 4738 1
5437 5377 1
5437 5485 1
5437 5648 1
5438 1218 1
5438 1748 1
5438 2004 1
5438 3985 1
5439 74 1
5439 85 1
5439 154 1
5439 322 1
5439 5515 1
5439 6753 1
5440 305 1
5440 350 1
5440 1272 1
5440 4877 1
5440 9571 1
5441 42 1
5441 99 1
5441 235 1
5441 2037 1
5442 541 1
5442 925 1
5442 1956 1
5442 3437 1
5442 5588 1
5442 7057 1
5443 272 1
5443 2138 1
5443 4007 1
5443 4280 1
5444 628 1
5444 811 1
5444 2354 1
5444 3585 1
5444 6128 1
5445 15 1
5445 4069 1
5445 4395 1
5445 5153 1
5446 49 1
5446 92 1
5446 1035 1
5446 3776 1
5446 8656 1
5447 1 1
5447 394 1
5447 3398 1
5447 3405 1
5447 5534 1
5448 1123 1
5448 1705 1
5448 1920 1
5448 5292 1
5449 634 1
5449 802 1
5449 2084 1
5449 2843 1
5449 6098 1
5449 7026 1
5449 7345 1
5449 7573 1
5449 9433 1
5449 9482 1
5449 9592 1
5449 9764 1
5450 2 1
5450 401 1
5450 1343 1
5450 5323 1
5450 6549 1
5450 6900 1
5450 7722 1
5450 7748 1
5450 8326 1
5451 34 1
5451 146 1
5451 957 1
5451 4450 1
5452 484 1
5452 1826 1
5452 2215 1
5452 3774 1
5452 5764 1
5452 6942 1
5452 8820 1
5452 9954 1
5453 161 1
5453 1682 1
5453 3016 1
5453 4447 1
5453 7554 1
5454 237 1
5454 1041 1
5454 2622 1
5454 4186 1
5455 218 1
5455 1501 1
5455 3075 1
5455 3210 1
5456 113 1
5456 183 1
5456 3131 1
5456 4434 1
5456 9918 1
5457 389 1
5457 2349 1
5457 4940 1
5457 5006 1
5457 8431 1
5458 150 1
5458 406 1
5458 2900 1
5458 4972 1
5458 5732 1
5458 5958 1
5458 6365 1
5458 6790 1
5459 179 1
5459 319 1
5459 1226 1
5459 2779 1
5459 5905 1
5459 6812 1
5459 6884 1
5459 8127 1
5460 1 1
5460 81 1
5460 138 1
5460 3150 1
5461 49 1
5461 403 1
5461 442 1
5461 1105 1
5461 7915 1
5461 8509 1
5461 9926 1
5462 47 1
5462 162 1
5462 476 1
5462 1878 1
5463 1177 1
5463 1748 1
5463 4334 1
5463 5162 1
5464 317 1
5464 474 1
5464 2749 1
5464 5386 1
5464 8025 1
5464 8183 1
5464 8500 1
5465 17 1
5465 459 1
5465 514 1
5465 3233 1
5466 99 1
5466 617 1
5466 1773 1
5466 2262 1
5467 532 1
5467 2634 1
5467 3098 1
5467 4537 1
5468 11 1
5468 1242 1
5468 2896 1
5468 4620 1
5469 72 1
5469 707 1
5469 988 1
5469 3195 1
5469 7897 1
5469 8561 1
5470 438 1
5470 648 1
5470 1943 1
5470 2433 1
5471 1653 1
5471 4369 1
5471 4928 1
5471 5162 1
5471 6275 1
5472 9 1
5472 54 1
5472 451 1
5472 3935 1
5473 49 1
5473 153 1
5473 1195 1
5473 2274 1
5473 6329 1
5473 7183 1
5473 7695 1
5474 73 1
5474 101 1
5474 940 1
5474 2422 1
5474 6410 1
5475 1574 1
5475 2721 1
5475 3833 1
5475 4061 1
5476 246 1
5476 426 1
5476 1988 1
5476 3971 1
5476 6017 1
5476 7279 1
5476 8220 1
5476 8553 1
5477 161 1
5477 849 1
5477 965 1
5477 2386 1
5478 87 1
5478 2031 1
5478 3169 1
5478 3378 1
5478 5924 1
5479 1189 1
5479 1513 1
5479 2247 1
5479 5434 1
5480 1139 1
5480 2666 1
5480 4192 1
5480 4591 1
5480 5620 1
5480 9805 1
5481 165 1
5481 742 1
5481 3757 1
5481 4297 1
5482 359 1
5482 485 1
5482 3331 1
5482 5157 1
5482 6458 1
5482 6823 1
5482 9855 1
5482 9930 1
5483 33 1
5483 2412 1
5483 4406 1
5483 5219 1
5483 7122 1
5484 475 1
5484 676 1
5484 1156 1
5484 1171 1
5484 6405 1
5484 6766 1
5484 7185 1
5484 9118 1
5484 9239 1
5484 9662 1
5485 317 1
5485 484 1
5485 1577 1
5485 5437 1
5485 8193 1
5486 192 1
5486 815 1
5486 905 1
5486 985 1
5486 7156 1
5487 913 1
5487 2764 1
5487 3076 1
5487 4041 1
5487 6208 1
5487 7088 1
5487 8626 1
5488 610 1
5488 2501 1
5488 2704 1
5488 4993 1
5488 9331 1
5489 73 1
5489 131 1
5489 1695 1
5489 3390 1
5490 554 1
5490 812 1
5490 1374 1
5490 2635 1
5490 7424 1
5490 9994 1
5491 68 1
5491 4490 1
5491 4521 1
5491 5227 1
5492 2 1
5492 1197 1
5492 1610 1
5492 5294 1
5492 7657 1
5493 61 1
5493 69 1
5493 2265 1
5493 4684 1
5493 6924 1
5494 419 1
5494 536 1
5494 612 1
5494 1740 1
5495 9 1
5495 1964 1
5495 2762 1
5495 5082 1
5496 25 1
5496 1810 1
5496 2115 1
5496 2966 1
5497 45 1
5497 953 1
5497 3092 1
5497 4358 1
5497 7797 1
5498 36 1
5498 207 1
5498 769 1
5498 2836 1
5498 6129 1
5499 4 1
5499 645 1
5499 773 1
5499 2082 1
5500 1033 1
5500 3334 1
5500 4761 1
5500 5061 1
5500 6855 1
5500 7485 1
5501 33 1
5501 176 1
5501 1221 1
5501 1235 1
5502 28 1
5502 52 1
5502 2666 1
5502 2702 1
5503 542 1
5503 2156 1
5503 3821 1
5503 5174 1
5503 7875 1
5503 8685 1
5504 401 1
5504 1105 1
5504 1133 1
5504 3653 1
5505 642 1
5505 1015 1
5505 2379 1
5505 3211 1
5506 739 1
5506 2082 1
5506 3202 1
5506 3749 1
5506 6167 1
5507 671 1
5507 3179 1
5507 4052 1
5507 4357 1
5507 7803 1
5508 43 1
5508 523 1
5508 618 1
5508 1744 1
5509 191 1
5509 2027 1
5509 2525 1
5509 2811 1
5509 5692 1
5509 5734 1
5509 8253 1
5510 370 1
5510 2318 1
5510 4213 1
5510 4714 1
5510 9807 1
5511 25 1
5511 92 1
5511 965 1
5511 4465 1
5512 36 1
5512 1322 1
5512 1747 1
5512 2017 1
5513 130 1
5513 225 1
5513 1291 1
5513 4663 1
5513 5694 1
5513 6179 1
5513 8920 1
5513 9708 1
5514 1908 1
5514 3438 1
5514 3775 1
5514 4963 1
5514 6871 1
5514 9151 1
5514 9723 1
5514 9744 1
5515 322 1
5515 798 1
5515 802 1
5515 5439 1
5516 18 1
5516 747 1
5516 1915 1
5516 2921 1
5516 7684 1
5516 8103 1
5517 154 1
5517 329 1
5517 2097 1
5517 2850 1
5517 7794 1
5517 9452 1
5518 153 1
5518 185 1
5518 1054 1
5518 1090 1
5518 5688 1
5518 7800 1
5519 490 1
5519 591 1
5519 2073 1
5519 4746 1
5519 9304 1
5520 258 1
5520 1832 1
5520 3037 1
5520 3929 1
5520 7583 1
5520 8288 1
5520 8623 1
5521 60 1
5521 659 1
5521 1106 1
5521 2437 1
5521 8467 1
5521 9432 1
5521 9670 1
5522 147 1
5522 831 1
5522 3477 1
5522 4401 1
5522 7587 1
5522 8538 1
5523 49 1
5523 351 1
5523 1578 1
5523 3557 1
5523 6548 1
5523 6878 1
5523 8525 1
5523 8719 1
5524 130 1
5524 1907 1
5524 2502 1
5524 3400 1
5524 9376 1
5525 35 1
5525 1587 1
5525 3877 1
5525 5257 1
5525 8754 1
5526 43 1
5526 569 1
5526 2611 1
5526 4592 1
5526 6157 1
5526 7170 1
5526 8254 1
5527 11 1
5527 36 1
5527 3877 1
5527 5271 1
5528 33 1
5528 490 1
5528 610 1
5528 2333 1
5529 9 1
5529 1604 1
5529 3116 1
5529 3569 1
5530 38 1
5530 41 1
5530 459 1
5530 2044 1
5530 5653 1
5530 5746 1
5530 8764 1
5531 305 1
5531 1336 1
5531 1999 1
5531 3522 1
5532 1212 1
5532 1446 1
5532 2041 1
5532 4248 1
5533 562 1
5533 1194 1
5533 1336 1
5533 2974 1
5534 1 1
5534 2029 1
5534 3099 1
5534 5447 1
5535 16 1
5535 777 1
5535 3570 1
5535 4815 1
5536 92 1
5536 277 1
5536 2954 1
5536 3537 1
5536 7783 1
5537 1362 1
5537 3199 1
5537 3355 1
5537 3396 1
5537 8217 1
5538 178 1
5538 731 1
5538 1692 1
5538 3369 1
5538 5679 1
5538 6793 1
5538 9604 1
5539 25 1
5539 236 1
5539 3522 1
5539 3785 1
5539 6851 1
5539 6903 1
5539 7512 1
5540 91 1
5540 1537 1
5540 1813 1
5540 3245 1
5541 81 1
5541 1301 1
5541 2065 1
5541 3610 1
5541 7486 1
5541 8718 1
5542 1266 1
5542 2578 1
5542 2881 1
5542 3988 1
5543 10 1
5543 59 1
5543 865 1
5543 1930 1
5544 220 1
5544 258 1
5544 766 1
5544 3384 1
5544 7318 1
5544 7920 1
5544 7982 1
5545 841 1
5545 1425 1
5545 4746 1
5545 5056 1
5545 6439 1
5545 8430 1
5546 21 1
5546 1871 1
5546 2380 1
5546 4634 1
5546 8798 1
5546 9190 1
5547 2 1
5547 282 1
5547 2032 1
5547 3518 1
5547 8886 1
5548 814 1
5548 2193 1
5548 3163 1
5548 3406 1
5548 5927 1
5549 283 1
5549 1607 1
5549 3218 1
5549 4013 1
5550 465 1
5550 558 1
5550 1744 1
5550 4978 1
5551 1 1
5551 1052 1
5551 2492 1
5551 4857 1
5552 4 1
5552 86 1
5552 309 1
5552 4300 1
5553 1011 1
5553 1539 1
5553 3210 1
5553 4216 1
5554 4 1
5554 9 1
5554 786 1
5554 2021 1
5554 8197 1
5555 93 1
5555 996 1
5555 1356 1
5555 5204 1
5555 7374 1
5555 8037 1
5555 9092 1
5556 51 1
5556 2202 1
5556 2578 1
5556 2713 1
5557 2 1
5557 84 1
5557 221 1
5557 3506 1
5557 7346 1
5557 8802 1
5558 359 1
5558 3173 1
5558 3400 1
5558 5233 1
5558 6431 1
5558 7598 1
5559 18 1
5559 392 1
5559 877 1
5559 887 1
5559 6136 1
5560 602 1
5560 1019 1
5560 1550 1
5560 2271 1
5561 17 1
5561 35 1
5561 1737 1
5561 3697 1
5562 9 1
5562 889 1
5562 2908 1
5562 3620 1
5563 18 1
5563 58 1
5563 1137 1
5563 1396 1
5563 8204 1
5563 8978 1
5564 85 1
5564 259 1
5564 777 1
5564 836 1
5564 6382 1
5564 7107 1
5564 7834 1
5564 8500 1
5565 18 1
5565 881 1
5565 1966 1
5565 5286 1
5565 7255 1
5566 59 1
5566 345 1
5566 1033 1
5566 2322 1
5567 91 1
5567 183 1
5567 3971 1
5567 4709 1
5568 556 1
5568 562 1
5568 1455 1
5568 2881 1
5568 6938 1
5569 3478 1
5569 3845 1
5569 4116 1
5569 4197 1
5569 5807 1
5570 284 1
5570 290 1
5570 932 1
5570 1946 1
5570 8652 1
5571 31 1
5571 721 1
5571 3486 1
5571 4369 1
5572 73 1
5572 906 1
5572 2569 1
5572 3530 1
5572 6879 1
5573 468 1
5573 513 1
5573 2276 1
5573 3746 1
5574 1 1
5574 213 1
5574 3725 1
5574 5322 1
5574 6152 1
5574 8543 1
5575 234 1
5575 1017 1
5575 2478 1
5575 4817 1
5575 9760 1
5576 1434 1
5576 1672 1
5576 1955 1
5576 5249 1
5577 61 1
5577 594 1
5577 887 1
5577 1457 1
5578 39 1
5578 210 1
5578 2965 1
5578 2993 1
5578 6464 1
5578 7935 1
5578 9952 1
5579 107 1
5579 685 1
5579 2849 1
5579 5295 1
5579 6537 1
5579 6898 1
5579 9317 1
5580 1 1
5580 4 1
5580 1828 1
5580 3397 1
5580 5716 1
5581 587 1
5581 1507 1
5581 2017 1
5581 2311 1
5581 6397 1
5581 7956 1
5582 18 1
5582 394 1
5582 509 1
5582 3939 1
5582 6703 1
5582 7542 1
5582 8052 1
5583 4 1
5583 1273 1
5583 1901 1
5583 2530 1
5583 7068 1
5584 1082 1
5584 1147 1
5584 3975 1
5584 4140 1
5584 8783 1
5585 81 1
5585 360 1
5585 1293 1
5585 4171 1
5586 1 1
5586 189 1
5586 825 1
5586 1404 1
5586 6636 1
5586 8837 1
5587 422 1
5587 858 1
5587 2274 1
5587 3147 1
5587 9613 1
5588 85 1
5588 692 1
5588 1532 1
5588 5442 1
5588 7268 1
5588 8898 1
5589 1 1
5589 69 1
5589 283 1
5589 3883 1
5590 131 1
5590 156 1
5590 777 1
5590 930 1
5590 5607 1
5590 6883 1
5590 7571 1
5590 8122 1
5590 9535 1
5591 147 1
5591 341 1
5591 4176 1
5591 4740 1
5591 7512 1
5592 91 1
5592 2290 1
5592 3859 1
5592 4583 1
5593 43 1
5593 49 1
5593 959 1
5593 3720 1
5593 6521 1
5594 28 1
5594 509 1
5594 1011 1
5594 1669 1
5594 6976 1
5595 473 1
5595 558 1
5595 2170 1
5595 3656 1
5595 8466 1
5596 179 1
5596 277 1
5596 1744 1
5596 2549 1
5596 6046 1
5596 6741 1
5597 677 1
5597 881 1
5597 2361 1
5597 2811 1
5597 7202 1
5598 123 1
5598 306 1
5598 889 1
5598 1614 1
5599 1999 1
5599 2235 1
5599 3147 1
5599 4665 1
5599 5916 1
5599 6802 1
5599 7524 1
5599 7822 1
5599 9078 1
5600 9 1
5600 154 1
5600 354 1
5600 1857 1
5600 5889 1
5601 81 1
5601 553 1
5601 3376 1
5601 4233 1
5601 6837 1
5601 7138 1
5602 1 1
5602 143 1
5602 434 1
5602 3214 1
5603 1501 1
5603 2235 1
5603 3842 1
5603 4763 1
5603 6223 1
5604 188 1
5604 340 1
5604 1081 1
5604 1265 1
5604 7111 1
5604 9353 1
5604 9458 1
5605 33 1
5605 219 1
5605 1246 1
5605 4409 1
5605 9352 1
5605 9575 1
5606 2 1
5606 67 1
5606 1880 1
5606 2981 1
5606 5869 1
5606 6111 1
5607 13 1
5607 131 1
5607 397 1
5607 5590 1
5607 6407 1
5607 6883 1
5607 8749 1
5608 69 1
5608 300 1
5608 814 1
5608 4011 1
5608 7482 1
5609 777 1
5609 853 1
5609 865 1
5609 3161 1
5610 1259 1
5610 3241 1
5610 3417 1
5610 3739 1
5610 7710 1
5610 9185 1
5611 97 1
5611 1218 1
5611 3327 1
5611 4409 1
5611 5837 1
5611 7387 1
5612 402 1
5612 2716 1
5612 3417 1
5612 3729 1
5613 1028 1
5613 1085 1
5613 4566 1
5613 4710 1
5613 6665 1
5614 66 1
5614 84 1
5614 596 1
5614 1466 1
5614 8144 1
5614 9224 1
5615 531 1
5615 931 1
5615 3785 1
5615 5324 1
5616 41 1
5616 154 1
5616 752 1
5616 1163 1
5616 6376 1
5617 345 1
5617 499 1
5617 3185 1
5617 4293 1
5617 5739 1
5617 8302 1
5618 2 1
5618 85 1
5618 126 1
5618 1065 1
5618 6339 1
5618 9161 1
5619 18 1
5619 276 1
5619 402 1
5619 918 1
5619 6005 1
5619 6653 1
5619 7535 1
5619 8353 1
5620 2777 1
5620 2844 1
5620 4591 1
5620 5480 1
5620 5893 1
5620 8497 1
5621 258 1
5621 2841 1
5621 2866 1
5621 3975 1
5622 25 1
5622 251 1
5622 2148 1
5622 3382 1
5622 9008 1
5623 1038 1
5623 1771 1
5623 1830 1
5623 5008 1
5624 956 1
5624 2953 1
5624 3684 1
5624 4167 1
5624 8325 1
5625 25 1
5625 33 1
5625 2767 1
5625 3414 1
5625 7742 1
5626 225 1
5626 418 1
5626 875 1
5626 3101 1
5626 6458 1
5626 6536 1
5626 6660 1
5626 6992 1
5626 7524 1
5626 9168 1
5627 25 1
5627 1511 1
5627 3304 1
5627 5342 1
5627 5631 1
5628 81 1
5628 98 1
5628 832 1
5628 5411 1
5628 7204 1
5629 55 1
5629 969 1
5629 1644 1
5629 3850 1
5629 6574 1
5629 8245 1
5629 8511 1
5629 9475 1
5630 126 1
5630 1858 1
5630 3580 1
5630 3842 1
5631 2 1
5631 1363 1
5631 5342 1
5631 5627 1
5632 4 1
5632 1071 1
5632 2500 1
5632 3306 1
5633 85 1
5633 1151 1
5633 1515 1
5633 5008 1
5633 6446 1
5634 9 1
5634 129 1
5634 131 1
5634 5433 1
5634 6433 1
5634 9547 1
5635 49 1
5635 179 1
5635 284 1
5635 2673 1
5635 6131 1
5636 21 1
5636 205 1
5636 1986 1
5636 2454 1
5636 8990 1
5637 45 1
5637 283 1
5637 1807 1
5637 4785 1
5638 724 1
5638 2685 1
5638 2979 1
5638 3682 1
5638 8036 1
5639 305 1
5639 602 1
5639 642 1
5639 1719 1
5639 8254 1
5640 1135 1
5640 1798 1
5640 1961 1
5640 3970 1
5641 1 1
5641 71 1
5641 151 1
5641 1586 1
5642 249 1
5642 4245 1
5642 4972 1
5642 5045 1
5642 6013 1
5643 582 1
5643 1377 1
5643 2657 1
5643 5086 1
5643 7753 1
5644 11 1
5644 194 1
5644 1413 1
5644 2669 1
5644 6309 1
5645 828 1
5645 1913 1
5645 2204 1
5645 5350 1
5645 6344 1
5645 6384 1
5645 9523 1
5646 2 1
5646 2857 1
5646 3177 1
5646 3547 1
5647 41 1
5647 1125 1
5647 1322 1
5647 3535 1
5648 354 1
5648 1041 1
5648 2625 1
5648 5437 1
5649 340 1
5649 1630 1
5649 1666 1
5649 4403 1
5649 6535 1
5649 7063 1
5649 9416 1
5649 9417 1
5650 789 1
5650 2514 1
5650 2787 1
5650 3980 1
5650 5963 1
5650 7313 1
5651 327 1
5651 453 1
5651 954 1
5651 3121 1
5651 5721 1
5651 5997 1
5651 7466 1
5652 11 1
5652 522 1
5652 1610 1
5652 4580 1
5652 8945 1
5653 2044 1
5653 3812 1
5653 4998 1
5653 5530 1
5653 6352 1
5653 6876 1
5653 7845 1
5654 9 1
5654 171 1
5654 757 1
5654 2786 1
5654 9175 1
5655 131 1
5655 1087 1
5655 1628 1
5655 4827 1
5656 41 1
5656 1291 1
5656 2766 1
5656 4843 1
5656 6666 1
5657 33 1
5657 490 1
5657 2947 1
5657 3691 1
5658 370 1
5658 658 1
5658 1749 1
5658 2787 1
5658 7753 1
5658 8418 1
5658 8540 1
5659 60 1
5659 2378 1
5659 2901 1
5659 3365 1
5659 6915 1
5659 8503 1
5659 9773 1
5660 141 1
5660 929 1
5660 968 1
5660 4731 1
5661 465 1
5661 2067 1
5661 3890 1
5661 4225 1
5662 166 1
5662 250 1
5662 672 1
5662 3019 1
5662 7154 1
5662 7842 1
5663 36 1
5663 98 1
5663 1824 1
5663 2151 1
5664 291 1
5664 410 1
5664 2098 1
5664 3659 1
5664 9137 1
5665 163 1
5665 1056 1
5665 1307 1
5665 4416 1
5665 9065 1
5666 4 1
5666 195 1
5666 1133 1
5666 3894 1
5666 7704 1
5667 2686 1
5667 3493 1
5667 4173 1
5667 5227 1
5667 6380 1
5667 6562 1
5667 6748 1
5667 8020 1
5667 8940 1
5668 464 1
5668 1223 1
5668 2486 1
5668 5134 1
5668 9407 1
5669 13 1
5669 89 1
5669 2068 1
5669 3279 1
5670 1525 1
5670 3434 1
5670 3506 1
5670 4263 1
5671 389 1
5671 585 1
5671 4331 1
5671 4361 1
5671 5998 1
5671 8388 1
5672 25 1
5672 605 1
5672 1063 1
5672 1891 1
5673 426 1
5673 1476 1
5673 2216 1
5673 4818 1
5673 7232 1
5673 9014 1
5674 1658 1
5674 2242 1
5674 2808 1
5674 3457 1
5675 147 1
5675 332 1
5675 2450 1
5675 4295 1
5676 38 1
5676 842 1
5676 2468 1
5676 4588 1
5676 5759 1
5676 8519 1
5676 9590 1
5677 637 1
5677 994 1
5677 2622 1
5677 4861 1
5677 5751 1
5677 7547 1
5677 7680 1
5678 6 1
5678 27 1
5678 1071 1
5678 4934 1
5678 8184 1
5679 11 1
5679 3777 1
5679 4161 1
5679 5538 1
5679 9240 1
5680 161 1
5680 505 1
5680 1781 1
5680 2156 1
5680 8434 1
5681 2 1
5681 779 1
5681 1619 1
5681 3695 1
5681 8026 1
5682 10 1
5682 496 1
5682 1284 1
5682 1853 1
5683 162 1
5683 2291 1
5683 3602 1
5683 5117 1
5684 1347 1
5684 1453 1
5684 2571 1
5684 3082 1
5684 7069 1
5684 7347 1
5684 8160 1
5684 8894 1
5685 116 1
5685 1363 1
5685 1570 1
5685 4153 1
5685 5967 1
5685 6980 1
5685 7628 1
5685 9297 1
5686 268 1
5686 1844 1
5686 2095 1
5686 3026 1
5687 906 1
5687 1645 1
5687 3104 1
5687 5355 1
5688 3266 1
5688 4273 1
5688 4656 1
5688 5518 1
5688 7593 1
5689 25 1
5689 897 1
5689 2069 1
5689 5171 1
5690 4 1
5690 269 1
5690 1282 1
5690 2793 1
5690 7799 1
5691 81 1
5691 217 1
5691 2483 1
5691 3810 1
5692 191 1
5692 379 1
5692 480 1
5692 5509 1
5692 6084 1
5693 137 1
5693 279 1
5693 1102 1
5693 1322 1
5694 1520 1
5694 2562 1
5694 4366 1
5694 5513 1
5694 8920 1
5695 219 1
5695 373 1
5695 1791 1
5695 4080 1
5695 8895 1
5695 9554 1
5696 655 1
5696 759 1
5696 820 1
5696 1268 1
5696 6395 1
5696 9662 1
5697 3 1
5697 10 1
5697 179 1
5697 194 1
5697 6824 1
5697 8689 1
5697 9351 1
5697 9609 1
5698 59 1
5698 1167 1
5698 1257 1
5698 3193 1
5699 2 1
5699 39 1
5699 4773 1
5699 4811 1
5699 9644 1
5700 17 1
5700 1433 1
5700 3091 1
5700 5194 1
5700 7776 1
5701 17 1
5701 572 1
5701 882 1
5701 5194 1
5701 8614 1
5702 378 1
5702 721 1
5702 1355 1
5702 2725 1
5702 6301 1
5702 8210 1
5703 195 1
5703 1524 1
5703 2969 1
5703 3579 1
5704 18 1
5704 427 1
5704 627 1
5704 1284 1
5704 9984 1
5705 623 1
5705 918 1
5705 3768 1
5705 4371 1
5705 5880 1
5705 7967 1
5706 25 1
5706 1442 1
5706 2117 1
5706 2624 1
5706 6326 1
5707 403 1
5707 2811 1
5707 4350 1
5707 5129 1
5707 9492 1
5708 2716 1
5708 2897 1
5708 2983 1
5708 4901 1
5709 10 1
5709 291 1
5709 1093 1
5709 1994 1
5709 6565 1
5709 7021 1
5709 8358 1
5709 9027 1
5710 33 1
5710 379 1
5710 3684 1
5710 4308 1
5711 733 1
5711 3049 1
5711 3162 1
5711 5250 1
5712 74 1
5712 403 1
5712 2139 1
5712 5338 1
5712 7490 1
5712 7662 1
5713 84 1
5713 505 1
5713 3340 1
5713 5013 1
5713 6315 1
5713 6561 1
5714 602 1
5714 1475 1
5714 2333 1
5714 5189 1
5714 7743 1
5714 9364 1
5715 27 1
5715 2790 1
5715 3142 1
5715 4938 1
5715 5784 1
5715 6742 1
5715 9622 1
5716 1 1
5716 895 1
5716 1875 1
5716 5580 1
5717 27 1
5717 280 1
5717 1064 1
5717 2097 1
5717 9051 1
5717 9572 1
5718 4 1
5718 1874 1
5718 1878 1
5718 4620 1
5718 9181 1
5718 9313 1
5719 469 1
5719 2490 1
5719 2747 1
5719 5415 1
5720 274 1
5720 507 1
5720 1365 1
5720 1500 1
5720 7695 1
5721 585 1
5721 1578 1
5721 2014 1
5721 5651 1
5721 7607 1
5722 5 1
5722 2724 1
5722 3009 1
5722 3193 1
5722 5935 1
5722 7732 1
5722 9348 1
5723 11 1
5723 146 1
5723 3660 1
5723 3864 1
5723 7624 1
5723 9171 1
5724 650 1
5724 4548 1
5724 4710 1
5724 5234 1
5725 469 1
5725 759 1
5725 1514 1
5725 5401 1
5725 6346 1
5725 8649 1
5726 10 1
5726 141 1
5726 2282 1
5726 3140 1
5727 190 1
5727 722 1
5727 1753 1
5727 2889 1
5727 5793 1
5727 6299 1
5727 7912 1
5727 9548 1
5728 273 1
5728 1397 1
5728 3281 1
5728 5007 1
5728 8505 1
5729 301 1
5729 2162 1
5729 2523 1
5729 3187 1
5729 6403 1
5729 8671 1
5730 742 1
5730 983 1
5730 1045 1
5730 4148 1
5730 8461 1
5730 9999 1
5731 1102 1
5731 2870 1
5731 3440 1
5731 3936 1
5732 1844 1
5732 4277 1
5732 4552 1
5732 5458 1
5733 5 1
5733 951 1
5733 1186 1
5733 1241 1
5734 665 1
5734 982 1
5734 2085 1
5734 5509 1
5734 7489 1
5735 772 1
5735 1143 1
5735 2821 1
5735 2901 1
5736 3107 1
5736 3535 1
5736 4885 1
5736 5069 1
5736 8364 1
5737 2 1
5737 33 1
5737 2347 1
5737 4483 1
5738 545 1
5738 1001 1
5738 1322 1
5738 1697 1
5738 7937 1
5738 7959 1
5738 8129 1
5739 12 1
5739 345 1
5739 3383 1
5739 5617 1
5739 8302 1
5739 8706 1
5740 331 1
5740 2382 1
5740 4532 1
5740 5307 1
5741 335 1
5741 1365 1
5741 1869 1
5741 4784 1
5742 205 1
5742 629 1
5742 830 1
5742 1839 1
5742 8243 1
5743 141 1
5743 1156 1
5743 1897 1
5743 3458 1
5743 9448 1
5744 465 1
5744 1201 1
5744 1381 1
5744 1448 1
5744 5763 1
5744 9409 1
5745 89 1
5745 585 1
5745 2867 1
5745 5421 1
5746 107 1
5746 1886 1
5746 2363 1
5746 5530 1
5746 8764 1
5747 28 1
5747 202 1
5747 931 1
5747 4617 1
5748 25 1
5748 3163 1
5748 3518 1
5748 5196 1
5748 7647 1
5748 7675 1
5748 8727 1
5748 9887 1
5749 259 1
5749 665 1
5749 3110 1
5749 3716 1
5750 97 1
5750 2770 1
5750 3607 1
5750 4858 1
5751 73 1
5751 418 1
5751 3521 1
5751 5677 1
5751 5781 1
5751 9614 1
5752 490 1
5752 2086 1
5752 3951 1
5752 4207 1
5752 6345 1
5752 8865 1
5753 59 1
5753 573 1
5753 1565 1
5753 2523 1
5753 6403 1
5753 8151 1
5753 8189 1
5753 8493 1
5754 570 1
5754 2262 1
5754 3183 1
5754 4846 1
5755 25 1
5755 69 1
5755 103 1
5755 3594 1
5755 6395 1
5756 487 1
5756 1609 1
5756 2043 1
5756 4733 1
5756 6058 1
5756 6503 1
5756 9837 1
5757 2282 1
5757 2811 1
5757 3059 1
5757 3962 1
5757 8613 1
5758 5 1
5758 677 1
5758 1345 1
5758 4314 1
5758 5845 1
5758 6086 1
5758 7653 1
5758 8102 1
5758 8636 1
5759 329 1
5759 1320 1
5759 2265 1
5759 5676 1
5759 6220 1
5760 17 1
5760 75 1
5760 146 1
5760 1388 1
5761 394 1
5761 426 1
5761 1281 1
5761 4818 1
5762 569 1
5762 1456 1
5762 4354 1
5762 4422 1
5763 12 1
5763 359 1
5763 4210 1
5763 5744 1
5763 7903 1
5763 9409 1
5764 65 1
5764 1826 1
5764 3900 1
5764 5452 1
5764 5932 1
5764 6835 1
5764 8507 1
5765 522 1
5765 685 1
5765 2497 1
5765 3494 1
5766 1 1
5766 742 1
5766 2569 1
5766 4459 1
5766 8778 1
5767 14 1
5767 67 1
5767 414 1
5767 1143 1
5768 300 1
5768 987 1
5768 1329 1
5768 3291 1
5768 9908 1
5769 410 1
5769 669 1
5769 4763 1
5769 5015 1
5769 6409 1
5770 4 1
5770 499 1
5770 3101 1
5770 5075 1
5770 6148 1
5770 8448 1
5771 227 1
5771 1937 1
5771 2476 1
5771 2703 1
5772 2 1
5772 41 1
5772 50 1
5772 4979 1
5772 7045 1
5772 9537 1
5773 126 1
5773 800 1
5773 1720 1
5773 3073 1
5774 1558 1
5774 1860 1
5774 1964 1
5774 3925 1
5775 524 1
5775 3283 1
5775 4823 1
5775 4913 1
5776 49 1
5776 1717 1
5776 2202 1
5776 2568 1
5777 11 1
5777 48 1
5777 3495 1
5777 5423 1
5777 6687 1
5777 9032 1
5778 5 1
5778 138 1
5778 442 1
5778 2613 1
5779 156 1
5779 189 1
5779 526 1
5779 4087 1
5779 6344 1
5779 7748 1
5779 9420 1
5780 3 1
5780 513 1
5780 2644 1
5780 4613 1
5781 73 1
5781 618 1
5781 3442 1
5781 5751 1
5781 7481 1
5782 36 1
5782 1666 1
5782 2238 1
5782 4909 1
5783 202 1
5783 633 1
5783 2331 1
5783 2372 1
5783 6707 1
5784 11 1
5784 190 1
5784 4938 1
5784 5715 1
5784 6137 1
5785 10 1
5785 509 1
5785 1199 1
5785 1887 1
5785 6529 1
5785 6784 1
5785 8777 1
5786 20 1
5786 276 1
5786 826 1
5786 1612 1
5786 5813 1
5786 5891 1
5786 7287 1
5786 8523 1
5787 309 1
5787 622 1
5787 1465 1
5787 3124 1
5787 6472 1
5788 11 1
5788 27 1
5788 280 1
5788 1465 1
5788 6346 1
5788 9663 1
5789 141 1
5789 549 1
5789 610 1
5789 2553 1
5790 235 1
5790 530 1
5790 2035 1
5790 3986 1
5791 61 1
5791 2046 1
5791 3005 1
5791 4147 1
5792 75 1
5792 242 1
5792 504 1
5792 1311 1
5793 464 1
5793 1753 1
5793 2466 1
5793 5727 1
5793 6299 1
5794 116 1
5794 155 1
5794 489 1
5794 1217 1
5794 8582 1
5795 33 1
5795 317 1
5795 2393 1
5795 3349 1
5795 5956 1
5796 2967 1
5796 4438 1
5796 4459 1
5796 5148 1
5797 30 1
5797 890 1
5797 1802 1
5797 2913 1
5797 7285 1
5798 980 1
5798 1052 1
5798 1995 1
5798 3601 1
5798 7166 1
5799 354 1
5799 733 1
5799 766 1
5799 832 1
5800 18 1
5800 242 1
5800 378 1
5800 4835 1
5800 7832 1
5801 1996 1
5801 2839 1
5801 2900 1
5801 3981 1
5802 1 1
5802 982 1
5802 2890 1
5802 3771 1
5803 853 1
5803 2217 1
5803 3409 1
5803 4076 1
5803 9284 1
5804 365 1
5804 1495 1
5804 3239 1
5804 4319 1
5804 6328 1
5804 7143 1
5805 9 1
5805 162 1
5805 510 1
5805 5274 1
5805 6097 1
5806 780 1
5806 834 1
5806 2146 1
5806 2224 1
5806 9718 1
5807 488 1
5807 1150 1
5807 3845 1
5807 5569 1
5808 18 1
5808 211 1
5808 2641 1
5808 3475 1
5808 8533 1
5809 220 1
5809 475 1
5809 613 1
5809 2399 1
5810 79 1
5810 581 1
5810 1106 1
5810 3056 1
5810 8652 1
5810 8908 1
5811 9 1
5811 330 1
5811 2716 1
5811 5436 1
5811 8310 1
5811 9346 1
5812 146 1
5812 899 1
5812 911 1
5812 2634 1
5812 7495 1
5812 7596 1
5812 7741 1
5813 91 1
5813 1612 1
5813 2630 1
5813 5786 1
5814 49 1
5814 131 1
5814 291 1
5814 1183 1
5814 6966 1
5814 7300 1
5814 9543 1
5815 251 1
5815 713 1
5815 2066 1
5815 2531 1
5815 6921 1
5815 7564 1
5815 9274 1
5816 38 1
5816 1211 1
5816 2361 1
5816 4509 1
5816 7569 1
5817 26 1
5817 1689 1
5817 2981 1
5817 4821 1
5817 6235 1
5817 8216 1
5818 154 1
5818 1080 1
5818 2855 1
5818 2931 1
5819 6 1
5819 33 1
5819 696 1
5819 2865 1
5820 99 1
5820 266 1
5820 3013 1
5820 5147 1
5820 7452 1
5820 7892 1
5821 5 1
5821 99 1
5821 1946 1
5821 2146 1
5821 5840 1
5822 4 1
5822 53 1
5822 2583 1
5822 2889 1
5823 4 1
5823 249 1
5823 489 1
5823 1356 1
5823 7435 1
5824 1195 1
5824 2781 1
5824 3493 1
5824 4173 1
5825 25 1
5825 65 1
5825 1704 1
5825 4001 1
5825 6496 1
5826 599 1
5826 638 1
5826 1438 1
5826 2839 1
5827 14 1
5827 364 1
5827 1099 1
5827 2477 1
5828 1 1
5828 1297 1
5828 1546 1
5828 4567 1
5829 4 1
5829 117 1
5829 1785 1
5829 2677 1
5829 9383 1
5830 642 1
5830 724 1
5830 901 1
5830 3259 1
5831 13 1
5831 394 1
5831 2581 1
5831 4956 1
5832 971 1
5832 1014 1
5832 2319 1
5832 3966 1
5833 9 1
5833 28 1
5833 2713 1
5833 2868 1
5834 380 1
5834 1135 1
5834 2261 1
5834 3498 1
5835 89 1
5835 116 1
5835 587 1
5835 1264 1
5835 6893 1
5835 8560 1
5836 49 1
5836 161 1
5836 202 1
5836 4993 1
5836 8027 1
5837 131 1
5837 843 1
5837 2623 1
5837 5611 1
5837 7689 1
5838 11 1
5838 484 1
5838 995 1
5838 1657 1
5838 6733 1
5838 7252 1
5839 137 1
5839 345 1
5839 1785 1
5839 2621 1
5839 5977 1
5840 850 1
5840 1038 1
5840 1946 1
5840 5821 1
5841 129 1
5841 2705 1
5841 5287 1
5841 5341 1
5842 57 1
5842 405 1
5842 2324 1
5842 4595 1
5842 6373 1
5842 6645 1
5843 930 1
5843 1356 1
5843 1509 1
5843 1606 1
5844 147 1
5844 299 1
5844 510 1
5844 3781 1
5844 8966 1
5845 227 1
5845 2451 1
5845 4314 1
5845 5758 1
5845 7031 1
5845 8143 1
5846 237 1
5846 324 1
5846 875 1
5846 4186 1
5846 7900 1
5846 8247 1
5847 1371 1
5847 1666 1
5847 1895 1
5847 3236 1
5847 5945 1
5847 8479 1
5848 148 1
5848 163 1
5848 3585 1
5848 4644 1
5849 305 1
5849 2251 1
5849 3940 1
5849 5159 1
5849 7489 1
5850 45 1
5850 1145 1
5850 1281 1
5850 4210 1
5850 6718 1
5850 7779 1
5851 34 1
5851 416 1
5851 772 1
5851 3237 1
5851 6464 1
5851 6729 1
5852 473 1
5852 797 1
5852 1372 1
5852 2788 1
5852 8202 1
5853 277 1
5853 1329 1
5853 3117 1
5853 3209 1
5853 6560 1
5853 7236 1
5853 7946 1
5854 9 1
5854 164 1
5854 683 1
5854 3881 1
5854 6104 1
5855 2 1
5855 380 1
5855 2438 1
5855 4452 1
5855 6127 1
5855 9246 1
5856 19 1
5856 454 1
5856 2020 1
5856 4053 1
5856 6001 1
5856 9903 1
5857 451 1
5857 1357 1
5857 2538 1
5857 3091 1
5857 8325 1
5857 9819 1
5858 188 1
5858 827 1
5858 1202 1
5858 4633 1
5859 895 1
5859 1334 1
5859 1756 1
5859 5132 1
5859 6981 1
5859 7775 1
5859 9771 1
5860 348 1
5860 889 1
5860 1316 1
5860 2867 1
5860 6895 1
5860 8933 1
5861 63 1
5861 971 1
5861 982 1
5861 1562 1
5861 8579 1
5862 920 1
5862 979 1
5862 983 1
5862 4815 1
5863 259 1
5863 374 1
5863 673 1
5863 4457 1
5863 7581 1
5863 7891 1
5863 9379 1
5864 99 1
5864 2362 1
5864 3038 1
5864 5361 1
5865 431 1
5865 842 1
5865 1635 1
5865 4036 1
5865 6545 1
5865 8617 1
5866 205 1
5866 551 1
5866 2857 1
5866 4149 1
5866 9033 1
5867 9 1
5867 749 1
5867 2537 1
5867 4684 1
5867 6085 1
5867 6980 1
5867 7385 1
5867 8110 1
5868 34 1
5868 116 1
5868 4270 1
5868 5171 1
5869 1567 1
5869 1711 1
5869 3597 1
5869 5606 1
5870 618 1
5870 1585 1
5870 2275 1
5870 4233 1
5870 6788 1
5871 2 1
5871 401 1
5871 766 1
5871 3394 1
5871 9803 1
5872 585 1
5872 1746 1
5872 1825 1
5872 4008 1
5872 9141 1
5872 9914 1
5873 301 1
5873 1370 1
5873 1510 1
5873 1908 1
5873 6501 1
5873 6712 1
5873 8562 1
5874 298 1
5874 554 1
5874 1977 1
5874 5134 1
5875 47 1
5875 175 1
5875 897 1
5875 1964 1
5875 6946 1
5875 7408 1
5876 162 1
5876 1362 1
5876 2111 1
5876 2195 1
5876 8998 1
5877 2 1
5877 161 1
5877 1307 1
5877 2784 1
5877 9665 1
5878 57 1
5878 474 1
5878 2369 1
5878 4042 1
5878 9696 1
5879 650 1
5879 889 1
5879 1833 1
5879 2049 1
5879 8938 1
5880 267 1
5880 623 1
5880 2139 1
5880 5705 1
5880 6498 1
5881 99 1
5881 442 1
5881 1697 1
5881 3436 1
5882 69 1
5882 714 1
5882 1380 1
5882 5324 1
5882 9638 1
5883 241 1
5883 699 1
5883 971 1
5883 3208 1
5884 99 1
5884 1889 1
5884 2897 1
5884 3365 1
5885 139 1
5885 265 1
5885 2364 1
5885 4337 1
5885 6931 1
5885 8463 1
5885 9808 1
5886 654 1
5886 1539 1
5886 1693 1
5886 1729 1
5886 7250 1
5886 9987 1
5887 386 1
5887 420 1
5887 484 1
5887 3012 1
5888 73 1
5888 165 1
5888 2147 1
5888 4228 1
5888 6747 1
5889 28 1
5889 154 1
5889 4354 1
5889 5600 1
5889 9780 1
5890 49 1
5890 51 1
5890 2330 1
5890 3424 1
5891 276 1
5891 889 1
5891 3479 1
5891 5786 1
5891 7287 1
5892 3882 1
5892 4907 1
5892 5039 1
5892 5361 1
5892 7550 1
5893 14 1
5893 97 1
5893 1684 1
5893 5620 1
5893 9757 1
5894 49 1
5894 418 1
5894 953 1
5894 1443 1
5894 7802 1
5894 8212 1
5895 10 1
5895 1525 1
5895 4041 1
5895 5390 1
5895 6519 1
5895 8367 1
5896 40 1
5896 452 1
5896 2591 1
5896 3241 1
5897 580 1
5897 1814 1
5897 2865 1
5897 4551 1
5897 6165 1
5897 7717 1
5897 8157 1
5897 9662 1
5898 410 1
5898 2098 1
5898 2377 1
5898 3738 1
5898 9285 1
5899 59 1
5899 61 1
5899 1394 1
5899 2563 1
5900 473 1
5900 971 1
5900 1462 1
5900 4398 1
5900 6988 1
5900 8466 1
5901 27 1
5901 419 1
5901 2313 1
5901 3027 1
5901 6138 1
5901 8591 1
5901 9593 1
5902 721 1
5902 2027 1
5902 2173 1
5902 4048 1
5903 51 1
5903 139 1
5903 1164 1
5903 1227 1
5903 6836 1
5904 219 1
5904 665 1
5904 2139 1
5904 3711 1
5904 8827 1
5904 9497 1
5904 9846 1
5905 179 1
5905 233 1
5905 1226 1
5905 5459 1
5906 9 1
5906 98 1
5906 803 1
5906 1041 1
5906 7431 1
5906 7933 1
5906 8015 1
5907 417 1
5907 2642 1
5907 2686 1
5907 5082 1
5907 8295 1
5907 8575 1
5907 9817 1
5908 299 1
5908 2577 1
5908 2711 1
5908 4419 1
5909 9 1
5909 1269 1
5909 3108 1
5909 5393 1
5910 45 1
5910 308 1
5910 526 1
5910 3810 1
5910 6139 1
5911 194 1
5911 317 1
5911 640 1
5911 4020 1
5912 340 1
5912 1282 1
5912 2514 1
5912 3311 1
5912 6806 1
5912 6867 1
5912 8458 1
5912 8774 1
5913 29 1
5913 381 1
5913 3527 1
5913 4734 1
5913 7219 1
5913 8663 1
5914 59 1
5914 1636 1
5914 2347 1
5914 2687 1
5914 7878 1
5914 7939 1
5915 323 1
5915 802 1
5915 2379 1
5915 3296 1
5915 7114 1
5915 8198 1
5915 8622 1
5915 9764 1
5916 257 1
5916 3897 1
5916 4665 1
5916 5599 1
5916 6668 1
5917 49 1
5917 204 1
5917 1939 1
5917 3491 1
5917 6717 1
5917 9519 1
5918 747 1
5918 1125 1
5918 2674 1
5918 4789 1
5918 6148 1
5918 8631 1
5918 9006 1
5919 50 1
5919 2513 1
5919 3009 1
5919 3049 1
5919 9009 1
5920 1473 1
5920 2282 1
5920 3168 1
5920 4152 1
5920 7376 1
5921 17 1
5921 1435 1
5921 2031 1
5921 2416 1
5921 6253 1
5921 8286 1
5921 8836 1
5922 105 1
5922 874 1
5922 2955 1
5922 3713 1
5922 7703 1
5923 1342 1
5923 1567 1
5923 2187 1
5923 3513 1
5923 6057 1
5923 7321 1
5924 65 1
5924 3378 1
5924 3769 1
5924 5478 1
5925 5 1
5925 1514 1
5925 2701 1
5925 4058 1
5926 35 1
5926 921 1
5926 2754 1
5926 5244 1
5927 1693 1
5927 3468 1
5927 4830 1
5927 5548 1
5927 6264 1
5928 2 1
5928 1036 1
5928 2386 1
5928 4368 1
5929 1515 1
5929 3782 1
5929 5148 1
5929 5405 1
5929 6143 1
5930 280 1
5930 544 1
5930 2900 1
5930 5148 1
5930 9999 1
5931 28 1
5931 155 1
5931 1650 1
5931 4827 1
5931 5964 1
5931 8584 1
5932 1551 1
5932 1826 1
5932 4948 1
5932 5764 1
5932 8507 1
5933 14 1
5933 190 1
5933 890 1
5933 1740 1
5934 33 1
5934 113 1
5934 3614 1
5934 4471 1
5934 9421 1
5935 939 1
5935 1684 1
5935 3193 1
5935 5722 1
5936 298 1
5936 953 1
5936 1833 1
5936 5348 1
5937 227 1
5937 1306 1
5937 1766 1
5937 3553 1
5937 6526 1
5937 7069 1
5937 8674 1
5938 101 1
5938 825 1
5938 2161 1
5938 4837 1
5939 699 1
5939 1040 1
5939 1189 1
5939 1626 1
5939 6417 1
5940 1 1
5940 91 1
5940 3393 1
5940 4852 1
5941 99 1
5941 394 1
5941 1070 1
5941 4747 1
5941 6354 1
5941 9256 1
5942 1040 1
5942 1114 1
5942 1570 1
5942 3537 1
5943 158 1
5943 163 1
5943 383 1
5943 3382 1
5943 6127 1
5943 8722 1
5944 10 1
5944 11 1
5944 4125 1
5944 4286 1
5944 6382 1
5944 7260 1
5944 8023 1
5944 9957 1
5945 971 1
5945 1414 1
5945 5025 1
5945 5847 1
5946 19 1
5946 2298 1
5946 3097 1
5946 4246 1
5946 9521 1
5947 33 1
5947 186 1
5947 1725 1
5947 2075 1
5947 7057 1
5948 185 1
5948 554 1
5948 1547 1
5948 4540 1
5948 7688 1
5949 145 1
5949 249 1
5949 3431 1
5949 4159 1
5949 8167 1
5949 8462 1
5949 9068 1
5950 454 1
5950 1123 1
5950 1229 1
5950 1920 1
5951 220 1
5951 497 1
5951 910 1
5951 4405 1
5952 953 1
5952 1319 1
5952 1744 1
5952 2509 1
5952 8211 1
5953 2 1
5953 129 1
5953 202 1
5953 4497 1
5953 7009 1
5953 7119 1
5953 7158 1
5953 7498 1
5953 8379 1
5953 8755 1
5953 9562 1
5954 889 1
5954 1305 1
5954 1833 1
5954 3927 1
5954 8272 1
5954 8928 1
5955 91 1
5955 3395 1
5955 3788 1
5955 4586 1
5955 6259 1
5955 9692 1
5956 1062 1
5956 4399 1
5956 5276 1
5956 5795 1
5956 6213 1
5956 7692 1
5957 103 1
5957 1124 1
5957 3176 1
5957 4566 1
5958 97 1
5958 124 1
5958 3804 1
5958 5458 1
5958 9687 1
5959 611 1
5959 2010 1
5959 2580 1
5959 4065 1
5960 14 1
5960 44 1
5960 635 1
5960 3910 1
5961 257 1
5961 937 1
5961 1324 1
5961 5162 1
5961 6198 1
5962 41 1
5962 368 1
5962 3164 1
5962 3710 1
5963 628 1
5963 1233 1
5963 2787 1
5963 5650 1
5963 6237 1
5963 6268 1
5963 6515 1
5963 6618 1
5963 7313 1
5963 7659 1
5963 7867 1
5963 8281 1
5964 32 1
5964 1388 1
5964 4330 1
5964 5931 1
5964 6480 1
5964 6956 1
5965 12 1
5965 14 1
5965 102 1
5965 4873 1
5966 644 1
5966 851 1
5966 1179 1
5966 2319 1
5967 42 1
5967 116 1
5967 4698 1
5967 5685 1
5968 197 1
5968 343 1
5968 690 1
5968 1162 1
5969 1189 1
5969 2309 1
5969 2461 1
5969 4169 1
5970 2 1
5970 210 1
5970 553 1
5970 1058 1
5970 8704 1
5971 220 1
5971 1485 1
5971 2488 1
5971 3132 1
5971 9932 1
5972 3 1
5972 65 1
5972 824 1
5972 3841 1
5972 6892 1
5972 8367 1
5973 649 1
5973 1099 1
5973 1818 1
5973 2353 1
5973 7107 1
5974 41 1
5974 2158 1
5974 2820 1
5974 3332 1
5975 1370 1
5975 3188 1
5975 3568 1
5975 4397 1
5976 62 1
5976 118 1
5976 515 1
5976 4193 1
5977 17 1
5977 1146 1
5977 1785 1
5977 5839 1
5977 8810 1
5978 227 1
5978 581 1
5978 1249 1
5978 3285 1
5978 6138 1
5978 7036 1
5978 7590 1
5978 8260 1
5978 8584 1
5978 8884 1
5978 9781 1
5979 2097 1
5979 2850 1
5979 4649 1
5979 5165 1
5979 6195 1
5979 6212 1
5980 51 1
5980 139 1
5980 969 1
5980 2323 1
5980 8030 1
5980 9767 1
5981 209 1
5981 259 1
5981 991 1
5981 4972 1
5982 3 1
5982 133 1
5982 709 1
5982 2546 1
5982 6381 1
5983 292 1
5983 465 1
5983 1370 1
5983 1905 1
5983 9251 1
5984 26 1
5984 567 1
5984 738 1
5984 3634 1
5985 11 1
5985 3713 1
5985 3928 1
5985 4526 1
5985 9388 1
5986 103 1
5986 724 1
5986 1806 1
5986 3838 1
5986 6074 1
5986 7637 1
5986 9996 1
5987 357 1
5987 714 1
5987 1441 1
5987 3446 1
5987 6221 1
5987 7390 1
5987 9263 1
5988 34 1
5988 166 1
5988 818 1
5988 1805 1
5988 6771 1
5989 987 1
5989 1924 1
5989 2278 1
5989 2466 1
5989 6686 1
5990 33 1
5990 384 1
5990 425 1
5990 1556 1
5991 601 1
5991 948 1
5991 2026 1
5991 4611 1
5991 6226 1
5991 6556 1
5991 9441 1
5992 407 1
5992 515 1
5992 2443 1
5992 3793 1
5992 6331 1
5993 4 1
5993 18 1
5993 421 1
5993 3993 1
5993 7521 1
5993 9160 1
5994 46 1
5994 481 1
5994 5018 1
5994 5118 1
5995 17 1
5995 124 1
5995 1658 1
5995 2486 1
5996 4 1
5996 107 1
5996 201 1
5996 1187 1
5997 194 1
5997 1753 1
5997 3052 1
5997 5651 1
5998 1114 1
5998 1661 1
5998 4331 1
5998 5671 1
5999 738 1
5999 929 1
5999 2667 1
5999 4657 1
5999 9772 1
6000 938 1
6000 1702 1
6000 2233 1
6000 3088 1
6001 19 1
6001 2628 1
6001 4054 1
6001 5856 1
6001 6500 1
6001 7632 1
6001 7690 1
6002 322 1
6002 787 1
6002 4188 1
6002 4638 1
6002 6293 1
6002 7054 1
6002 7637 1
6003 252 1
6003 1083 1
6003 3761 1
6003 4282 1
6004 25 1
6004 762 1
6004 1502 1
6004 4964 1
6005 312 1
6005 1539 1
6005 1967 1
6005 5619 1
6005 7469 1
6005 7584 1
6006 137 1
6006 258 1
6006 1514 1
6006 3831 1
6007 235 1
6007 276 1
6007 918 1
6007 3442 1
6007 8786 1
6007 9707 1
6008 91 1
6008 338 1
6008 1813 1
6008 4825 1
6009 5 1
6009 50 1
6009 209 1
6009 335 1
6009 7368 1
6009 7703 1
6009 8949 1
6009 9138 1
6010 498 1
6010 503 1
6010 571 1
6010 4791 1
6010 6460 1
6011 113 1
6011 1436 1
6011 1915 1
6011 2486 1
6011 8071 1
6011 8169 1
6012 60 1
6012 108 1
6012 1516 1
6012 5344 1
6013 43 1
6013 86 1
6013 4972 1
6013 5642 1
6014 28 1
6014 538 1
6014 1334 1
6014 2200 1
6015 1 1
6015 194 1
6015 387 1
6015 3865 1
6015 9057 1
6016 685 1
6016 1578 1
6016 3606 1
6016 4584 1
6016 8008 1
6017 1154 1
6017 1689 1
6017 3030 1
6017 5476 1
6017 8899 1
6018 11 1
6018 1043 1
6018 1273 1
6018 4121 1
6019 25 1
6019 50 1
6019 113 1
6019 1626 1
6019 6577 1
6020 480 1
6020 2329 1
6020 3162 1
6020 3808 1
6020 9215 1
6021 1 1
6021 141 1
6021 3667 1
6021 4379 1
6022 322 1
6022 1442 1
6022 3473 1
6022 5082 1
6022 8904 1
6023 81 1
6023 510 1
6023 1287 1
6023 4349 1
6024 18 1
6024 169 1
6024 2701 1
6024 4058 1
6024 8616 1
6024 8979 1
6025 399 1
6025 531 1
6025 1461 1
6025 1540 1
6025 7991 1
6026 881 1
6026 1432 1
6026 2793 1
6026 3619 1
6026 6967 1
6027 12 1
6027 473 1
6027 799 1
6027 4526 1
6028 39 1
6028 703 1
6028 1680 1
6028 3571 1
6028 6206 1
6028 7541 1
6029 75 1
6029 227 1
6029 979 1
6029 5033 1
6029 6139 1
6029 6591 1
6029 7433 1
6030 238 1
6030 505 1
6030 1874 1
6030 4019 1
6030 7412 1
6030 7739 1
6031 534 1
6031 893 1
6031 1223 1
6031 2774 1
6032 17 1
6032 1314 1
6032 3566 1
6032 5195 1
6032 7922 1
6032 9073 1
6033 10 1
6033 41 1
6033 313 1
6033 5017 1
6033 9648 1
6034 17 1
6034 310 1
6034 882 1
6034 2527 1
6034 6109 1
6034 7504 1
6034 8027 1
6035 2538 1
6035 2685 1
6035 2746 1
6035 5360 1
6036 1365 1
6036 1394 1
6036 2056 1
6036 3046 1
6037 67 1
6037 91 1
6037 1225 1
6037 3631 1
6037 7263 1
6038 1830 1
6038 2116 1
6038 3688 1
6038 4751 1
6039 9 1
6039 33 1
6039 154 1
6039 1213 1
6039 7192 1
6039 8469 1
6039 9774 1
6040 48 1
6040 1388 1
6040 5122 1
6040 5261 1
6041 257 1
6041 1182 1
6041 2421 1
6041 3882 1
6042 2 1
6042 6 1
6042 665 1
6042 1400 1
6042 9497 1
6043 91 1
6043 147 1
6043 634 1
6043 2292 1
6043 6096 1
6043 8451 1
6043 9725 1
6044 1218 1
6044 3164 1
6044 3985 1
6044 4089 1
6044 6654 1
6044 6863 1
6044 6913 1
6044 7046 1
6044 8275 1
6044 9057 1
6045 46 1
6045 159 1
6045 895 1
6045 2935 1
6045 6391 1
6045 9027 1
6046 25 1
6046 179 1
6046 411 1
6046 5596 1
6046 6649 1
6047 15 1
6047 179 1
6047 227 1
6047 512 1
6047 9059 1
6048 158 1
6048 3737 1
6048 4091 1
6048 4263 1
6048 6957 1
6049 113 1
6049 196 1
6049 442 1
6049 5176 1
6049 7916 1
6049 9072 1
6050 42 1
6050 102 1
6050 4053 1
6050 5194 1
6050 8080 1
6050 8773 1
6050 8883 1
6050 9627 1
6050 9682 1
6051 154 1
6051 579 1
6051 1161 1
6051 3093 1
6051 9332 1
6052 388 1
6052 1075 1
6052 2591 1
6052 3170 1
6052 6708 1
6053 1834 1
6053 2909 1
6053 2993 1
6053 3199 1
6053 6333 1
6053 8733 1
6054 46 1
6054 209 1
6054 581 1
6054 5219 1
6054 7453 1
6054 8257 1
6054 8657 1
6055 684 1
6055 1521 1
6055 3683 1
6055 5036 1
6056 1490 1
6056 3078 1
6056 3481 1
6056 4761 1
6056 8188 1
6057 1567 1
6057 2187 1
6057 2457 1
6057 5923 1
6057 7321 1
6058 346 1
6058 2043 1
6058 4200 1
6058 5756 1
6058 6466 1
6058 6940 1
6058 9837 1
6059 242 1
6059 692 1
6059 2647 1
6059 3844 1
6059 8318 1
6060 11 1
6060 442 1
6060 2509 1
6060 4781 1
6060 9536 1
6061 48 1
6061 195 1
6061 1769 1
6061 4037 1
6061 6869 1
6061 8460 1
6062 35 1
6062 1515 1
6062 1685 1
6062 3218 1
6062 8173 1
6063 138 1
6063 915 1
6063 1370 1
6063 2033 1
6064 148 1
6064 788 1
6064 849 1
6064 3664 1
6065 18 1
6065 881 1
6065 1414 1
6065 4561 1
6066 105 1
6066 297 1
6066 825 1
6066 2612 1
6067 5 1
6067 16 1
6067 99 1
6067 1589 1
6067 8646 1
6068 9 1
6068 404 1
6068 2829 1
6068 5048 1
6068 6803 1
6069 66 1
6069 348 1
6069 1460 1
6069 4558 1
6069 6623 1
6069 8848 1
6069 9102 1
6070 505 1
6070 1143 1
6070 3664 1
6070 3676 1
6070 6341 1
6070 6433 1
6070 6478 1
6070 6561 1
6071 161 1
6071 451 1
6071 3013 1
6071 3700 1
6072 25 1
6072 825 1
6072 2546 1
6072 5082 1
6073 492 1
6073 1068 1
6073 2087 1
6073 2820 1
6073 6781 1
6073 6950 1
6074 1093 1
6074 1560 1
6074 1678 1
6074 5986 1
6074 9340 1
6075 954 1
6075 1986 1
6075 2789 1
6075 4232 1
6076 33 1
6076 51 1
6076 489 1
6076 2185 1
6076 6462 1
6076 9900 1
6077 90 1
6077 2892 1
6077 3029 1
6077 3495 1
6077 7021 1
6077 8177 1
6078 74 1
6078 154 1
6078 3644 1
6078 4746 1
6078 6711 1
6078 9716 1
6079 2 1
6079 897 1
6079 1937 1
6079 2036 1
6080 285 1
6080 763 1
6080 1961 1
6080 3694 1
6081 1427 1
6081 2334 1
6081 3346 1
6081 5064 1
6081 9351 1
6082 187 1
6082 366 1
6082 1222 1
6082 1882 1
6082 6844 1
6082 8500 1
6082 8520 1
6083 30 1
6083 1264 1
6083 1619 1
6083 4541 1
6083 8063 1
6084 108 1
6084 379 1
6084 866 1
6084 5692 1
6084 8161 1
6085 4 1
6085 9 1
6085 19 1
6085 5867 1
6085 9549 1
6086 50 1
6086 1347 1
6086 4314 1
6086 5758 1
6086 7790 1
6087 11 1
6087 129 1
6087 737 1
6087 4980 1
6088 361 1
6088 802 1
6088 1131 1
6088 4514 1
6088 6098 1
6088 6674 1
6088 7855 1
6088 9830 1
6089 932 1
6089 1620 1
6089 1986 1
6089 3137 1
6089 7091 1
6089 7188 1
6089 8224 1
6089 8740 1
6090 1484 1
6090 1875 1
6090 2757 1
6090 3004 1
6090 7156 1
6091 17 1
6091 782 1
6091 2621 1
6091 4904 1
6091 8005 1
6092 114 1
6092 202 1
6092 225 1
6092 2191 1
6092 9098 1
6092 9453 1
6093 1 1
6093 1610 1
6093 1915 1
6093 3078 1
6093 9749 1
6094 2 1
6094 1159 1
6094 1986 1
6094 4364 1
6095 36 1
6095 685 1
6095 2108 1
6095 4545 1
6095 6437 1
6096 60 1
6096 1273 1
6096 2292 1
6096 6043 1
6096 7887 1
6097 97 1
6097 264 1
6097 3772 1
6097 5805 1
6098 20 1
6098 802 1
6098 5449 1
6098 6088 1
6098 8524 1
6099 177 1
6099 3066 1
6099 4074 1
6099 4535 1
6099 8821 1
6099 9311 1
6100 25 1
6100 419 1
6100 1495 1
6100 4132 1
6101 51 1
6101 147 1
6101 442 1
6101 3452 1
6102 25 1
6102 1556 1
6102 4058 1
6102 4651 1
6103 839 1
6103 1670 1
6103 2870 1
6103 4610 1
6103 6547 1
6103 7463 1
6104 164 1
6104 316 1
6104 478 1
6104 5854 1
6104 6712 1
6104 8419 1
6105 2 1
6105 539 1
6105 648 1
6105 4633 1
6105 7483 1
6105 8709 1
6106 1 1
6106 1707 1
6106 3513 1
6106 4814 1
6106 6744 1
6106 6825 1
6107 179 1
6107 2145 1
6107 2228 1
6107 5299 1
6107 9254 1
6108 161 1
6108 1230 1
6108 2409 1
6108 2814 1
6109 2190 1
6109 2833 1
6109 3765 1
6109 6034 1
6110 186 1
6110 311 1
6110 733 1
6110 3123 1
6111 2 1
6111 25 1
6111 1397 1
6111 5606 1
6112 1683 1
6112 1731 1
6112 4260 1
6112 4309 1
6112 8028 1
6113 1331 1
6113 1530 1
6113 2832 1
6113 4765 1
6114 1035 1
6114 3213 1
6114 4343 1
6114 4850 1
6114 6777 1
6114 9313 1
6115 41 1
6115 162 1
6115 372 1
6115 808 1
6115 7985 1
6115 8131 1
6115 9790 1
6115 9890 1
6116 185 1
6116 267 1
6116 2197 1
6116 4748 1
6116 7532 1
6116 9355 1
6116 9884 1
6117 146 1
6117 325 1
6117 661 1
6117 1378 1
6118 75 1
6118 1263 1
6118 2755 1
6118 4514 1
6118 7499 1
6119 35 1
6119 73 1
6119 1242 1
6119 3017 1
6119 6334 1
6120 2 1
6120 41 1
6120 55 1
6120 4824 1
6121 141 1
6121 290 1
6121 751 1
6121 2464 1
6122 1393 1
6122 1560 1
6122 1695 1
6122 1707 1
6123 138 1
6123 465 1
6123 1340 1
6123 1448 1
6123 7055 1
6124 49 1
6124 370 1
6124 544 1
6124 892 1
6125 237 1
6125 3245 1
6125 3632 1
6125 3993 1
6125 6695 1
6126 81 1
6126 538 1
6126 2832 1
6126 3409 1
6126 6867 1
6126 9447 1
6127 163 1
6127 973 1
6127 5855 1
6127 5943 1
6127 6863 1
6127 7674 1
6127 8745 1
6128 912 1
6128 2509 1
6128 3018 1
6128 5444 1
6128 7598 1
6128 8571 1
6129 1390 1
6129 2053 1
6129 2836 1
6129 5498 1
6130 62 1
6130 418 1
6130 3106 1
6130 4177 1
6130 7316 1
6130 9309 1
6130 9941 1
6131 401 1
6131 1015 1
6131 1518 1
6131 5635 1
6132 40 1
6132 96 1
6132 1183 1
6132 3485 1
6132 6611 1
6133 41 1
6133 1874 1
6133 2010 1
6133 3614 1
6133 9890 1
6134 281 1
6134 993 1
6134 1824 1
6134 3836 1
6135 25 1
6135 33 1
6135 2168 1
6135 3873 1
6135 6504 1
6136 788 1
6136 1164 1
6136 2512 1
6136 5559 1
6137 1004 1
6137 3440 1
6137 4251 1
6137 5784 1
6137 9745 1
6138 2313 1
6138 3115 1
6138 5901 1
6138 5978 1
6138 9781 1
6139 11 1
6139 2612 1
6139 5910 1
6139 6029 1
6139 9252 1
6140 57 1
6140 194 1
6140 2016 1
6140 5051 1
6141 208 1
6141 782 1
6141 3415 1
6141 3577 1
6141 9046 1
6142 510 1
6142 913 1
6142 1550 1
6142 4795 1
6142 6665 1
6143 1105 1
6143 1454 1
6143 1515 1
6143 5929 1
6144 81 1
6144 1382 1
6144 2841 1
6144 5345 1
6145 640 1
6145 898 1
6145 2687 1
6145 4147 1
6145 6738 1
6145 7382 1
6146 1394 1
6146 2215 1
6146 2678 1
6146 2915 1
6146 6596 1
6147 340 1
6147 577 1
6147 1779 1
6147 2917 1
6147 7786 1
6148 499 1
6148 3130 1
6148 5770 1
6148 5918 1
6148 9006 1
6149 2254 1
6149 2522 1
6149 2961 1
6149 3443 1
6149 8861 1
6149 9403 1
6150 2 1
6150 952 1
6150 1283 1
6150 2233 1
6150 6705 1
6151 113 1
6151 1736 1
6151 3235 1
6151 4034 1
6152 1442 1
6152 1753 1
6152 2634 1
6152 5574 1
6152 8082 1
6153 81 1
6153 202 1
6153 1892 1
6153 2202 1
6154 75 1
6154 316 1
6154 4045 1
6154 4276 1
6155 2311 1
6155 2365 1
6155 2796 1
6155 3763 1
6156 858 1
6156 4009 1
6156 5044 1
6156 5402 1
6157 272 1
6157 796 1
6157 4179 1
6157 5526 1
6158 205 1
6158 885 1
6158 1571 1
6158 3333 1
6158 6801 1
6159 1383 1
6159 1458 1
6159 5049 1
6159 5359 1
6160 263 1
6160 1537 1
6160 4104 1
6160 4368 1
6161 170 1
6161 1314 1
6161 2210 1
6161 2286 1
6162 362 1
6162 380 1
6162 4190 1
6162 5136 1
6163 2 1
6163 729 1
6163 2219 1
6163 2861 1
6163 6489 1
6163 8026 1
6164 113 1
6164 492 1
6164 1141 1
6164 2353 1
6164 8411 1
6164 8838 1
6165 580 1
6165 5357 1
6165 5414 1
6165 5897 1
6166 1133 1
6166 1871 1
6166 1967 1
6166 5173 1
6167 450 1
6167 1029 1
6167 2883 1
6167 5506 1
6168 454 1
6168 1586 1
6168 3026 1
6168 3674 1
6169 94 1
6169 409 1
6169 606 1
6169 1155 1
6169 8004 1
6169 8881 1
6169 9372 1
6169 9499 1
6169 9907 1
6170 9 1
6170 221 1
6170 358 1
6170 820 1
6170 8906 1
6171 317 1
6171 1719 1
6171 4949 1
6171 5386 1
6171 6580 1
6171 8877 1
6172 3241 1
6172 3601 1
6172 4026 1
6172 4035 1
6172 6435 1
6172 8983 1
6173 235 1
6173 1482 1
6173 1841 1
6173 4077 1
6173 9297 1
6173 9619 1
6174 161 1
6174 1076 1
6174 1093 1
6174 2791 1
6174 6879 1
6174 7692 1
6175 2 1
6175 797 1
6175 1491 1
6175 5079 1
6175 7881 1
6176 530 1
6176 1322 1
6176 1771 1
6176 4116 1
6177 69 1
6177 138 1
6177 169 1
6177 409 1
6177 9431 1
6178 27 1
6178 49 1
6178 194 1
6178 3341 1
6179 538 1
6179 2521 1
6179 4924 1
6179 5513 1
6179 9834 1
6180 11 1
6180 26 1
6180 375 1
6180 2205 1
6180 7722 1
6180 8819 1
6181 103 1
6181 778 1
6181 1395 1
6181 3481 1
6182 84 1
6182 124 1
6182 357 1
6182 2824 1
6183 2205 1
6183 2685 1
6183 2746 1
6183 3682 1
6183 8036 1
6183 9695 1
6184 1311 1
6184 3770 1
6184 4633 1
6184 5042 1
6185 354 1
6185 868 1
6185 1243 1
6185 4593 1
6185 6381 1
6186 428 1
6186 788 1
6186 1364 1
6186 1586 1
6187 163 1
6187 451 1
6187 563 1
6187 1995 1
6187 7199 1
6187 7481 1
6187 8139 1
6188 539 1
6188 1218 1
6188 1502 1
6188 1836 1
6188 7356 1
6189 675 1
6189 813 1
6189 1312 1
6189 3679 1
6190 5 1
6190 25 1
6190 168 1
6190 5406 1
6191 5 1
6191 1502 1
6191 1773 1
6191 2718 1
6192 2450 1
6192 3548 1
6192 3780 1
6192 4002 1
6192 6460 1
6192 6667 1
6192 6800 1
6193 459 1
6193 481 1
6193 3073 1
6193 4697 1
6194 15 1
6194 855 1
6194 2411 1
6194 2865 1
6194 9446 1
6195 502 1
6195 1639 1
6195 3767 1
6195 5979 1
6195 7176 1
6195 8217 1
6195 9320 1
6195 9982 1
6196 317 1
6196 2076 1
6196 2803 1
6196 3996 1
6197 9 1
6197 401 1
6197 4327 1
6197 5231 1
6198 34 1
6198 1361 1
6198 1526 1
6198 5961 1
6199 97 1
6199 1305 1
6199 2338 1
6199 3683 1
6200 1 1
6200 1277 1
6200 1393 1
6200 2254 1
6200 6227 1
6200 6364 1
6200 6564 1
6200 6807 1
6201 665 1
6201 1452 1
6201 2074 1
6201 4516 1
6201 6646 1
6201 6921 1
6201 8496 1
6201 8584 1
6201 9233 1
6202 10 1
6202 822 1
6202 2584 1
6202 5271 1
6202 8600 1
6203 29 1
6203 549 1
6203 4966 1
6203 5213 1
6204 1111 1
6204 1253 1
6204 2523 1
6204 2936 1
6204 6983 1
6204 7710 1
6205 329 1
6205 628 1
6205 3164 1
6205 4579 1
6205 6615 1
6206 2625 1
6206 3995 1
6206 4385 1
6206 6028 1
6206 9377 1
6207 18 1
6207 129 1
6207 522 1
6207 4663 1
6207 6367 1
6208 393 1
6208 451 1
6208 2967 1
6208 5487 1
6209 892 1
6209 2172 1
6209 3911 1
6209 5024 1
6210 10 1
6210 118 1
6210 1009 1
6210 3591 1
6210 6350 1
6210 8561 1
6210 9756 1
6211 1 1
6211 2884 1
6211 4106 1
6211 4943 1
6211 6528 1
6211 6926 1
6211 9115 1
6211 9794 1
6212 763 1
6212 3265 1
6212 3858 1
6212 5979 1
6213 107 1
6213 131 1
6213 1242 1
6213 5956 1
6213 6702 1
6213 6857 1
6214 11 1
6214 1473 1
6214 2260 1
6214 2779 1
6214 8785 1
6214 8999 1
6214 9280 1
6215 863 1
6215 2059 1
6215 2174 1
6215 2558 1
6215 7516 1
6216 2 1
6216 5 1
6216 1387 1
6216 1537 1
6217 180 1
6217 1122 1
6217 2401 1
6217 3235 1
6217 6440 1
6217 6751 1
6217 8345 1
6218 5 1
6218 649 1
6218 2845 1
6218 5371 1
6218 8224 1
6219 17 1
6219 1578 1
6219 1733 1
6219 2739 1
6219 8412 1
6219 9354 1
6220 4 1
6220 1447 1
6220 2068 1
6220 5759 1
6220 9183 1
6221 146 1
6221 1441 1
6221 3219 1
6221 5987 1
6222 569 1
6222 746 1
6222 1065 1
6222 2686 1
6223 339 1
6223 714 1
6223 2235 1
6223 5603 1
6223 6802 1
6223 7597 1
6224 5 1
6224 18 1
6224 453 1
6224 833 1
6224 6363 1
6225 838 1
6225 1202 1
6225 4193 1
6225 4786 1
6225 6415 1
6225 8539 1
6226 11 1
6226 39 1
6226 5058 1
6226 5991 1
6227 1 1
6227 11 1
6227 2499 1
6227 6200 1
6228 945 1
6228 2332 1
6228 3030 1
6228 5386 1
6228 9405 1
6229 33 1
6229 75 1
6229 2190 1
6229 4569 1
6229 7245 1
6230 1873 1
6230 2043 1
6230 2958 1
6230 4094 1
6230 9684 1
6231 2450 1
6231 4665 1
6231 4970 1
6231 5301 1
6232 145 1
6232 919 1
6232 1295 1
6232 1818 1
6232 6398 1
6232 9438 1
6233 43 1
6233 454 1
6233 499 1
6233 700 1
6233 8129 1
6233 9275 1
6234 89 1
6234 1782 1
6234 3364 1
6234 5202 1
6235 1689 1
6235 1964 1
6235 2885 1
6235 5817 1
6236 216 1
6236 261 1
6236 2273 1
6236 3997 1
6237 634 1
6237 2084 1
6237 4969 1
6237 5963 1
6237 6591 1
6238 532 1
6238 2243 1
6238 3762 1
6238 5413 1
6238 7504 1
6239 10 1
6239 41 1
6239 545 1
6239 875 1
6239 6421 1
6239 7859 1
6239 9761 1
6240 116 1
6240 344 1
6240 2227 1
6240 4898 1
6241 41 1
6241 858 1
6241 1349 1
6241 2474 1
6242 2 1
6242 720 1
6242 3337 1
6242 3862 1
6242 6638 1
6242 6902 1
6242 9800 1
6243 49 1
6243 50 1
6243 100 1
6243 210 1
6243 7604 1
6244 9 1
6244 51 1
6244 2555 1
6244 4993 1
6245 1278 1
6245 3316 1
6245 3377 1
6245 4898 1
6246 1297 1
6246 2846 1
6246 3043 1
6246 4567 1
6246 8936 1
6247 1 1
6247 71 1
6247 77 1
6247 339 1
6248 770 1
6248 795 1
6248 2191 1
6248 3839 1
6249 237 1
6249 946 1
6249 1641 1
6249 4785 1
6250 290 1
6250 1922 1
6250 2117 1
6250 4291 1
6250 7562 1
6250 8868 1
6251 90 1
6251 443 1
6251 1293 1
6251 3478 1
6252 89 1
6252 764 1
6252 3849 1
6252 5141 1
6252 7395 1
6252 9356 1
6253 499 1
6253 2170 1
6253 4067 1
6253 5921 1
6254 1 1
6254 714 1
6254 758 1
6254 830 1
6254 7966 1
6254 9263 1
6255 42 1
6255 737 1
6255 2260 1
6255 2400 1
6255 6955 1
6256 25 1
6256 29 1
6256 466 1
6256 4178 1
6257 29 1
6257 660 1
6257 814 1
6257 3388 1
6258 11 1
6258 27 1
6258 266 1
6258 1372 1
6258 9276 1
6258 9872 1
6259 21 1
6259 91 1
6259 1845 1
6259 5955 1
6259 7311 1
6259 9976 1
6260 36 1
6260 946 1
6260 5149 1
6260 5436 1
6260 6296 1
6261 210 1
6261 217 1
6261 1171 1
6261 1299 1
6262 412 1
6262 769 1
6262 938 1
6262 4190 1
6263 147 1
6263 489 1
6263 853 1
6263 3922 1
6263 8374 1
6264 1070 1
6264 1569 1
6264 5385 1
6264 5927 1
6265 38 1
6265 353 1
6265 498 1
6265 2573 1
6265 6277 1
6265 6390 1
6265 8887 1
6266 1083 1
6266 3318 1
6266 4282 1
6266 5089 1
6266 7297 1
6266 8049 1
6266 8065 1
6267 522 1
6267 963 1
6267 1290 1
6267 4606 1
6267 6587 1
6268 324 1
6268 2831 1
6268 5135 1
6268 5963 1
6268 6384 1
6268 6483 1
6268 8451 1
6268 8698 1
6268 8842 1
6268 9700 1
6269 572 1
6269 725 1
6269 1188 1
6269 1709 1
6269 6564 1
6269 7402 1
6269 8487 1
6269 9115 1
6269 9464 1
6269 9887 1
6270 185 1
6270 1719 1
6270 4540 1
6270 4612 1
6270 8386 1
6271 604 1
6271 971 1
6271 3472 1
6271 5172 1
6271 6540 1
6272 417 1
6272 510 1
6272 3001 1
6272 4066 1
6273 14 1
6273 17 1
6273 1414 1
6273 2262 1
6274 18 1
6274 799 1
6274 1472 1
6274 5102 1
6274 8152 1
6275 18 1
6275 379 1
6275 2731 1
6275 5471 1
6276 170 1
6276 1579 1
6276 1987 1
6276 4580 1
6276 6291 1
6277 140 1
6277 353 1
6277 4191 1
6277 6265 1
6277 8739 1
6278 49 1
6278 1044 1
6278 1276 1
6278 3627 1
6279 225 1
6279 1167 1
6279 4774 1
6279 4779 1
6280 880 1
6280 1571 1
6280 1681 1
6280 3755 1
6280 6505 1
6280 6765 1
6281 727 1
6281 1417 1
6281 3243 1
6281 5212 1
6281 7395 1
6281 9152 1
6282 18 1
6282 427 1
6282 1465 1
6282 4393 1
6282 7458 1
6282 9210 1
6282 9392 1
6283 9 1
6283 25 1
6283 2371 1
6283 2462 1
6284 2 1
6284 161 1
6284 825 1
6284 3531 1
6285 188 1
6285 1354 1
6285 1628 1
6285 2793 1
6285 7387 1
6286 1037 1
6286 1714 1
6286 2276 1
6286 2307 1
6286 7172 1
6287 9 1
6287 53 1
6287 713 1
6287 5115 1
6287 7325 1
6288 197 1
6288 994 1
6288 1067 1
6288 3239 1
6289 2 1
6289 83 1
6289 2554 1
6289 2705 1
6289 7424 1
6289 9075 1
6290 117 1
6290 436 1
6290 897 1
6290 3257 1
6290 7644 1
6290 7858 1
6290 7991 1
6290 8410 1
6290 9593 1
6291 2287 1
6291 3145 1
6291 4580 1
6291 6276 1
6291 7972 1
6292 19 1
6292 1533 1
6292 2356 1
6292 2765 1
6293 3013 1
6293 4467 1
6293 5138 1
6293 6002 1
6293 7637 1
6294 202 1
6294 370 1
6294 5076 1
6294 5299 1
6294 6386 1
6294 9750 1
6295 217 1
6295 462 1
6295 1718 1
6295 5014 1
6295 7785 1
6296 299 1
6296 904 1
6296 1418 1
6296 6260 1
6297 158 1
6297 1054 1
6297 4327 1
6297 4942 1
6297 6581 1
6297 7129 1
6297 7522 1
6297 7714 1
6297 8263 1
6298 1195 1
6298 1922 1
6298 2967 1
6298 5259 1
6298 6805 1
6299 1753 1
6299 2466 1
6299 5727 1
6299 5793 1
6300 9 1
6300 299 1
6300 1964 1
6300 4577 1
6300 9246 1
6301 721 1
6301 804 1
6301 2442 1
6301 5702 1
6301 9810 1
6302 131 1
6302 530 1
6302 719 1
6302 1661 1
6302 7116 1
6302 7437 1
6302 7947 1
6303 9 1
6303 1101 1
6303 3220 1
6303 4486 1
6303 6648 1
6303 9103 1
6304 395 1
6304 759 1
6304 853 1
6304 1209 1
6305 297 1
6305 318 1
6305 650 1
6305 1524 1
6305 7226 1
6305 7332 1
6305 7485 1
6305 8554 1
6305 9278 1
6306 11 1
6306 354 1
6306 524 1
6306 777 1
6307 36 1
6307 340 1
6307 382 1
6307 3273 1
6308 28 1
6308 1678 1
6308 2116 1
6308 4512 1
6309 884 1
6309 2609 1
6309 4613 1
6309 5644 1
6310 162 1
6310 2682 1
6310 2717 1
6310 3789 1
6311 43 1
6311 1017 1
6311 1045 1
6311 2293 1
6312 141 1
6312 445 1
6312 4535 1
6312 5125 1
6312 9675 1
6313 2894 1
6313 3036 1
6313 4434 1
6313 4600 1
6313 7195 1
6313 8977 1
6313 9956 1
6314 49 1
6314 1519 1
6314 2556 1
6314 4832 1
6314 6590 1
6315 505 1
6315 3542 1
6315 3594 1
6315 5713 1
6315 7380 1
6315 9384 1
6316 11 1
6316 74 1
6316 2538 1
6316 5048 1
6316 7393 1
6317 138 1
6317 1068 1
6317 2054 1
6317 4506 1
6318 179 1
6318 1300 1
6318 3905 1
6318 4340 1
6319 1132 1
6319 4140 1
6319 4614 1
6319 4693 1
6320 296 1
6320 681 1
6320 955 1
6320 3534 1
6321 275 1
6321 702 1
6321 1929 1
6321 4812 1
6322 18 1
6322 961 1
6322 1507 1
6322 2806 1
6322 8366 1
6323 74 1
6323 1254 1
6323 2764 1
6323 4258 1
6324 198 1
6324 297 1
6324 394 1
6324 5097 1
6324 9864 1
6325 1 1
6325 343 1
6325 1162 1
6325 2053 1
6326 953 1
6326 2370 1
6326 2624 1
6326 5706 1
6327 28 1
6327 74 1
6327 170 1
6327 180 1
6327 8574 1
6327 9437 1
6328 116 1
6328 1180 1
6328 1316 1
6328 5804 1
6329 137 1
6329 869 1
6329 3051 1
6329 5473 1
6329 6578 1
6329 8062 1
6330 74 1
6330 2044 1
6330 2538 1
6330 2764 1
6330 9294 1
6330 9681 1
6331 624 1
6331 1018 1
6331 4565 1
6331 5992 1
6331 6500 1
6331 8101 1
6332 876 1
6332 1873 1
6332 3846 1
6332 4616 1
6333 25 1
6333 801 1
6333 4764 1
6333 6053 1
6333 9354 1
6333 9394 1
6334 1597 1
6334 1922 1
6334 4631 1
6334 6119 1
6335 33 1
6335 178 1
6335 1475 1
6335 4698 1
6335 8499 1
6335 9755 1
6336 33 1
6336 211 1
6336 2010 1
6336 5132 1
6336 8165 1
6337 225 1
6337 700 1
6337 2748 1
6337 4914 1
6338 365 1
6338 435 1
6338 1642 1
6338 4305 1
6338 8194 1
6339 909 1
6339 1031 1
6339 2885 1
6339 5618 1
6339 6686 1
6339 7146 1
6339 9429 1
6339 9674 1
6340 50 1
6340 585 1
6340 946 1
6340 1039 1
6340 7918 1
6341 381 1
6341 2732 1
6341 3447 1
6341 6070 1
6341 8983 1
6342 12 1
6342 378 1
6342 777 1
6342 1572 1
6343 57 1
6343 561 1
6343 967 1
6343 3548 1
6344 156 1
6344 1814 1
6344 5645 1
6344 5779 1
6345 617 1
6345 3314 1
6345 3396 1
6345 5752 1
6345 7052 1
6346 372 1
6346 2345 1
6346 5725 1
6346 5788 1
6347 665 1
6347 2848 1
6347 3711 1
6347 3805 1
6347 6722 1
6347 8074 1
6347 9074 1
6347 9624 1
6348 105 1
6348 238 1
6348 2287 1
6348 2364 1
6349 1209 1
6349 1295 1
6349 1416 1
6349 2863 1
6350 27 1
6350 1511 1
6350 1818 1
6350 6210 1
6350 8561 1
6351 57 1
6351 1594 1
6351 2332 1
6351 3030 1
6351 7024 1
6351 9019 1
6351 9589 1
6352 17 1
6352 4998 1
6352 5322 1
6352 5653 1
6352 7303 1
6352 7337 1
6353 353 1
6353 675 1
6353 939 1
6353 1797 1
6354 578 1
6354 758 1
6354 2713 1
6354 5941 1
6355 14 1
6355 76 1
6355 230 1
6355 5085 1
6355 6911 1
6355 7234 1
6355 8870 1
6356 395 1
6356 649 1
6356 4126 1
6356 4564 1
6357 25 1
6357 87 1
6357 222 1
6357 5425 1
6358 89 1
6358 268 1
6358 2385 1
6358 3824 1
6358 9655 1
6359 890 1
6359 1742 1
6359 2237 1
6359 5044 1
6360 144 1
6360 1650 1
6360 2433 1
6360 3273 1
6361 579 1
6361 1458 1
6361 1596 1
6361 1661 1
6361 6710 1
6362 687 1
6362 1563 1
6362 2475 1
6362 2723 1
6362 8312 1
6362 9132 1
6363 119 1
6363 655 1
6363 833 1
6363 6224 1
6363 9281 1
6364 473 1
6364 2254 1
6364 3703 1
6364 6200 1
6364 7529 1
6364 8140 1
6365 11 1
6365 192 1
6365 1432 1
6365 5458 1
6365 7237 1
6366 20 1
6366 634 1
6366 790 1
6366 3181 1
6367 18 1
6367 3739 1
6367 4579 1
6367 6207 1
6367 6659 1
6367 9758 1
6368 103 1
6368 164 1
6368 2777 1
6368 4107 1
6368 7516 1
6369 596 1
6369 1002 1
6369 3769 1
6369 4614 1
6370 132 1
6370 2637 1
6370 4002 1
6370 4859 1
6371 858 1
6371 904 1
6371 3561 1
6371 5414 1
6372 20 1
6372 38 1
6372 233 1
6372 668 1
6373 405 1
6373 938 1
6373 1284 1
6373 5842 1
6373 7883 1
6374 12 1
6374 36 1
6374 446 1
6374 4886 1
6375 29 1
6375 770 1
6375 822 1
6375 5108 1
6375 7669 1
6375 7839 1
6376 154 1
6376 1745 1
6376 4035 1
6376 5616 1
6376 7772 1
6377 91 1
6377 283 1
6377 991 1
6377 2627 1
6377 9270 1
6377 9413 1
6378 182 1
6378 1202 1
6378 1452 1
6378 2590 1
6378 7012 1
6378 8845 1
6378 9586 1
6379 2619 1
6379 3475 1
6379 3653 1
6379 3713 1
6379 6681 1
6379 6688 1
6379 8669 1
6380 610 1
6380 685 1
6380 1801 1
6380 5667 1
6380 8940 1
6380 9271 1
6380 9314 1
6381 2235 1
6381 2797 1
6381 5982 1
6381 6185 1
6381 7597 1
6381 9605 1
6381 9745 1
6382 915 1
6382 2834 1
6382 5564 1
6382 5944 1
6382 8203 1
6383 2 1
6383 1626 1
6383 4230 1
6383 5077 1
6384 118 1
6384 2500 1
6384 5645 1
6384 6268 1
6385 41 1
6385 1547 1
6385 1851 1
6385 4196 1
6386 370 1
6386 1177 1
6386 2316 1
6386 6294 1
6387 522 1
6387 2047 1
6387 2176 1
6387 4073 1
6387 9246 1
6388 2213 1
6388 2930 1
6388 4753 1
6388 4771 1
6388 7095 1
6389 221 1
6389 838 1
6389 1184 1
6389 4730 1
6389 8034 1
6389 8545 1
6390 41 1
6390 1809 1
6390 3267 1
6390 6265 1
6390 7876 1
6390 9855 1
6390 9992 1
6391 2261 1
6391 3210 1
6391 3713 1
6391 6045 1
6392 881 1
6392 919 1
6392 4161 1
6392 4383 1
6392 7254 1
6392 8381 1
6393 2257 1
6393 2963 1
6393 3108 1
6393 3266 1
6393 6538 1
6393 7878 1
6394 267 1
6394 513 1
6394 661 1
6394 4588 1
6394 6443 1
6394 8476 1
6394 9694 1
6395 1 1
6395 2101 1
6395 5696 1
6395 5755 1
6396 2 1
6396 402 1
6396 2161 1
6396 3845 1
6397 1322 1
6397 2010 1
6397 2017 1
6397 5581 1
6398 11 1
6398 966 1
6398 3978 1
6398 6232 1
6398 8264 1
6398 9567 1
6398 9896 1
6399 1116 1
6399 1982 1
6399 2932 1
6399 3049 1
6400 154 1
6400 219 1
6400 890 1
6400 1834 1
6401 2 1
6401 2039 1
6401 2130 1
6401 4869 1
6401 6934 1
6401 9636 1
6402 97 1
6402 116 1
6402 133 1
6402 783 1
6402 9473 1
6403 573 1
6403 2523 1
6403 5729 1
6403 5753 1
6403 7901 1
6404 66 1
6404 95 1
6404 795 1
6404 1397 1
6405 305 1
6405 676 1
6405 2021 1
6405 5484 1
6405 7931 1
6406 18 1
6406 418 1
6406 885 1
6406 2571 1
6407 76 1
6407 1015 1
6407 3194 1
6407 5607 1
6408 141 1
6408 763 1
6408 833 1
6408 4156 1
6409 2555 1
6409 4486 1
6409 4763 1
6409 5769 1
6409 6579 1
6409 9477 1
6409 9884 1
6410 101 1
6410 434 1
6410 665 1
6410 5474 1
6411 50 1
6411 83 1
6411 2731 1
6411 4010 1
6411 8259 1
6412 210 1
6412 1520 1
6412 1572 1
6412 1753 1
6412 9100 1
6412 9540 1
6413 41 1
6413 4350 1
6413 4386 1
6413 5267 1
6413 8230 1
6413 8543 1
6414 2993 1
6414 3210 1
6414 4403 1
6414 4814 1
6414 7519 1
6415 84 1
6415 566 1
6415 943 1
6415 6225 1
6416 420 1
6416 457 1
6416 3791 1
6416 4043 1
6416 9740 1
6417 487 1
6417 1037 1
6417 1626 1
6417 5939 1
6418 27 1
6418 74 1
6418 2246 1
6418 4801 1
6419 679 1
6419 1264 1
6419 3986 1
6419 5168 1
6419 9142 1
6420 1079 1
6420 2565 1
6420 3604 1
6420 4082 1
6421 710 1
6421 2297 1
6421 3149 1
6421 6239 1
6421 6661 1
6421 8195 1
6421 9512 1
6422 107 1
6422 701 1
6422 2373 1
6422 5294 1
6422 6551 1
6422 7849 1
6422 8769 1
6423 21 1
6423 73 1
6423 292 1
6423 3236 1
6424 678 1
6424 1955 1
6424 2685 1
6424 3913 1
6425 2 1
6425 10 1
6425 1225 1
6425 1892 1
6426 66 1
6426 610 1
6426 2378 1
6426 2929 1
6426 7112 1
6426 7634 1
6426 7800 1
6426 7828 1
6426 8181 1
6426 9223 1
6426 9253 1
6426 9473 1
6427 238 1
6427 558 1
6427 1396 1
6427 3639 1
6427 8712 1
6428 97 1
6428 1300 1
6428 1790 1
6428 4123 1
6428 8939 1
6429 4 1
6429 792 1
6429 2653 1
6429 2690 1
6429 9066 1
6429 9794 1
6430 1507 1
6430 1605 1
6430 2477 1
6430 5145 1
6430 7148 1
6430 8130 1
6430 9848 1
6431 359 1
6431 2475 1
6431 3899 1
6431 5558 1
6432 1017 1
6432 3483 1
6432 4511 1
6432 4983 1
6433 3664 1
6433 5164 1
6433 5634 1
6433 6070 1
6434 59 1
6434 434 1
6434 3828 1
6434 4377 1
6435 9 1
6435 1313 1
6435 2555 1
6435 6172 1
6436 2 1
6436 4 1
6436 36 1
6436 1105 1
6436 7675 1
6436 8563 1
6436 9857 1
6437 1707 1
6437 2889 1
6437 4545 1
6437 6095 1
6438 107 1
6438 540 1
6438 4043 1
6438 4993 1
6438 9740 1
6439 83 1
6439 1419 1
6439 3710 1
6439 5545 1
6440 180 1
6440 551 1
6440 1285 1
6440 6217 1
6440 8345 1
6440 9301 1
6441 28 1
6441 203 1
6441 1441 1
6441 2460 1
6442 18 1
6442 422 1
6442 938 1
6442 1043 1
6442 8131 1
6443 267 1
6443 2193 1
6443 5380 1
6443 6394 1
6443 9694 1
6444 1241 1
6444 1776 1
6444 2054 1
6444 3362 1
6445 198 1
6445 421 1
6445 3822 1
6445 5257 1
6446 33 1
6446 2627 1
6446 4297 1
6446 5633 1
6446 8970 1
6447 517 1
6447 2906 1
6447 4026 1
6447 4732 1
6447 6901 1
6447 8866 1
6447 9043 1
6448 4 1
6448 1620 1
6448 2447 1
6448 4455 1
6449 276 1
6449 802 1
6449 883 1
6449 2044 1
6449 7302 1
6450 84 1
6450 1170 1
6450 4099 1
6450 5012 1
6451 4 1
6451 38 1
6451 1211 1
6451 4201 1
6452 753 1
6452 1302 1
6452 2103 1
6452 4971 1
6452 7511 1
6453 616 1
6453 1826 1
6453 2351 1
6453 2813 1
6454 260 1
6454 849 1
6454 994 1
6454 4889 1
6455 417 1
6455 884 1
6455 1738 1
6455 3357 1
6456 9 1
6456 370 1
6456 2758 1
6456 3072 1
6457 515 1
6457 699 1
6457 1170 1
6457 2148 1
6458 2 1
6458 418 1
6458 5482 1
6458 5626 1
6458 6895 1
6459 322 1
6459 2502 1
6459 3241 1
6459 3400 1
6460 2131 1
6460 3780 1
6460 6010 1
6460 6192 1
6460 6667 1
6461 10 1
6461 629 1
6461 1138 1
6461 1908 1
6461 9761 1
6462 39 1
6462 51 1
6462 4334 1
6462 6076 1
6463 185 1
6463 1674 1
6463 4873 1
6463 5434 1
6464 1079 1
6464 2371 1
6464 5578 1
6464 5851 1
6465 865 1
6465 2589 1
6465 3070 1
6465 3101 1
6466 41 1
6466 1009 1
6466 1195 1
6466 6058 1
6466 6593 1
6466 7338 1
6466 9572 1
6466 9837 1
6467 91 1
6467 92 1
6467 283 1
6467 1092 1
6467 9692 1
6468 222 1
6468 462 1
6468 666 1
6468 2826 1
6468 7026 1
6468 7635 1
6468 8824 1
6469 42 1
6469 845 1
6469 1321 1
6469 1338 1
6469 9143 1
6470 81 1
6470 370 1
6470 3116 1
6470 5377 1
6470 7035 1
6471 91 1
6471 1067 1
6471 2878 1
6471 4396 1
6472 176 1
6472 309 1
6472 5416 1
6472 5787 1
6473 9 1
6473 1159 1
6473 2275 1
6473 2450 1
6473 8860 1
6474 1507 1
6474 1610 1
6474 3337 1
6474 5249 1
6475 419 1
6475 1028 1
6475 3338 1
6475 5194 1
6475 7710 1
6476 1460 1
6476 2931 1
6476 4028 1
6476 5214 1
6476 7198 1
6476 9540 1
6477 442 1
6477 644 1
6477 683 1
6477 2842 1
6477 7920 1
6478 1057 1
6478 1556 1
6478 3676 1
6478 6070 1
6478 6786 1
6479 11 1
6479 117 1
6479 1221 1
6479 1996 1
6480 32 1
6480 553 1
6480 1964 1
6480 5964 1
6480 6956 1
6480 9691 1
6480 9750 1
6481 153 1
6481 541 1
6481 1522 1
6481 3190 1
6481 8113 1
6481 9730 1
6482 665 1
6482 2085 1
6482 2318 1
6482 2403 1
6483 324 1
6483 348 1
6483 3596 1
6483 6268 1
6484 131 1
6484 403 1
6484 459 1
6484 729 1
6484 8619 1
6484 9698 1
6485 473 1
6485 1384 1
6485 1905 1
6485 3067 1
6485 9812 1
6486 1 1
6486 2283 1
6486 3428 1
6486 4411 1
6487 134 1
6487 3010 1
6487 4973 1
6487 5409 1
6487 6534 1
6488 369 1
6488 1396 1
6488 1440 1
6488 2138 1
6489 1779 1
6489 2219 1
6489 4314 1
6489 6163 1
6490 452 1
6490 1089 1
6490 1608 1
6490 4132 1
6490 9117 1
6490 9565 1
6491 21 1
6491 300 1
6491 707 1
6491 3390 1
6492 204 1
6492 2140 1
6492 3336 1
6492 4362 1
6492 8764 1
6492 9089 1
6493 294 1
6493 874 1
6493 1058 1
6493 5293 1
6493 9693 1
6494 1923 1
6494 3001 1
6494 3558 1
6494 4609 1
6495 9 1
6495 11 1
6495 258 1
6495 690 1
6496 9 1
6496 2076 1
6496 4001 1
6496 5825 1
6496 9005 1
6497 146 1
6497 2554 1
6497 4350 1
6497 5072 1
6497 7683 1
6498 487 1
6498 623 1
6498 929 1
6498 5880 1
6498 9813 1
6499 75 1
6499 323 1
6499 674 1
6499 3778 1
6499 7323 1
6500 17 1
6500 4054 1
6500 6001 1
6500 6331 1
6500 7735 1
6500 9379 1
6501 2156 1
6501 2459 1
6501 3090 1
6501 5873 1
6501 9340 1
6502 495 1
6502 1095 1
6502 1601 1
6502 3053 1
6503 8 1
6503 4342 1
6503 5239 1
6503 5756 1
6503 9205 1
6504 92 1
6504 918 1
6504 5308 1
6504 6135 1
6505 100 1
6505 1681 1
6505 4596 1
6505 6280 1
6505 8916 1
6506 27 1
6506 41 1
6506 205 1
6506 1085 1
6506 7155 1
6507 1999 1
6507 2056 1
6507 2431 1
6507 2689 1
6508 516 1
6508 929 1
6508 3674 1
6508 3820 1
6508 8899 1
6508 9319 1
6509 11 1
6509 91 1
6509 1138 1
6509 4574 1
6509 6734 1
6509 7206 1
6510 17 1
6510 704 1
6510 2541 1
6510 4813 1
6510 7371 1
6510 7925 1
6511 17 1
6511 46 1
6511 314 1
6511 1316 1
6512 41 1
6512 1293 1
6512 1346 1
6512 2190 1
6513 1 1
6513 1758 1
6513 2553 1
6513 4756 1
6514 150 1
6514 677 1
6514 2137 1
6514 4998 1
6514 8971 1
6515 154 1
6515 158 1
6515 219 1
6515 5963 1
6515 6618 1
6515 7868 1
6515 9083 1
6516 26 1
6516 657 1
6516 1147 1
6516 3791 1
6517 1672 1
6517 1809 1
6517 3116 1
6517 3653 1
6517 7111 1
6517 9514 1
6518 179 1
6518 1130 1
6518 3966 1
6518 4705 1
6518 7606 1
6519 118 1
6519 574 1
6519 3111 1
6519 5895 1
6520 913 1
6520 1012 1
6520 4279 1
6520 4542 1
6521 49 1
6521 74 1
6521 2407 1
6521 5593 1
6522 185 1
6522 1673 1
6522 2373 1
6522 3418 1
6522 6678 1
6522 7189 1
6522 7279 1
6522 7907 1
6522 9756 1
6523 202 1
6523 1546 1
6523 2502 1
6523 2623 1
6523 6949 1
6524 2 1
6524 329 1
6524 380 1
6524 715 1
6525 58 1
6525 628 1
6525 636 1
6525 3769 1
6525 7440 1
6525 8383 1
6526 58 1
6526 227 1
6526 1766 1
6526 5937 1
6526 7737 1
6527 290 1
6527 307 1
6527 1413 1
6527 4854 1
6527 8941 1
6528 1985 1
6528 4530 1
6528 4868 1
6528 6211 1
6529 19 1
6529 637 1
6529 2379 1
6529 5785 1
6530 52 1
6530 778 1
6530 921 1
6530 1242 1
6530 8909 1
6530 9816 1
6531 81 1
6531 194 1
6531 4618 1
6531 4774 1
6531 9255 1
6531 9885 1
6532 113 1
6532 814 1
6532 3382 1
6532 3959 1
6532 6558 1
6532 7592 1
6533 9 1
6533 301 1
6533 3417 1
6533 5232 1
6533 6568 1
6534 257 1
6534 3010 1
6534 4837 1
6534 6487 1
6535 2267 1
6535 2757 1
6535 4697 1
6535 5649 1
6535 6652 1
6536 1000 1
6536 3851 1
6536 4452 1
6536 5626 1
6536 6992 1
6537 20 1
6537 340 1
6537 1313 1
6537 5579 1
6537 9395 1
6538 444 1
6538 452 1
6538 1849 1
6538 6393 1
6539 221 1
6539 865 1
6539 2402 1
6539 3305 1
6539 7520 1
6539 7577 1
6539 9679 1
6540 964 1
6540 971 1
6540 3472 1
6540 6271 1
6540 8691 1
6541 113 1
6541 354 1
6541 3086 1
6541 5217 1
6542 42 1
6542 129 1
6542 3782 1
6542 5130 1
6543 73 1
6543 707 1
6543 722 1
6543 2945 1
6544 330 1
6544 4713 1
6544 4854 1
6544 5148 1
6545 842 1
6545 890 1
6545 1094 1
6545 5865 1
6545 7525 1
6546 308 1
6546 889 1
6546 3123 1
6546 3288 1
6547 220 1
6547 1670 1
6547 3700 1
6547 6103 1
6548 35 1
6548 130 1
6548 3347 1
6548 5523 1
6548 6878 1
6548 7297 1
6549 305 1
6549 2327 1
6549 3219 1
6549 5450 1
6549 8326 1
6550 86 1
6550 1201 1
6550 1559 1
6550 3771 1
6550 6864 1
6551 49 1
6551 701 1
6551 3028 1
6551 6422 1
6552 42 1
6552 92 1
6552 777 1
6552 906 1
6553 5 1
6553 2928 1
6553 4345 1
6553 5090 1
6553 9600 1
6554 11 1
6554 2679 1
6554 3870 1
6554 5364 1
6555 173 1
6555 1156 1
6555 3062 1
6555 3323 1
6555 8360 1
6556 1603 1
6556 2026 1
6556 4353 1
6556 5991 1
6556 6814 1
6557 108 1
6557 2551 1
6557 2682 1
6557 4799 1
6558 546 1
6558 3382 1
6558 4137 1
6558 6532 1
6558 7874 1
6558 8606 1
6559 1858 1
6559 2131 1
6559 2521 1
6559 2637 1
6560 5 1
6560 277 1
6560 732 1
6560 5853 1
6561 505 1
6561 2490 1
6561 5713 1
6561 6070 1
6561 7625 1
6561 8303 1
6561 8315 1
6561 9272 1
6562 61 1
6562 1017 1
6562 2883 1
6562 5667 1
6562 8686 1
6563 17 1
6563 1050 1
6563 1939 1
6563 4407 1
6564 1 1
6564 1163 1
6564 6200 1
6564 6269 1
6565 10 1
6565 146 1
6565 658 1
6565 5709 1
6566 8 1
6566 91 1
6566 981 1
6566 4163 1
6566 8633 1
6567 28 1
6567 339 1
6567 3614 1
6567 5312 1
6568 330 1
6568 2117 1
6568 4159 1
6568 6533 1
6569 44 1
6569 433 1
6569 1796 1
6569 3459 1
6570 163 1
6570 754 1
6570 1159 1
6570 4772 1
6570 9725 1
6571 1 1
6571 1245 1
6571 1717 1
6571 2952 1
6571 9863 1
6572 464 1
6572 906 1
6572 2657 1
6572 4573 1
6573 2005 1
6573 3128 1
6573 5074 1
6573 5358 1
6574 413 1
6574 969 1
6574 1644 1
6574 5629 1
6575 145 1
6575 1951 1
6575 2308 1
6575 2538 1
6575 7225 1
6575 8339 1
6576 937 1
6576 1478 1
6576 1714 1
6576 3175 1
6576 7372 1
6577 18 1
6577 113 1
6577 1557 1
6577 6019 1
6577 7434 1
6578 372 1
6578 1798 1
6578 2116 1
6578 6329 1
6578 6906 1
6579 509 1
6579 2554 1
6579 3172 1
6579 6409 1
6580 2941 1
6580 3941 1
6580 4091 1
6580 6171 1
6580 7192 1
6580 9057 1
6581 158 1
6581 571 1
6581 1333 1
6581 6297 1
6582 1010 1
6582 3129 1
6582 3550 1
6582 3833 1
6583 18 1
6583 283 1
6583 2798 1
6583 3874 1
6583 7132 1
6584 113 1
6584 300 1
6584 515 1
6584 1891 1
6584 6637 1
6584 9731 1
6585 788 1
6585 825 1
6585 929 1
6585 2062 1
6585 7286 1
6586 217 1
6586 348 1
6586 2044 1
6586 3810 1
6587 11 1
6587 522 1
6587 3262 1
6587 6267 1
6588 2621 1
6588 3286 1
6588 3993 1
6588 4567 1
6589 116 1
6589 319 1
6589 1413 1
6589 4663 1
6590 85 1
6590 406 1
6590 766 1
6590 6314 1
6590 7237 1
6591 65 1
6591 227 1
6591 6029 1
6591 6237 1
6591 8528 1
6592 9 1
6592 587 1
6592 1796 1
6592 3656 1
6593 41 1
6593 57 1
6593 4588 1
6593 6466 1
6594 60 1
6594 179 1
6594 298 1
6594 2030 1
6594 7326 1
6594 8150 1
6594 9460 1
6595 1532 1
6595 1653 1
6595 5061 1
6595 5246 1
6596 259 1
6596 298 1
6596 1504 1
6596 6146 1
6596 7081 1
6596 8070 1
6597 51 1
6597 2483 1
6597 3348 1
6597 3736 1
6598 494 1
6598 600 1
6598 1076 1
6598 1703 1
6598 8624 1
6598 8793 1
6599 1 1
6599 579 1
6599 3166 1
6599 3717 1
6599 8298 1
6600 407 1
6600 2129 1
6600 3074 1
6600 5425 1
6601 9 1
6601 171 1
6601 1218 1
6601 2758 1
6601 8650 1
6602 580 1
6602 2522 1
6602 2923 1
6602 3040 1
6603 377 1
6603 427 1
6603 2703 1
6603 4170 1
6604 298 1
6604 519 1
6604 1851 1
6604 4890 1
6604 7043 1
6605 38 1
6605 98 1
6605 329 1
6605 803 1
6605 8607 1
6605 9604 1
6606 55 1
6606 403 1
6606 3677 1
6606 3873 1
6607 2 1
6607 1225 1
6607 3295 1
6607 4049 1
6608 291 1
6608 1370 1
6608 1888 1
6608 2504 1
6608 8939 1
6609 217 1
6609 1990 1
6609 2809 1
6609 4160 1
6609 7207 1
6609 9028 1
6609 9095 1
6610 97 1
6610 1017 1
6610 2582 1
6610 4515 1
6611 1 1
6611 718 1
6611 834 1
6611 6132 1
6612 17 1
6612 228 1
6612 707 1
6612 4778 1
6612 9747 1
6613 1062 1
6613 1197 1
6613 3210 1
6613 3781 1
6613 8203 1
6614 481 1
6614 697 1
6614 1466 1
6614 4841 1
6614 7942 1
6614 8629 1
6615 171 1
6615 1524 1
6615 3164 1
6615 6205 1
6615 7042 1
6616 57 1
6616 177 1
6616 1429 1
6616 3840 1
6616 8534 1
6617 11 1
6617 315 1
6617 3363 1
6617 4893 1
6617 7514 1
6618 417 1
6618 965 1
6618 5963 1
6618 6515 1
6619 9 1
6619 937 1
6619 4998 1
6619 5145 1
6620 2 1
6620 10 1
6620 408 1
6620 1380 1
6621 25 1
6621 1241 1
6621 3338 1
6621 4790 1
6622 1335 1
6622 1697 1
6622 1985 1
6622 2062 1
6623 74 1
6623 1241 1
6623 2832 1
6623 6069 1
6624 138 1
6624 483 1
6624 1340 1
6624 2323 1
6624 7160 1
6625 62 1
6625 1324 1
6625 2902 1
6625 3183 1
6626 690 1
6626 1023 1
6626 1514 1
6626 2836 1
6626 7770 1
6626 9249 1
6627 250 1
6627 283 1
6627 717 1
6627 3168 1
6627 8418 1
6628 1043 1
6628 1828 1
6628 2895 1
6628 4351 1
6629 5 1
6629 1213 1
6629 2506 1
6629 2900 1
6629 7626 1
6629 8664 1
6630 41 1
6630 2222 1
6630 2642 1
6630 2940 1
6631 11 1
6631 94 1
6631 2898 1
6631 5223 1
6631 9466 1
6632 9 1
6632 1268 1
6632 2116 1
6632 3598 1
6633 372 1
6633 633 1
6633 2393 1
6633 4058 1
6633 8077 1
6634 193 1
6634 1894 1
6634 3140 1
6634 5077 1
6634 8085 1
6635 41 1
6635 92 1
6635 235 1
6635 277 1
6636 825 1
6636 1804 1
6636 4754 1
6636 5586 1
6636 6967 1
6637 300 1
6637 2097 1
6637 3641 1
6637 6584 1
6638 465 1
6638 3178 1
6638 3975 1
6638 6242 1
6639 133 1
6639 170 1
6639 1690 1
6639 3963 1
6639 7460 1
6640 41 1
6640 1332 1
6640 1995 1
6640 2139 1
6641 89 1
6641 863 1
6641 1370 1
6641 1757 1
6641 6720 1
6642 50 1
6642 2289 1
6642 3958 1
6642 5239 1
6643 19 1
6643 1586 1
6643 3334 1
6643 5002 1
6643 8137 1
6643 8925 1
6643 9107 1
6644 17 1
6644 665 1
6644 3902 1
6644 4861 1
6645 103 1
6645 2189 1
6645 3994 1
6645 5842 1
6645 9904 1
6646 83 1
6646 610 1
6646 687 1
6646 6201 1
6646 7654 1
6647 1355 1
6647 1388 1
6647 3834 1
6647 4139 1
6647 6958 1
6647 9946 1
6648 9 1
6648 18 1
6648 3385 1
6648 6303 1
6648 7079 1
6649 251 1
6649 1426 1
6649 4369 1
6649 6046 1
6650 55 1
6650 673 1
6650 1358 1
6650 4605 1
6650 8480 1
6651 305 1
6651 768 1
6651 1405 1
6651 4053 1
6652 1017 1
6652 3791 1
6652 5043 1
6652 6535 1
6653 676 1
6653 729 1
6653 1530 1
6653 5619 1
6653 9435 1
6654 238 1
6654 1017 1
6654 3164 1
6654 6044 1
6654 8765 1
6655 39 1
6655 65 1
6655 2213 1
6655 3087 1
6656 25 1
6656 1026 1
6656 2265 1
6656 2532 1
6657 1513 1
6657 2676 1
6657 4422 1
6657 4699 1
6657 9343 1
6657 9678 1
6658 436 1
6658 950 1
6658 1762 1
6658 3697 1
6659 18 1
6659 877 1
6659 3841 1
6659 6367 1
6659 6738 1
6660 133 1
6660 875 1
6660 3148 1
6660 5626 1
6660 7222 1
6661 202 1
6661 710 1
6661 2228 1
6661 6421 1
6662 677 1
6662 2137 1
6662 4091 1
6662 4417 1
6663 1 1
6663 399 1
6663 886 1
6663 3938 1
6663 6761 1
6664 17 1
6664 202 1
6664 1643 1
6664 2373 1
6665 417 1
6665 4271 1
6665 5613 1
6665 6142 1
6666 1567 1
6666 3015 1
6666 4351 1
6666 5656 1
6667 3780 1
6667 4068 1
6667 6192 1
6667 6460 1
6668 3897 1
6668 4915 1
6668 5193 1
6668 5916 1
6669 2 1
6669 131 1
6669 3965 1
6669 4748 1
6669 7231 1
6669 9249 1
6669 9288 1
6670 10 1
6670 113 1
6670 308 1
6670 1683 1
6670 7220 1
6671 50 1
6671 96 1
6671 221 1
6671 837 1
6672 314 1
6672 1662 1
6672 2951 1
6672 4588 1
6673 1580 1
6673 4215 1
6673 4863 1
6673 5373 1
6674 61 1
6674 2192 1
6674 5332 1
6674 6088 1
6675 17 1
6675 222 1
6675 879 1
6675 1893 1
6675 6730 1
6676 987 1
6676 1467 1
6676 2308 1
6676 4583 1
6676 7711 1
6677 728 1
6677 1555 1
6677 1691 1
6677 4446 1
6677 6890 1
6677 6916 1
6677 9426 1
6678 372 1
6678 684 1
6678 2345 1
6678 6522 1
6679 220 1
6679 2990 1
6679 3073 1
6679 3587 1
6680 784 1
6680 2005 1
6680 2324 1
6680 4203 1
6681 19 1
6681 3713 1
6681 4748 1
6681 6379 1
6682 1 1
6682 162 1
6682 1036 1
6682 3938 1
6682 7226 1
6683 12 1
6683 14 1
6683 1405 1
6683 4739 1
6684 13 1
6684 19 1
6684 52 1
6684 94 1
6684 7746 1
6684 9095 1
6685 4 1
6685 12 1
6685 569 1
6685 3863 1
6686 909 1
6686 987 1
6686 5989 1
6686 6339 1
6686 7228 1
6686 7774 1
6687 2291 1
6687 3905 1
6687 4045 1
6687 5777 1
6688 2997 1
6688 3713 1
6688 5171 1
6688 6379 1
6689 5 1
6689 59 1
6689 295 1
6689 1186 1
6690 225 1
6690 1783 1
6690 2720 1
6690 4649 1
6690 7368 1
6690 8768 1
6690 9630 1
6691 12 1
6691 17 1
6691 167 1
6691 788 1
6691 6905 1
6692 1 1
6692 3275 1
6692 4189 1
6692 5305 1
6693 397 1
6693 559 1
6693 1739 1
6693 4340 1
6694 4 1
6694 568 1
6694 708 1
6694 3602 1
6695 2 1
6695 18 1
6695 4779 1
6695 6125 1
6695 7167 1
6696 249 1
6696 825 1
6696 1258 1
6696 1977 1
6696 7557 1
6697 187 1
6697 3389 1
6697 4424 1
6697 5354 1
6697 7901 1
6698 1401 1
6698 1586 1
6698 1626 1
6698 5401 1
6698 8252 1
6698 8649 1
6699 474 1
6699 613 1
6699 1371 1
6699 3426 1
6699 8846 1
6699 8926 1
6700 584 1
6700 802 1
6700 2795 1
6700 5132 1
6700 8198 1
6701 33 1
6701 60 1
6701 2419 1
6701 4197 1
6701 6882 1
6701 9909 1
6702 138 1
6702 1122 1
6702 4339 1
6702 6213 1
6702 8872 1
6703 705 1
6703 1925 1
6703 3937 1
6703 5582 1
6704 74 1
6704 369 1
6704 509 1
6704 2729 1
6704 9140 1
6705 140 1
6705 693 1
6705 2701 1
6705 6150 1
6705 7869 1
6706 103 1
6706 445 1
6706 1403 1
6706 4122 1
6707 307 1
6707 435 1
6707 633 1
6707 5783 1
6707 8957 1
6708 1177 1
6708 2378 1
6708 4058 1
6708 6052 1
6708 9773 1
6709 51 1
6709 246 1
6709 547 1
6709 5159 1
6709 6942 1
6709 9518 1
6710 163 1
6710 1458 1
6710 3992 1
6710 6361 1
6711 74 1
6711 3644 1
6711 4139 1
6711 6078 1
6712 2282 1
6712 3716 1
6712 5873 1
6712 6104 1
6713 325 1
6713 641 1
6713 661 1
6713 1378 1
6713 7060 1
6714 1867 1
6714 2763 1
6714 3553 1
6714 5139 1
6715 580 1
6715 748 1
6715 1332 1
6715 4009 1
6715 7765 1
6715 8748 1
6716 103 1
6716 122 1
6716 173 1
6716 1342 1
6717 42 1
6717 889 1
6717 1833 1
6717 5917 1
6718 62 1
6718 1281 1
6718 5091 1
6718 5850 1
6718 7905 1
6718 8142 1
6718 8984 1
6718 9970 1
6719 585 1
6719 814 1
6719 2585 1
6719 4485 1
6719 8092 1
6719 8925 1
6719 9914 1
6720 89 1
6720 365 1
6720 1757 1
6720 6641 1
6720 7464 1
6721 26 1
6721 161 1
6721 235 1
6721 3609 1
6721 7363 1
6722 1 1
6722 2841 1
6722 3805 1
6722 6347 1
6723 49 1
6723 317 1
6723 2602 1
6723 4222 1
6724 30 1
6724 593 1
6724 2305 1
6724 4561 1
6724 8413 1
6725 750 1
6725 2762 1
6725 3382 1
6725 5239 1
6726 819 1
6726 869 1
6726 1027 1
6726 4455 1
6727 10 1
6727 571 1
6727 2136 1
6727 4932 1
6728 11 1
6728 712 1
6728 3007 1
6728 4377 1
6728 7141 1
6728 9660 1
6729 934 1
6729 3035 1
6729 3858 1
6729 5851 1
6729 7983 1
6730 305 1
6730 507 1
6730 1156 1
6730 6675 1
6731 697 1
6731 2421 1
6731 2769 1
6731 3864 1
6732 225 1
6732 266 1
6732 1657 1
6732 3387 1
6733 11 1
6733 203 1
6733 319 1
6733 5838 1
6733 7252 1
6733 9851 1
6734 68 1
6734 91 1
6734 465 1
6734 6509 1
6735 4 1
6735 1960 1
6735 2558 1
6735 2742 1
6735 9555 1
6735 9587 1
6736 564 1
6736 1578 1
6736 3402 1
6736 3612 1
6736 7442 1
6736 9182 1
6737 74 1
6737 2086 1
6737 3196 1
6737 3888 1
6738 263 1
6738 1482 1
6738 6145 1
6738 6659 1
6739 417 1
6739 574 1
6739 699 1
6739 2313 1
6739 7699 1
6739 8144 1
6739 8397 1
6739 8696 1
6740 9 1
6740 25 1
6740 43 1
6740 4738 1
6740 7053 1
6740 9619 1
6741 217 1
6741 754 1
6741 5420 1
6741 5596 1
6741 7086 1
6742 1132 1
6742 2130 1
6742 2814 1
6742 5715 1
6742 7061 1
6742 9616 1
6743 943 1
6743 993 1
6743 1241 1
6743 1638 1
6744 1 1
6744 83 1
6744 449 1
6744 6106 1
6745 1 1
6745 2907 1
6745 3754 1
6745 4453 1
6746 89 1
6746 129 1
6746 905 1
6746 1012 1
6747 73 1
6747 3138 1
6747 4569 1
6747 5888 1
6747 6884 1
6747 7062 1
6748 18 1
6748 225 1
6748 2242 1
6748 5667 1
6749 25 1
6749 1063 1
6749 1499 1
6749 2380 1
6750 465 1
6750 1669 1
6750 1920 1
6750 2332 1
6751 3 1
6751 877 1
6751 3696 1
6751 6217 1
6752 244 1
6752 1221 1
6752 2213 1
6752 5170 1
6753 18 1
6753 154 1
6753 193 1
6753 5439 1
6754 302 1
6754 1290 1
6754 1889 1
6754 3020 1
6755 131 1
6755 2126 1
6755 4137 1
6755 4640 1
6755 9752 1
6755 9831 1
6756 87 1
6756 89 1
6756 134 1
6756 1001 1
6756 6917 1
6756 8134 1
6756 9390 1
6757 202 1
6757 205 1
6757 1986 1
6757 4980 1
6758 11 1
6758 91 1
6758 121 1
6758 1990 1
6759 2088 1
6759 2507 1
6759 3718 1
6759 3929 1
6759 7583 1
6759 7949 1
6760 467 1
6760 1908 1
6760 2779 1
6760 5237 1
6760 7062 1
6761 60 1
6761 683 1
6761 1739 1
6761 6663 1
6762 43 1
6762 108 1
6762 276 1
6762 1612 1
6762 9964 1
6763 231 1
6763 301 1
6763 2019 1
6763 3479 1
6764 57 1
6764 259 1
6764 1205 1
6764 2049 1
6765 502 1
6765 1571 1
6765 3755 1
6765 6280 1
6766 17 1
6766 1033 1
6766 1171 1
6766 5484 1
6767 146 1
6767 2597 1
6767 4700 1
6767 5165 1
6767 7681 1
6767 7957 1
6768 1625 1
6768 2117 1
6768 2913 1
6768 4122 1
6769 139 1
6769 158 1
6769 265 1
6769 432 1
6769 8246 1
6769 9906 1
6770 2 1
6770 161 1
6770 2769 1
6770 4242 1
6771 34 1
6771 166 1
6771 1805 1
6771 5988 1
6772 1749 1
6772 2115 1
6772 4809 1
6772 5077 1
6773 2 1
6773 147 1
6773 1655 1
6773 3959 1
6774 644 1
6774 1158 1
6774 1179 1
6774 1798 1
6775 113 1
6775 330 1
6775 2437 1
6775 3241 1
6776 1 1
6776 38 1
6776 1969 1
6776 5427 1
6776 9912 1
6777 628 1
6777 3213 1
6777 4131 1
6777 6114 1
6777 7542 1
6777 9174 1
6778 18 1
6778 450 1
6778 1293 1
6778 3813 1
6779 74 1
6779 2169 1
6779 2395 1
6779 4523 1
6780 337 1
6780 1813 1
6780 3053 1
6780 4846 1
6781 492 1
6781 3067 1
6781 3261 1
6781 6073 1
6781 6950 1
6781 7375 1
6781 7467 1
6781 8356 1
6782 300 1
6782 3082 1
6782 3395 1
6782 5113 1
6782 7611 1
6782 8300 1
6783 560 1
6783 1218 1
6783 2474 1
6783 3601 1
6784 53 1
6784 509 1
6784 1205 1
6784 5785 1
6784 8090 1
6784 8777 1
6785 242 1
6785 298 1
6785 633 1
6785 2638 1
6786 1124 1
6786 3201 1
6786 3676 1
6786 6478 1
6786 8563 1
6787 25 1
6787 167 1
6787 990 1
6787 2498 1
6787 7634 1
6788 939 1
6788 3545 1
6788 4233 1
6788 5870 1
6789 462 1
6789 666 1
6789 713 1
6789 2374 1
6789 8915 1
6790 406 1
6790 2705 1
6790 3569 1
6790 5458 1
6791 1569 1
6791 1578 1
6791 2004 1
6791 4089 1
6791 7050 1
6791 8931 1
6791 9197 1
6792 11 1
6792 144 1
6792 848 1
6792 1822 1
6793 906 1
6793 1692 1
6793 3029 1
6793 5538 1
6793 8546 1
6793 9047 1
6794 260 1
6794 549 1
6794 2333 1
6794 2521 1
6795 2 1
6795 899 1
6795 1164 1
6795 2186 1
6796 33 1
6796 3779 1
6796 4721 1
6796 5008 1
6796 8133 1
6797 845 1
6797 1729 1
6797 2296 1
6797 4018 1
6797 7871 1
6797 9104 1
6798 138 1
6798 1739 1
6798 2774 1
6798 3986 1
6798 7237 1
6799 18 1
6799 46 1
6799 163 1
6799 382 1
6799 9334 1
6800 1003 1
6800 1373 1
6800 2947 1
6800 6192 1
6800 8485 1
6801 238 1
6801 971 1
6801 2037 1
6801 6158 1
6802 2155 1
6802 2235 1
6802 5599 1
6802 6223 1
6802 7822 1
6803 162 1
6803 3995 1
6803 4334 1
6803 6068 1
6804 1355 1
6804 3251 1
6804 4167 1
6804 4480 1
6804 8526 1
6805 92 1
6805 1551 1
6805 5259 1
6805 6298 1
6806 185 1
6806 340 1
6806 1143 1
6806 5912 1
6807 199 1
6807 345 1
6807 2676 1
6807 6200 1
6807 8253 1
6808 796 1
6808 2267 1
6808 3860 1
6808 4768 1
6808 7251 1
6808 8467 1
6809 25 1
6809 61 1
6809 91 1
6809 1642 1
6809 7744 1
6810 971 1
6810 1138 1
6810 1486 1
6810 4622 1
6810 9811 1
6811 32 1
6811 356 1
6811 3786 1
6811 4385 1
6811 8203 1
6812 1226 1
6812 1547 1
6812 4678 1
6812 5459 1
6813 51 1
6813 388 1
6813 471 1
6813 4578 1
6813 7576 1
6814 636 1
6814 2083 1
6814 3299 1
6814 6556 1
6815 219 1
6815 1460 1
6815 2596 1
6815 3754 1
6816 459 1
6816 1358 1
6816 3638 1
6816 4243 1
6817 2006 1
6817 3027 1
6817 3504 1
6817 3821 1
6818 1065 1
6818 1363 1
6818 2379 1
6818 4950 1
6819 20 1
6819 59 1
6819 1524 1
6819 2364 1
6820 18 1
6820 329 1
6820 2561 1
6820 2690 1
6820 7813 1
6821 11 1
6821 492 1
6821 1557 1
6821 3626 1
6822 8 1
6822 33 1
6822 656 1
6822 931 1
6822 8398 1
6823 4 1
6823 107 1
6823 2627 1
6823 5482 1
6824 487 1
6824 1897 1
6824 3743 1
6824 5697 1
6824 7266 1
6825 11 1
6825 1845 1
6825 4619 1
6825 6106 1
6825 8470 1
6826 481 1
6826 797 1
6826 2404 1
6826 2913 1
6827 59 1
6827 114 1
6827 635 1
6827 1273 1
6828 281 1
6828 2364 1
6828 3591 1
6828 3862 1
6828 9434 1
6829 6 1
6829 9 1
6829 1326 1
6829 2604 1
6830 906 1
6830 3548 1
6830 4303 1
6830 4674 1
6830 7029 1
6830 8842 1
6831 3 1
6831 17 1
6831 194 1
6831 553 1
6831 8598 1
6832 73 1
6832 414 1
6832 2688 1
6832 2717 1
6833 615 1
6833 1036 1
6833 2170 1
6833 3065 1
6833 7463 1
6834 97 1
6834 666 1
6834 841 1
6834 3690 1
6834 7305 1
6835 65 1
6835 2680 1
6835 4106 1
6835 5764 1
6835 7364 1
6835 8790 1
6836 2861 1
6836 4210 1
6836 4428 1
6836 5903 1
6836 7274 1
6837 404 1
6837 2043 1
6837 2835 1
6837 5601 1
6838 2020 1
6838 3737 1
6838 4594 1
6838 4917 1
6838 9546 1
6839 259 1
6839 394 1
6839 1017 1
6839 4794 1
6839 9193 1
6840 17 1
6840 839 1
6840 980 1
6840 1899 1
6841 289 1
6841 1476 1
6841 3682 1
6841 5258 1
6841 7570 1
6841 7960 1
6842 3249 1
6842 4873 1
6842 5017 1
6842 5434 1
6842 8803 1
6843 1 1
6843 7 1
6843 2029 1
6843 2299 1
6843 9252 1
6844 76 1
6844 1241 1
6844 2251 1
6844 6082 1
6845 1 1
6845 1133 1
6845 4539 1
6845 5247 1
6845 8593 1
6846 11 1
6846 1251 1
6846 3509 1
6846 5364 1
6847 83 1
6847 1747 1
6847 3401 1
6847 4994 1
6848 52 1
6848 498 1
6848 3286 1
6848 4658 1
6849 703 1
6849 997 1
6849 1266 1
6849 5261 1
6849 7898 1
6850 2 1
6850 162 1
6850 1921 1
6850 3958 1
6850 9370 1
6851 700 1
6851 800 1
6851 3659 1
6851 5539 1
6851 7880 1
6852 199 1
6852 472 1
6852 2403 1
6852 5038 1
6853 235 1
6853 1916 1
6853 2241 1
6853 2339 1
6854 2 1
6854 788 1
6854 1145 1
6854 2219 1
6854 8684 1
6855 11 1
6855 1033 1
6855 1739 1
6855 5500 1
6855 8491 1
6856 1221 1
6856 1947 1
6856 2766 1
6856 4843 1
6857 87 1
6857 840 1
6857 4091 1
6857 6213 1
6858 11 1
6858 67 1
6858 163 1
6858 645 1
6858 8873 1
6858 9226 1
6859 17 1
6859 26 1
6859 1858 1
6859 1872 1
6859 7017 1
6859 8728 1
6860 99 1
6860 154 1
6860 252 1
6860 1023 1
6861 81 1
6861 718 1
6861 2398 1
6861 4890 1
6862 17 1
6862 91 1
6862 417 1
6862 1629 1
6863 102 1
6863 3985 1
6863 6044 1
6863 6127 1
6863 8031 1
6864 33 1
6864 683 1
6864 1201 1
6864 6550 1
6865 33 1
6865 85 1
6865 2448 1
6865 5007 1
6866 1558 1
6866 1860 1
6866 3355 1
6866 5036 1
6867 1171 1
6867 4735 1
6867 5912 1
6867 6126 1
6867 7703 1
6868 21 1
6868 51 1
6868 620 1
6868 2431 1
6869 545 1
6869 1491 1
6869 2431 1
6869 6061 1
6869 7397 1
6869 8293 1
6869 8460 1
6869 8531 1
6870 25 1
6870 2846 1
6870 3603 1
6870 5333 1
6871 1908 1
6871 3438 1
6871 4963 1
6871 5514 1
6871 9194 1
6872 1 1
6872 659 1
6872 975 1
6872 2744 1
6872 8073 1
6873 333 1
6873 2418 1
6873 2475 1
6873 4194 1
6873 8312 1
6873 8627 1
6873 8810 1
6873 9591 1
6874 243 1
6874 419 1
6874 3524 1
6874 4116 1
6875 1102 1
6875 1415 1
6875 4948 1
6875 5170 1
6875 8855 1
6876 2 1
6876 42 1
6876 2087 1
6876 5653 1
6876 8512 1
6876 9288 1
6877 658 1
6877 729 1
6877 1883 1
6877 4714 1
6877 9153 1
6878 441 1
6878 3760 1
6878 5523 1
6878 6548 1
6879 167 1
6879 2791 1
6879 5572 1
6879 6174 1
6880 33 1
6880 91 1
6880 530 1
6880 2035 1
6880 7764 1
6881 170 1
6881 2771 1
6881 3526 1
6881 4065 1
6881 7530 1
6881 8711 1
6881 9367 1
6882 33 1
6882 91 1
6882 1858 1
6882 6701 1
6883 81 1
6883 957 1
6883 5590 1
6883 5607 1
6883 7417 1
6884 169 1
6884 1226 1
6884 5459 1
6884 6747 1
6885 2323 1
6885 3070 1
6885 3399 1
6885 4653 1
6886 38 1
6886 126 1
6886 1414 1
6886 1879 1
6886 9063 1
6887 33 1
6887 794 1
6887 1095 1
6887 5276 1
6888 2124 1
6888 3123 1
6888 3288 1
6888 4473 1
6888 7982 1
6888 8071 1
6889 34 1
6889 268 1
6889 340 1
6889 537 1
6890 1122 1
6890 1555 1
6890 3503 1
6890 6677 1
6891 9 1
6891 2929 1
6891 4306 1
6891 5131 1
6891 8514 1
6891 9342 1
6892 65 1
6892 89 1
6892 380 1
6892 5972 1
6892 7100 1
6893 48 1
6893 116 1
6893 649 1
6893 5835 1
6894 457 1
6894 1796 1
6894 2636 1
6894 4620 1
6895 2 1
6895 1316 1
6895 5860 1
6895 6458 1
6896 2 1
6896 39 1
6896 636 1
6896 1486 1
6897 359 1
6897 1139 1
6897 1480 1
6897 2974 1
6898 2849 1
6898 4252 1
6898 4819 1
6898 5579 1
6898 8986 1
6899 54 1
6899 162 1
6899 549 1
6899 4831 1
6899 7104 1
6900 546 1
6900 1428 1
6900 4390 1
6900 5450 1
6900 8586 1
6901 517 1
6901 642 1
6901 3682 1
6901 6447 1
6901 8036 1
6901 8893 1
6901 9043 1
6901 9441 1
6902 2612 1
6902 2637 1
6902 3862 1
6902 6242 1
6903 25 1
6903 33 1
6903 2010 1
6903 5539 1
6903 8120 1
6904 28 1
6904 34 1
6904 123 1
6904 2691 1
6905 3 1
6905 755 1
6905 847 1
6905 6691 1
6905 9038 1
6905 9264 1
6906 513 1
6906 979 1
6906 1556 1
6906 6578 1
6906 9481 1
6906 9686 1
6907 25 1
6907 859 1
6907 1130 1
6907 4091 1
6907 7420 1
6907 8280 1
6907 8530 1
6907 8576 1
6908 9 1
6908 97 1
6908 2149 1
6908 3331 1
6909 17 1
6909 82 1
6909 175 1
6909 404 1
6909 8756 1
6910 41 1
6910 50 1
6910 68 1
6910 2545 1
6910 7321 1
6911 225 1
6911 266 1
6911 2330 1
6911 6355 1
6911 8589 1
6912 34 1
6912 110 1
6912 3500 1
6912 3511 1
6912 8457 1
6912 8890 1
6913 51 1
6913 2613 1
6913 2627 1
6913 6044 1
6913 7292 1
6913 8275 1
6914 1 1
6914 1986 1
6914 5154 1
6914 5324 1
6914 7314 1
6915 60 1
6915 2378 1
6915 3130 1
6915 5659 1
6915 7228 1
6915 7941 1
6915 9768 1
6916 701 1
6916 1681 1
6916 2161 1
6916 6677 1
6917 202 1
6917 2792 1
6917 3861 1
6917 6756 1
6918 290 1
6918 847 1
6918 4139 1
6918 4952 1
6919 634 1
6919 2016 1
6919 3493 1
6919 4769 1
6919 8161 1
6920 2042 1
6920 3985 1
6920 4418 1
6920 4971 1
6921 1687 1
6921 2255 1
6921 5815 1
6921 6201 1
6921 7564 1
6921 8584 1
6921 9233 1
6921 9492 1
6921 9840 1
6922 173 1
6922 378 1
6922 634 1
6922 3620 1
6922 9131 1
6922 9198 1
6923 1 1
6923 760 1
6923 991 1
6923 1297 1
6923 6952 1
6923 7727 1
6924 2265 1
6924 2532 1
6924 4056 1
6924 5493 1
6924 7384 1
6925 81 1
6925 265 1
6925 1887 1
6925 3130 1
6925 9520 1
6925 9918 1
6926 9 1
6926 706 1
6926 4176 1
6926 6211 1
6926 9115 1
6926 9774 1
6927 306 1
6927 1108 1
6927 1228 1
6927 4846 1
6928 202 1
6928 3646 1
6928 3773 1
6928 4335 1
6928 7841 1
6929 259 1
6929 2945 1
6929 3674 1
6929 4949 1
6929 9628 1
6930 473 1
6930 745 1
6930 777 1
6930 1699 1
6930 8343 1
6930 8707 1
6931 49 1
6931 265 1
6931 1839 1
6931 5885 1
6932 1 1
6932 17 1
6932 728 1
6932 5004 1
6932 7416 1
6932 9308 1
6932 9985 1
6933 146 1
6933 3560 1
6933 4729 1
6933 4977 1
6933 8057 1
6934 1739 1
6934 2483 1
6934 4869 1
6934 6401 1
6935 589 1
6935 672 1
6935 1965 1
6935 5361 1
6936 9 1
6936 50 1
6936 2788 1
6936 2791 1
6937 97 1
6937 419 1
6937 1740 1
6937 3781 1
6937 7573 1
6938 227 1
6938 1796 1
6938 2451 1
6938 5568 1
6938 8453 1
6938 9540 1
6939 41 1
6939 461 1
6939 877 1
6939 1937 1
6939 9934 1
6940 216 1
6940 346 1
6940 994 1
6940 6058 1
6940 8255 1
6940 8967 1
6941 36 1
6941 384 1
6941 578 1
6941 817 1
6941 8266 1
6942 1659 1
6942 3774 1
6942 5452 1
6942 6709 1
6942 7353 1
6942 7430 1
6942 9518 1
6943 10 1
6943 27 1
6943 95 1
6943 2024 1
6944 181 1
6944 524 1
6944 2723 1
6944 4326 1
6945 18 1
6945 689 1
6945 2578 1
6945 4490 1
6945 7264 1
6945 8680 1
6945 9038 1
6945 9872 1
6946 159 1
6946 1067 1
6946 2775 1
6946 5875 1
6946 7408 1
6947 116 1
6947 329 1
6947 3051 1
6947 5082 1
6948 18 1
6948 209 1
6948 243 1
6948 515 1
6948 9317 1
6948 9463 1
6949 1329 1
6949 4261 1
6949 4927 1
6949 6523 1
6950 3067 1
6950 3261 1
6950 6073 1
6950 6781 1
6951 41 1
6951 1053 1
6951 2012 1
6951 3395 1
6952 1297 1
6952 1530 1
6952 2214 1
6952 6923 1
6953 426 1
6953 676 1
6953 903 1
6953 5307 1
6953 8282 1
6954 1922 1
6954 3388 1
6954 3617 1
6954 5381 1
6954 8476 1
6955 2001 1
6955 2260 1
6955 4122 1
6955 6255 1
6955 7972 1
6955 8675 1
6956 32 1
6956 185 1
6956 5964 1
6956 6480 1
6957 201 1
6957 354 1
6957 3737 1
6957 6048 1
6957 9430 1
6958 342 1
6958 1605 1
6958 5160 1
6958 6647 1
6958 9470 1
6958 9595 1
6959 148 1
6959 198 1
6959 295 1
6959 1216 1
6960 25 1
6960 150 1
6960 324 1
6960 2670 1
6961 12 1
6961 516 1
6961 966 1
6961 2186 1
6962 491 1
6962 2034 1
6962 2330 1
6962 2698 1
6963 275 1
6963 586 1
6963 868 1
6963 1009 1
6964 105 1
6964 439 1
6964 3897 1
6964 5308 1
6964 8871 1
6964 9288 1
6964 9672 1
6965 244 1
6965 491 1
6965 1275 1
6965 1714 1
6966 354 1
6966 642 1
6966 2100 1
6966 5814 1
6966 7533 1
6967 403 1
6967 1432 1
6967 6026 1
6967 6636 1
6968 407 1
6968 1354 1
6968 1566 1
6968 3181 1
6969 736 1
6969 1567 1
6969 2185 1
6969 2193 1
6969 7821 1
6970 5 1
6970 1234 1
6970 2311 1
6970 4994 1
6970 7941 1
6970 8975 1
6971 2 1
6971 372 1
6971 2641 1
6971 3475 1
6971 7493 1
6972 18 1
6972 1500 1
6972 1990 1
6972 4401 1
6973 2 1
6973 413 1
6973 437 1
6973 4556 1
6974 116 1
6974 317 1
6974 4153 1
6974 5369 1
6975 2 1
6975 2180 1
6975 2929 1
6975 4261 1
6976 83 1
6976 85 1
6976 154 1
6976 5594 1
6977 10 1
6977 54 1
6977 158 1
6977 1036 1
6977 8897 1
6978 1769 1
6978 2569 1
6978 4544 1
6978 5167 1
6978 9222 1
6979 217 1
6979 400 1
6979 1227 1
6979 4623 1
6980 42 1
6980 4900 1
6980 5685 1
6980 5867 1
6981 1756 1
6981 2785 1
6981 5427 1
6981 5859 1
6981 7367 1
6981 8583 1
6981 8606 1
6982 1414 1
6982 1737 1
6982 2300 1
6982 2611 1
6982 9122 1
6983 365 1
6983 3383 1
6983 4730 1
6983 6204 1
6983 8351 1
6983 9891 1
6984 146 1
6984 1441 1
6984 1890 1
6984 2545 1
6985 2386 1
6985 2477 1
6985 2700 1
6985 2873 1
6986 194 1
6986 1207 1
6986 2350 1
6986 2948 1
6986 7677 1
6986 8391 1
6986 9926 1
6987 10 1
6987 28 1
6987 62 1
6987 545 1
6987 7676 1
6987 8062 1
6988 473 1
6988 971 1
6988 1462 1
6988 5900 1
6989 235 1
6989 2266 1
6989 4909 1
6989 5002 1
6989 9032 1
6990 1105 1
6990 1658 1
6990 2023 1
6990 2460 1
6991 2106 1
6991 3209 1
6991 3915 1
6991 4633 1
6992 348 1
6992 1161 1
6992 5626 1
6992 6536 1
6993 30 1
6993 48 1
6993 2066 1
6993 2137 1
6994 15 1
6994 932 1
6994 3619 1
6994 5050 1
6995 109 1
6995 181 1
6995 2969 1
6995 4242 1
6995 8640 1
6996 5 1
6996 398 1
6996 631 1
6996 1277 1
6997 294 1
6997 2170 1
6997 2260 1
6997 4819 1
6997 8086 1
6998 694 1
6998 889 1
6998 2586 1
6998 3496 1
6999 12 1
6999 1707 1
6999 3259 1
6999 3552 1
6999 8845 1
7000 433 1
7000 532 1
7000 818 1
7000 2205 1
7001 565 1
7001 580 1
7001 2307 1
7001 3221 1
7002 372 1
7002 402 1
7002 1514 1
7002 4550 1
7003 99 1
7003 2637 1
7003 4482 1
7003 4781 1
7003 7795 1
7004 18 1
7004 49 1
7004 276 1
7004 1431 1
7004 8900 1
7005 1 1
7005 150 1
7005 737 1
7005 4227 1
7005 7957 1
7006 525 1
7006 713 1
7006 939 1
7006 2395 1
7006 9321 1
7007 262 1
7007 462 1
7007 1130 1
7007 2646 1
7008 43 1
7008 91 1
7008 299 1
7008 509 1
7009 217 1
7009 307 1
7009 4094 1
7009 5953 1
7009 8755 1
7009 9562 1
7010 42 1
7010 92 1
7010 2018 1
7010 3868 1
7011 50 1
7011 2676 1
7011 2750 1
7011 3358 1
7012 11 1
7012 2810 1
7012 3599 1
7012 6378 1
7013 108 1
7013 1586 1
7013 2120 1
7013 4756 1
7013 9250 1
7014 571 1
7014 1551 1
7014 4298 1
7014 4885 1
7014 9319 1
7015 26 1
7015 103 1
7015 846 1
7015 1205 1
7016 4 1
7016 6 1
7016 217 1
7016 296 1
7017 1872 1
7017 3026 1
7017 3775 1
7017 6859 1
7017 9709 1
7018 308 1
7018 414 1
7018 2571 1
7018 3802 1
7018 7381 1
7019 10 1
7019 163 1
7019 1765 1
7019 2949 1
7020 411 1
7020 434 1
7020 709 1
7020 3910 1
7020 7824 1
7020 9845 1
7021 2372 1
7021 3029 1
7021 5709 1
7021 6077 1
7022 11 1
7022 322 1
7022 338 1
7022 1804 1
7023 237 1
7023 1666 1
7023 5019 1
7023 5120 1
7023 8788 1
7023 8793 1
7024 4 1
7024 57 1
7024 5042 1
7024 6351 1
7025 1531 1
7025 1716 1
7025 3197 1
7025 4943 1
7025 8166 1
7026 562 1
7026 753 1
7026 5449 1
7026 6468 1
7027 129 1
7027 631 1
7027 2435 1
7027 3364 1
7027 9304 1
7028 5 1
7028 116 1
7028 2502 1
7028 2633 1
7029 6 1
7029 11 1
7029 906 1
7029 6830 1
7029 8709 1
7029 9865 1
7030 131 1
7030 1786 1
7030 3027 1
7030 5120 1
7030 8016 1
7031 871 1
7031 991 1
7031 1029 1
7031 5845 1
7032 60 1
7032 145 1
7032 3335 1
7032 3685 1
7032 7935 1
7033 6 1
7033 25 1
7033 604 1
7033 3587 1
7033 7841 1
7033 8515 1
7033 9018 1
7034 463 1
7034 3632 1
7034 4248 1
7034 4655 1
7034 8509 1
7035 388 1
7035 1874 1
7035 4140 1
7035 6470 1
7035 7344 1
7036 18 1
7036 494 1
7036 1537 1
7036 5978 1
7037 906 1
7037 1305 1
7037 1546 1
7037 2221 1
7037 7895 1
7037 8840 1
7037 9231 1
7038 330 1
7038 506 1
7038 526 1
7038 4676 1
7038 7397 1
7039 5 1
7039 509 1
7039 1225 1
7039 1891 1
7039 7932 1
7040 381 1
7040 810 1
7040 1350 1
7040 4457 1
7040 7581 1
7040 8510 1
7040 9359 1
7041 783 1
7041 2875 1
7041 3192 1
7041 3804 1
7041 7552 1
7042 13 1
7042 171 1
7042 1929 1
7042 6615 1
7043 322 1
7043 2314 1
7043 4266 1
7043 6604 1
7043 7846 1
7043 9374 1
7043 9422 1
7043 9877 1
7044 35 1
7044 2233 1
7044 2307 1
7044 2811 1
7045 50 1
7045 4617 1
7045 4979 1
7045 5772 1
7045 8524 1
7045 9962 1
7046 229 1
7046 2074 1
7046 2524 1
7046 6044 1
7047 5 1
7047 366 1
7047 1307 1
7047 2777 1
7047 7862 1
7048 212 1
7048 673 1
7048 1515 1
7048 3218 1
7049 685 1
7049 3330 1
7049 3508 1
7049 4825 1
7050 269 1
7050 2004 1
7050 2902 1
7050 6791 1
7051 410 1
7051 454 1
7051 722 1
7051 4250 1
7051 8180 1
7052 519 1
7052 1977 1
7052 3396 1
7052 6345 1
7053 6 1
7053 43 1
7053 129 1
7053 6740 1
7053 7235 1
7053 9123 1
7053 9768 1
7054 89 1
7054 1321 1
7054 1528 1
7054 6002 1
7054 7873 1
7055 747 1
7055 2169 1
7055 2647 1
7055 6123 1
7056 2834 1
7056 3377 1
7056 4989 1
7056 5412 1
7057 1556 1
7057 3982 1
7057 5442 1
7057 5947 1
7058 77 1
7058 105 1
7058 3024 1
7058 4609 1
7059 266 1
7059 1575 1
7059 2512 1
7059 3096 1
7059 7193 1
7059 9602 1
7060 1378 1
7060 2017 1
7060 3091 1
7060 6713 1
7060 7829 1
7061 225 1
7061 3072 1
7061 3774 1
7061 6742 1
7061 8032 1
7062 133 1
7062 2137 1
7062 6747 1
7062 6760 1
7063 340 1
7063 1138 1
7063 1666 1
7063 5649 1
7064 173 1
7064 4019 1
7064 4884 1
7064 4916 1
7064 7613 1
7065 154 1
7065 966 1
7065 2399 1
7065 4986 1
7065 7649 1
7065 8632 1
7065 9598 1
7066 2085 1
7066 2996 1
7066 3818 1
7066 4030 1
7066 8501 1
7067 73 1
7067 1707 1
7067 2965 1
7067 3051 1
7067 7806 1
7067 8322 1
7068 17 1
7068 25 1
7068 2238 1
7068 5583 1
7068 8119 1
7069 3082 1
7069 3553 1
7069 5684 1
7069 5937 1
7070 217 1
7070 1160 1
7070 1622 1
7070 3038 1
7071 2483 1
7071 2658 1
7071 3084 1
7071 4589 1
7071 7335 1
7072 465 1
7072 1386 1
7072 1391 1
7072 3459 1
7073 28 1
7073 410 1
7073 3507 1
7073 5412 1
7073 8961 1
7073 9399 1
7074 154 1
7074 187 1
7074 1023 1
7074 3845 1
7074 7990 1
7075 73 1
7075 617 1
7075 1723 1
7075 3704 1
7075 7736 1
7076 1174 1
7076 1477 1
7076 3362 1
7076 4341 1
7076 8084 1
7076 9721 1
7077 91 1
7077 424 1
7077 1220 1
7077 4574 1
7077 7731 1
7077 7762 1
7077 8003 1
7077 8096 1
7078 74 1
7078 887 1
7078 2403 1
7078 5038 1
7079 935 1
7079 2915 1
7079 4928 1
7079 6648 1
7080 44 1
7080 1017 1
7080 1572 1
7080 3739 1
7081 2 1
7081 259 1
7081 1257 1
7081 6596 1
7081 7433 1
7081 7560 1
7082 283 1
7082 2499 1
7082 3098 1
7082 4063 1
7082 8005 1
7083 340 1
7083 1689 1
7083 2073 1
7083 2981 1
7083 9111 1
7083 9479 1
7084 243 1
7084 641 1
7084 2339 1
7084 4513 1
7085 18 1
7085 209 1
7085 1374 1
7085 2991 1
7085 8171 1
7086 217 1
7086 4516 1
7086 5420 1
7086 6741 1
7087 1 1
7087 772 1
7087 2287 1
7087 2932 1
7088 58 1
7088 981 1
7088 4541 1
7088 5487 1
7089 97 1
7089 126 1
7089 183 1
7089 233 1
7090 1154 1
7090 2741 1
7090 3821 1
7090 4328 1
7091 346 1
7091 1826 1
7091 4070 1
7091 6089 1
7091 7118 1
7091 7188 1
7091 8224 1
7091 8461 1
7091 9280 1
7092 17 1
7092 1194 1
7092 2707 1
7092 5431 1
7092 7607 1
7093 1445 1
7093 1915 1
7093 1997 1
7093 2947 1
7094 41 1
7094 487 1
7094 841 1
7094 2586 1
7095 51 1
7095 1849 1
7095 2930 1
7095 6388 1
7095 7560 1
7095 7601 1
7095 9428 1
7096 356 1
7096 681 1
7096 1620 1
7096 2173 1
7097 317 1
7097 2111 1
7097 2268 1
7097 2588 1
7097 7962 1
7097 9937 1
7098 10 1
7098 975 1
7098 1616 1
7098 4418 1
7099 38 1
7099 97 1
7099 324 1
7099 3036 1
7100 682 1
7100 803 1
7100 1567 1
7100 6892 1
7100 9335 1
7101 34 1
7101 233 1
7101 1938 1
7101 5356 1
7102 28 1
7102 43 1
7102 763 1
7102 4011 1
7103 9 1
7103 74 1
7103 3722 1
7103 5130 1
7103 8660 1
7103 9232 1
7104 3197 1
7104 3470 1
7104 5069 1
7104 6899 1
7105 91 1
7105 1113 1
7105 2613 1
7105 3114 1
7105 9725 1
7106 937 1
7106 3626 1
7106 3730 1
7106 5170 1
7107 33 1
7107 259 1
7107 5564 1
7107 5973 1
7108 427 1
7108 1098 1
7108 1290 1
7108 5049 1
7109 10 1
7109 321 1
7109 527 1
7109 1636 1
7109 7208 1
7110 1181 1
7110 2321 1
7110 3330 1
7110 3956 1
7110 8335 1
7110 8749 1
7111 1672 1
7111 1809 1
7111 5604 1
7111 6517 1
7112 610 1
7112 2378 1
7112 4009 1
7112 6426 1
7113 30 1
7113 66 1
7113 121 1
7113 3935 1
7113 9035 1
7114 34 1
7114 3296 1
7114 3417 1
7114 5915 1
7114 7759 1
7114 8984 1
7115 9 1
7115 2765 1
7115 2776 1
7115 3293 1
7116 81 1
7116 2468 1
7116 3365 1
7116 6302 1
7116 7437 1
7116 8762 1
7117 60 1
7117 1500 1
7117 2289 1
7117 3389 1
7117 7837 1
7117 8757 1
7118 346 1
7118 569 1
7118 642 1
7118 7091 1
7118 9603 1
7119 202 1
7119 883 1
7119 3655 1
7119 5953 1
7119 7158 1
7120 290 1
7120 1741 1
7120 2316 1
7120 3403 1
7121 9 1
7121 10 1
7121 1071 1
7121 4277 1
7122 38 1
7122 481 1
7122 5281 1
7122 5483 1
7122 7975 1
7122 9443 1
7122 9775 1
7123 45 1
7123 650 1
7123 4574 1
7123 5130 1
7123 7743 1
7123 9579 1
7124 53 1
7124 281 1
7124 355 1
7124 780 1
7125 746 1
7125 1076 1
7125 1533 1
7125 3138 1
7125 8647 1
7126 211 1
7126 1063 1
7126 3755 1
7126 4657 1
7126 7720 1
7127 41 1
7127 346 1
7127 2261 1
7127 3894 1
7127 9729 1
7128 2 1
7128 499 1
7128 1342 1
7128 3255 1
7128 8691 1
7129 642 1
7129 2882 1
7129 3147 1
7129 6297 1
7130 1 1
7130 442 1
7130 2274 1
7130 3797 1
7130 9827 1
7131 43 1
7131 170 1
7131 633 1
7131 3876 1
7131 7328 1
7131 7404 1
7132 20 1
7132 1738 1
7132 3874 1
7132 6583 1
7133 73 1
7133 564 1
7133 993 1
7133 5009 1
7133 8226 1
7134 71 1
7134 97 1
7134 676 1
7134 2010 1
7135 63 1
7135 149 1
7135 1498 1
7135 2216 1
7136 66 1
7136 1064 1
7136 1732 1
7136 4235 1
7137 883 1
7137 2538 1
7137 2746 1
7137 4612 1
7137 7817 1
7137 9364 1
7138 17 1
7138 553 1
7138 2723 1
7138 5601 1
7139 50 1
7139 1089 1
7139 1972 1
7139 3329 1
7140 5 1
7140 931 1
7140 4266 1
7140 4617 1
7140 9269 1
7141 1805 1
7141 3348 1
7141 4377 1
7141 6728 1
7142 5 1
7142 1426 1
7142 3226 1
7142 4431 1
7143 4 1
7143 371 1
7143 3239 1
7143 5804 1
7143 9320 1
7144 25 1
7144 459 1
7144 3643 1
7144 4183 1
7145 17 1
7145 467 1
7145 523 1
7145 3150 1
7145 7509 1
7145 8342 1
7146 25 1
7146 1296 1
7146 4990 1
7146 6339 1
7146 9674 1
7147 92 1
7147 299 1
7147 315 1
7147 2493 1
7148 17 1
7148 1217 1
7148 1507 1
7148 6430 1
7148 9848 1
7149 5 1
7149 576 1
7149 3101 1
7149 4338 1
7149 7820 1
7150 19 1
7150 49 1
7150 73 1
7150 608 1
7150 8384 1
7150 9519 1
7151 129 1
7151 483 1
7151 1778 1
7151 5252 1
7152 9 1
7152 144 1
7152 507 1
7152 4257 1
7153 5 1
7153 1373 1
7153 1649 1
7153 2595 1
7154 1761 1
7154 2246 1
7154 3578 1
7154 5662 1
7154 7785 1
7154 8182 1
7155 939 1
7155 1085 1
7155 4588 1
7155 6506 1
7155 7817 1
7156 261 1
7156 4068 1
7156 5486 1
7156 6090 1
7157 281 1
7157 2739 1
7157 3394 1
7157 5292 1
7157 7559 1
7158 202 1
7158 325 1
7158 5953 1
7158 7119 1
7159 38 1
7159 200 1
7159 234 1
7159 1342 1
7160 138 1
7160 686 1
7160 4620 1
7160 6624 1
7160 8693 1
7161 650 1
7161 1525 1
7161 2898 1
7161 4074 1
7161 7559 1
7161 7847 1
7161 9225 1
7161 9431 1
7162 134 1
7162 194 1
7162 2729 1
7162 2827 1
7163 18 1
7163 502 1
7163 4908 1
7163 5348 1
7163 8108 1
7164 11 1
7164 25 1
7164 658 1
7164 3300 1
7165 298 1
7165 1417 1
7165 2788 1
7165 3826 1
7165 8159 1
7165 8636 1
7165 9309 1
7166 607 1
7166 980 1
7166 2243 1
7166 5798 1
7167 13 1
7167 18 1
7167 699 1
7167 6695 1
7168 1 1
7168 2130 1
7168 3354 1
7168 4999 1
7168 8739 1
7169 290 1
7169 301 1
7169 463 1
7169 1643 1
7169 7310 1
7169 7880 1
7170 11 1
7170 99 1
7170 4109 1
7170 5526 1
7170 7385 1
7170 8110 1
7171 60 1
7171 134 1
7171 3195 1
7171 5372 1
7171 7713 1
7172 130 1
7172 642 1
7172 1284 1
7172 6286 1
7173 20 1
7173 26 1
7173 266 1
7173 3276 1
7174 2275 1
7174 2353 1
7174 3657 1
7174 3834 1
7175 260 1
7175 409 1
7175 2455 1
7175 4711 1
7176 1639 1
7176 2367 1
7176 2622 1
7176 6195 1
7176 7392 1
7176 7556 1
7177 107 1
7177 411 1
7177 585 1
7177 880 1
7177 8301 1
7178 27 1
7178 69 1
7178 2927 1
7178 4761 1
7178 7627 1
7179 1370 1
7179 2529 1
7179 2563 1
7179 3394 1
7180 693 1
7180 839 1
7180 1985 1
7180 4577 1
7181 82 1
7181 810 1
7181 2122 1
7181 2929 1
7182 1474 1
7182 3121 1
7182 4068 1
7182 5117 1
7183 153 1
7183 1837 1
7183 2671 1
7183 5473 1
7184 1403 1
7184 1557 1
7184 2246 1
7184 4123 1
7184 9514 1
7185 1156 1
7185 1171 1
7185 2093 1
7185 5484 1
7185 9239 1
7186 2851 1
7186 4186 1
7186 4580 1
7186 4837 1
7187 321 1
7187 481 1
7187 3682 1
7187 3777 1
7187 8190 1
7188 338 1
7188 445 1
7188 6089 1
7188 7091 1
7188 8461 1
7188 8740 1
7188 8903 1
7188 9966 1
7189 17 1
7189 706 1
7189 1673 1
7189 6522 1
7189 8168 1
7190 35 1
7190 2426 1
7190 4553 1
7190 4859 1
7190 9670 1
7191 17 1
7191 1779 1
7191 2186 1
7191 5128 1
7191 7376 1
7191 8554 1
7192 154 1
7192 2365 1
7192 6039 1
7192 6580 1
7193 162 1
7193 700 1
7193 1189 1
7193 7059 1
7194 345 1
7194 400 1
7194 645 1
7194 1115 1
7194 8075 1
7195 1466 1
7195 2558 1
7195 4434 1
7195 6313 1
7195 9908 1
7196 91 1
7196 144 1
7196 1948 1
7196 4154 1
7196 7744 1
7196 8323 1
7196 9733 1
7197 42 1
7197 612 1
7197 2198 1
7197 3277 1
7198 38 1
7198 89 1
7198 2645 1
7198 6476 1
7198 9327 1
7199 451 1
7199 1762 1
7199 1995 1
7199 6187 1
7200 1241 1
7200 2421 1
7200 2531 1
7200 3405 1
7201 576 1
7201 1112 1
7201 1440 1
7201 4390 1
7201 7843 1
7201 8453 1
7202 669 1
7202 1937 1
7202 2046 1
7202 5597 1
7203 1347 1
7203 2402 1
7203 3780 1
7203 3901 1
7203 8681 1
7204 17 1
7204 984 1
7204 2241 1
7204 5628 1
7205 92 1
7205 505 1
7205 1884 1
7205 2954 1
7205 7943 1
7205 8504 1
7205 8863 1
7206 235 1
7206 3523 1
7206 4136 1
7206 6509 1
7206 8277 1
7206 9707 1
7206 9986 1
7207 41 1
7207 217 1
7207 1971 1
7207 6609 1
7207 8579 1
7207 9028 1
7208 78 1
7208 277 1
7208 3829 1
7208 7109 1
7209 435 1
7209 479 1
7209 2446 1
7209 4748 1
7210 18 1
7210 193 1
7210 989 1
7210 5198 1
7211 1067 1
7211 1486 1
7211 1674 1
7211 4126 1
7212 2 1
7212 940 1
7212 1396 1
7212 3732 1
7212 9876 1
7213 2289 1
7213 2308 1
7213 2426 1
7213 2431 1
7214 92 1
7214 521 1
7214 2940 1
7214 4769 1
7215 11 1
7215 221 1
7215 3789 1
7215 4702 1
7215 7360 1
7216 219 1
7216 4386 1
7216 4903 1
7216 5217 1
7216 8378 1
7216 9400 1
7217 110 1
7217 287 1
7217 1051 1
7217 5433 1
7217 8017 1
7217 8950 1
7218 124 1
7218 297 1
7218 1647 1
7218 4454 1
7219 17 1
7219 3500 1
7219 3527 1
7219 5913 1
7219 9053 1
7220 478 1
7220 2776 1
7220 5244 1
7220 6670 1
7220 8078 1
7220 9667 1
7221 3700 1
7221 3913 1
7221 4534 1
7221 5235 1
7222 875 1
7222 1737 1
7222 3066 1
7222 6660 1
7223 89 1
7223 108 1
7223 433 1
7223 1827 1
7223 7864 1
7224 10 1
7224 34 1
7224 257 1
7224 4131 1
7225 113 1
7225 1553 1
7225 2308 1
7225 6575 1
7225 9990 1
7226 318 1
7226 650 1
7226 6305 1
7226 6682 1
7226 9597 1
7227 931 1
7227 1890 1
7227 2434 1
7227 5349 1
7227 8961 1
7228 60 1
7228 909 1
7228 6686 1
7228 6915 1
7229 44 1
7229 268 1
7229 3538 1
7229 4521 1
7229 9074 1
7230 275 1
7230 937 1
7230 1918 1
7230 5165 1
7231 1971 1
7231 3654 1
7231 4598 1
7231 6669 1
7232 426 1
7232 3893 1
7232 4332 1
7232 5673 1
7233 4 1
7233 374 1
7233 1067 1
7233 3737 1
7234 14 1
7234 1195 1
7234 1947 1
7234 6355 1
7234 8347 1
7235 129 1
7235 2617 1
7235 4155 1
7235 7053 1
7235 7567 1
7236 1323 1
7236 2052 1
7236 2572 1
7236 5853 1
7236 7307 1
7236 7946 1
7237 2803 1
7237 6365 1
7237 6590 1
7237 6798 1
7238 514 1
7238 777 1
7238 2798 1
7238 4412 1
7239 673 1
7239 3289 1
7239 3449 1
7239 5366 1
7240 60 1
7240 1307 1
7240 2193 1
7240 2303 1
7241 481 1
7241 539 1
7241 700 1
7241 1335 1
7242 434 1
7242 665 1
7242 4273 1
7242 4486 1
7242 9349 1
7242 9497 1
7243 97 1
7243 571 1
7243 731 1
7243 4406 1
7243 9179 1
7244 11 1
7244 583 1
7244 871 1
7244 2735 1
7245 17 1
7245 28 1
7245 3963 1
7245 6229 1
7245 9381 1
7246 761 1
7246 1355 1
7246 1715 1
7246 3323 1
7246 9883 1
7247 9 1
7247 2526 1
7247 3581 1
7247 4335 1
7247 8795 1
7248 73 1
7248 92 1
7248 2044 1
7248 4854 1
7248 7840 1
7248 8380 1
7249 208 1
7249 1268 1
7249 1555 1
7249 2093 1
7249 9669 1
7250 762 1
7250 1054 1
7250 2060 1
7250 5886 1
7250 9987 1
7251 1 1
7251 471 1
7251 1081 1
7251 6808 1
7251 9888 1
7252 854 1
7252 1270 1
7252 5838 1
7252 6733 1
7252 9368 1
7253 637 1
7253 698 1
7253 2282 1
7253 4775 1
7254 316 1
7254 881 1
7254 3289 1
7254 6392 1
7255 2637 1
7255 4218 1
7255 5051 1
7255 5565 1
7256 282 1
7256 3390 1
7256 3533 1
7256 4467 1
7257 25 1
7257 1754 1
7257 4009 1
7257 5044 1
7257 8194 1
7258 294 1
7258 681 1
7258 1741 1
7258 3977 1
7258 7603 1
7258 9549 1
7258 9612 1
7259 50 1
7259 459 1
7259 4876 1
7259 4989 1
7260 929 1
7260 4506 1
7260 5300 1
7260 5944 1
7260 8817 1
7260 9957 1
7261 115 1
7261 273 1
7261 793 1
7261 1035 1
7262 1 1
7262 11 1
7262 471 1
7262 882 1
7263 28 1
7263 67 1
7263 825 1
7263 6037 1
7264 18 1
7264 2690 1
7264 3515 1
7264 6945 1
7264 8934 1
7264 9237 1
7265 17 1
7265 50 1
7265 2771 1
7265 3548 1
7265 8292 1
7266 60 1
7266 2369 1
7266 2890 1
7266 6824 1
7267 1513 1
7267 1939 1
7267 2172 1
7267 3864 1
7268 692 1
7268 1213 1
7268 1427 1
7268 5588 1
7268 9801 1
7269 32 1
7269 80 1
7269 1308 1
7269 3455 1
7270 34 1
7270 50 1
7270 874 1
7270 3650 1
7270 9690 1
7271 5 1
7271 25 1
7271 2135 1
7271 3685 1
7271 7857 1
7271 8826 1
7272 323 1
7272 383 1
7272 685 1
7272 1977 1
7273 193 1
7273 666 1
7273 701 1
7273 3343 1
7273 8360 1
7273 9425 1
7274 3 1
7274 161 1
7274 2203 1
7274 6836 1
7275 115 1
7275 2203 1
7275 3916 1
7275 5091 1
7275 7781 1
7275 9131 1
7276 1960 1
7276 2581 1
7276 3371 1
7276 4410 1
7276 7656 1
7276 8403 1
7277 187 1
7277 1855 1
7277 3635 1
7277 5219 1
7277 8643 1
7277 8989 1
7278 421 1
7278 849 1
7278 1457 1
7278 2644 1
7279 1939 1
7279 3418 1
7279 5476 1
7279 6522 1
7279 9756 1
7280 260 1
7280 646 1
7280 715 1
7280 1321 1
7280 8603 1
7281 281 1
7281 814 1
7281 1514 1
7281 3814 1
7281 7538 1
7281 9045 1
7282 10 1
7282 69 1
7282 793 1
7282 5099 1
7283 2 1
7283 1012 1
7283 3052 1
7283 3138 1
7283 7294 1
7284 67 1
7284 627 1
7284 2065 1
7284 4905 1
7285 9 1
7285 236 1
7285 2453 1
7285 5797 1
7286 108 1
7286 929 1
7286 2062 1
7286 6585 1
7287 212 1
7287 1473 1
7287 5786 1
7287 5891 1
7287 7951 1
7288 289 1
7288 863 1
7288 1714 1
7288 2121 1
7289 73 1
7289 1019 1
7289 1550 1
7289 4969 1
7289 9822 1
7290 154 1
7290 474 1
7290 522 1
7290 4513 1
7291 18 1
7291 2890 1
7291 3782 1
7291 5155 1
7291 9014 1
7292 10 1
7292 1579 1
7292 2613 1
7292 6913 1
7292 8801 1
7293 1075 1
7293 2056 1
7293 4130 1
7293 4752 1
7293 7961 1
7293 8628 1
7293 8927 1
7294 227 1
7294 744 1
7294 3052 1
7294 7283 1
7294 8440 1
7295 178 1
7295 2002 1
7295 4204 1
7295 4961 1
7296 308 1
7296 624 1
7296 1249 1
7296 3285 1
7297 3107 1
7297 3347 1
7297 6266 1
7297 6548 1
7297 8049 1
7297 8065 1
7297 8791 1
7298 58 1
7298 853 1
7298 3963 1
7298 4261 1
7298 7354 1
7298 8835 1
7299 1964 1
7299 3594 1
7299 3937 1
7299 4560 1
7300 65 1
7300 1813 1
7300 2844 1
7300 5814 1
7300 7937 1
7301 7 1
7301 1982 1
7301 2033 1
7301 4602 1
7302 3196 1
7302 4404 1
7302 5225 1
7302 6449 1
7302 8050 1
7302 8442 1
7303 164 1
7303 222 1
7303 1373 1
7303 6352 1
7303 7337 1
7303 9079 1
7304 422 1
7304 3342 1
7304 4446 1
7304 4994 1
7305 150 1
7305 1829 1
7305 4237 1
7305 6834 1
7306 4 1
7306 19 1
7306 83 1
7306 1519 1
7307 4 1
7307 1525 1
7307 2052 1
7307 7236 1
7307 9416 1
7308 9 1
7308 172 1
7308 577 1
7308 1780 1
7309 179 1
7309 1521 1
7309 3828 1
7309 4923 1
7310 676 1
7310 1643 1
7310 4809 1
7310 7169 1
7311 91 1
7311 769 1
7311 1845 1
7311 6259 1
7312 141 1
7312 2394 1
7312 2677 1
7312 2947 1
7313 2325 1
7313 2787 1
7313 5650 1
7313 5963 1
7314 1 1
7314 1362 1
7314 1903 1
7314 6914 1
7315 2 1
7315 66 1
7315 2563 1
7315 2731 1
7316 62 1
7316 3106 1
7316 4177 1
7316 6130 1
7317 1626 1
7317 3891 1
7317 3985 1
7317 5077 1
7317 7428 1
7317 9526 1
7318 11 1
7318 766 1
7318 2263 1
7318 5544 1
7318 7920 1
7319 2298 1
7319 3097 1
7319 4196 1
7319 4870 1
7319 9075 1
7320 409 1
7320 602 1
7320 4739 1
7320 4989 1
7320 7463 1
7320 8240 1
7320 9405 1
7321 144 1
7321 5923 1
7321 6057 1
7321 6910 1
7321 8454 1
7322 39 1
7322 581 1
7322 594 1
7322 794 1
7323 1130 1
7323 1195 1
7323 2737 1
7323 6499 1
7324 20 1
7324 1147 1
7324 1231 1
7324 2160 1
7325 9 1
7325 74 1
7325 4916 1
7325 6287 1
7326 131 1
7326 620 1
7326 1970 1
7326 6594 1
7326 8150 1
7327 81 1
7327 1820 1
7327 2510 1
7327 3771 1
7327 7394 1
7328 473 1
7328 771 1
7328 4447 1
7328 7131 1
7329 25 1
7329 2796 1
7329 3273 1
7329 4430 1
7330 2 1
7330 19 1
7330 186 1
7330 946 1
7331 234 1
7331 2734 1
7331 3401 1
7331 4003 1
7331 9517 1
7332 74 1
7332 650 1
7332 2569 1
7332 6305 1
7332 9401 1
7333 2 1
7333 33 1
7333 76 1
7333 92 1
7334 354 1
7334 1601 1
7334 4593 1
7334 4748 1
7334 7542 1
7335 73 1
7335 534 1
7335 4589 1
7335 7071 1
7335 8305 1
7335 8719 1
7335 9460 1
7335 9461 1
7336 340 1
7336 763 1
7336 3001 1
7336 3337 1
7336 9655 1
7337 180 1
7337 3198 1
7337 6352 1
7337 7303 1
7337 8618 1
7337 9329 1
7338 1 1
7338 54 1
7338 1707 1
7338 6466 1
7339 14 1
7339 66 1
7339 553 1
7339 2379 1
7339 7806 1
7340 73 1
7340 842 1
7340 1293 1
7340 3600 1
7340 8617 1
7340 9455 1
7341 1565 1
7341 1722 1
7341 3285 1
7341 4638 1
7342 277 1
7342 1658 1
7342 4523 1
7342 5380 1
7342 8416 1
7342 9129 1
7343 11 1
7343 34 1
7343 365 1
7343 715 1
7343 7670 1
7344 1370 1
7344 2255 1
7344 4179 1
7344 7035 1
7345 778 1
7345 2843 1
7345 3324 1
7345 5449 1
7345 8713 1
7345 9482 1
7346 84 1
7346 2477 1
7346 2755 1
7346 5557 1
7347 1637 1
7347 3082 1
7347 3203 1
7347 5684 1
7347 7394 1
7347 9638 1
7348 1 1
7348 471 1
7348 1081 1
7348 4581 1
7349 553 1
7349 1507 1
7349 1974 1
7349 2362 1
7349 8232 1
7349 9297 1
7350 237 1
7350 332 1
7350 558 1
7350 4858 1
7351 732 1
7351 1166 1
7351 4098 1
7351 4889 1
7351 8592 1
7351 9302 1
7351 9946 1
7352 369 1
7352 3416 1
7352 4495 1
7352 4649 1
7352 8597 1
7353 688 1
7353 1331 1
7353 2500 1
7353 6942 1
7354 9 1
7354 58 1
7354 4909 1
7354 7298 1
7354 9880 1
7355 16 1
7355 29 1
7355 1692 1
7355 2321 1
7355 9646 1
7356 539 1
7356 588 1
7356 1836 1
7356 6188 1
7356 8441 1
7357 184 1
7357 282 1
7357 930 1
7357 4405 1
7357 8886 1
7357 9539 1
7357 9751 1
7358 83 1
7358 4180 1
7358 4434 1
7358 5288 1
7359 410 1
7359 1204 1
7359 1387 1
7359 3943 1
7360 1 1
7360 78 1
7360 3789 1
7360 7215 1
7361 1769 1
7361 4539 1
7361 4605 1
7361 5019 1
7361 9856 1
7361 9936 1
7362 46 1
7362 466 1
7362 1117 1
7362 2083 1
7362 7824 1
7362 8164 1
7362 8441 1
7362 8922 1
7362 9207 1
7362 9878 1
7363 26 1
7363 117 1
7363 3332 1
7363 6721 1
7363 7660 1
7364 982 1
7364 1680 1
7364 3846 1
7364 6835 1
7364 9022 1
7365 5 1
7365 34 1
7365 2785 1
7365 4554 1
7365 7609 1
7366 217 1
7366 890 1
7366 2237 1
7366 2313 1
7367 1 1
7367 2785 1
7367 3223 1
7367 6981 1
7368 225 1
7368 1017 1
7368 6009 1
7368 6690 1
7368 8187 1
7369 1202 1
7369 1244 1
7369 4217 1
7369 4861 1
7369 9712 1
7370 4 1
7370 34 1
7370 1954 1
7370 4734 1
7370 9339 1
7371 434 1
7371 704 1
7371 4813 1
7371 6510 1
7372 898 1
7372 1555 1
7372 1613 1
7372 6576 1
7372 7835 1
7373 52 1
7373 128 1
7373 157 1
7373 2139 1
7373 9428 1
7374 220 1
7374 1017 1
7374 1951 1
7374 5555 1
7375 629 1
7375 3067 1
7375 3931 1
7375 6781 1
7375 9923 1
7376 27 1
7376 3898 1
7376 5920 1
7376 7191 1
7376 7440 1
7377 10 1
7377 34 1
7377 321 1
7377 1013 1
7377 7541 1
7378 52 1
7378 1526 1
7378 2748 1
7378 4108 1
7379 2 1
7379 218 1
7379 323 1
7379 3079 1
7380 81 1
7380 906 1
7380 2589 1
7380 6315 1
7381 15 1
7381 562 1
7381 871 1
7381 7018 1
7382 640 1
7382 1130 1
7382 4091 1
7382 6145 1
7383 9 1
7383 915 1
7383 1510 1
7383 4830 1
7384 11 1
7384 66 1
7384 3110 1
7384 6924 1
7385 1057 1
7385 4511 1
7385 5867 1
7385 7170 1
7385 8110 1
7385 9024 1
7386 2 1
7386 137 1
7386 2698 1
7386 3930 1
7386 7418 1
7387 188 1
7387 4409 1
7387 5611 1
7387 6285 1
7388 9 1
7388 2018 1
7388 2486 1
7388 3956 1
7389 19 1
7389 1902 1
7389 2421 1
7389 3153 1
7389 7705 1
7390 709 1
7390 2418 1
7390 3446 1
7390 5987 1
7390 8810 1
7391 148 1
7391 596 1
7391 1272 1
7391 3854 1
7391 8562 1
7392 359 1
7392 469 1
7392 1639 1
7392 7176 1
7392 9930 1
7393 4 1
7393 74 1
7393 1862 1
7393 6316 1
7394 1878 1
7394 3771 1
7394 7327 1
7394 7347 1
7394 8542 1
7395 121 1
7395 2596 1
7395 6252 1
7395 6281 1
7395 9152 1
7396 39 1
7396 718 1
7396 1249 1
7396 3469 1
7396 8876 1
7397 545 1
7397 4276 1
7397 6869 1
7397 7038 1
7397 8516 1
7398 185 1
7398 759 1
7398 1674 1
7398 3523 1
7399 28 1
7399 99 1
7399 931 1
7399 1369 1
7399 8611 1
7399 9310 1
7400 254 1
7400 1195 1
7400 1274 1
7400 4281 1
7400 7808 1
7401 163 1
7401 853 1
7401 922 1
7401 4945 1
7401 9177 1
7402 989 1
7402 1221 1
7402 2458 1
7402 6269 1
7403 146 1
7403 825 1
7403 1572 1
7403 3190 1
7404 1447 1
7404 2742 1
7404 3784 1
7404 7131 1
7405 828 1
7405 2803 1
7405 4197 1
7405 4856 1
7406 17 1
7406 380 1
7406 996 1
7406 4757 1
7406 7598 1
7406 7735 1
7406 9503 1
7406 9513 1
7407 25 1
7407 244 1
7407 1067 1
7407 1857 1
7407 8035 1
7408 113 1
7408 1067 1
7408 5875 1
7408 6946 1
7409 9 1
7409 2332 1
7409 4850 1
7409 4960 1
7410 874 1
7410 2042 1
7410 2515 1
7410 4113 1
7410 7985 1
7411 303 1
7411 1145 1
7411 2993 1
7411 5244 1
7411 9219 1
7411 9804 1
7412 28 1
7412 1181 1
7412 3701 1
7412 6030 1
7413 38 1
7413 2066 1
7413 3166 1
7413 3911 1
7414 185 1
7414 1641 1
7414 2585 1
7414 2913 1
7415 25 1
7415 866 1
7415 2093 1
7415 3069 1
7416 11 1
7416 4938 1
7416 5004 1
7416 6932 1
7417 24 1
7417 492 1
7417 1147 1
7417 6883 1
7417 9504 1
7418 184 1
7418 4476 1
7418 4601 1
7418 7386 1
7418 7423 1
7419 33 1
7419 2681 1
7419 2716 1
7419 3825 1
7419 7566 1
7420 1130 1
7420 4091 1
7420 4705 1
7420 6907 1
7421 3 1
7421 341 1
7421 481 1
7421 772 1
7421 8396 1
7421 8522 1
7422 89 1
7422 161 1
7422 1876 1
7422 3410 1
7422 8942 1
7423 386 1
7423 2141 1
7423 4601 1
7423 7418 1
7424 2 1
7424 2367 1
7424 5490 1
7424 6289 1
7425 17 1
7425 2378 1
7425 3051 1
7425 3365 1
7426 146 1
7426 925 1
7426 1618 1
7426 1793 1
7427 770 1
7427 1306 1
7427 3244 1
7427 4267 1
7427 8794 1
7428 1626 1
7428 1770 1
7428 3035 1
7428 7317 1
7428 9526 1
7429 601 1
7429 659 1
7429 1159 1
7429 4534 1
7430 2 1
7430 166 1
7430 1317 1
7430 6942 1
7431 98 1
7431 803 1
7431 2014 1
7431 5906 1
7432 235 1
7432 1513 1
7432 2937 1
7432 5116 1
7433 982 1
7433 1257 1
7433 6029 1
7433 7081 1
7434 610 1
7434 1801 1
7434 4913 1
7434 6577 1
7435 91 1
7435 93 1
7435 249 1
7435 5823 1
7436 9 1
7436 19 1
7436 2209 1
7436 2271 1
7436 8192 1
7436 8573 1
7437 185 1
7437 2357 1
7437 6302 1
7437 7116 1
7438 2 1
7438 11 1
7438 46 1
7438 650 1
7439 658 1
7439 2826 1
7439 3362 1
7439 4714 1
7440 474 1
7440 591 1
7440 6525 1
7440 7376 1
7441 2958 1
7441 3085 1
7441 3244 1
7441 4990 1
7442 28 1
7442 3612 1
7442 4650 1
7442 6736 1
7443 1567 1
7443 1647 1
7443 1950 1
7443 4027 1
7443 8854 1
7444 10 1
7444 179 1
7444 246 1
7444 709 1
7444 7566 1
7445 1 1
7445 15 1
7445 75 1
7445 3259 1
7445 9360 1
7446 2 1
7446 469 1
7446 3664 1
7446 4067 1
7446 7475 1
7447 36 1
7447 73 1
7447 163 1
7447 834 1
7448 1057 1
7448 1062 1
7448 1915 1
7448 4308 1
7448 7778 1
7448 8363 1
7449 2 1
7449 571 1
7449 4779 1
7449 5001 1
7449 9468 1
7450 186 1
7450 820 1
7450 3300 1
7450 4313 1
7450 7711 1
7450 7733 1
7450 8301 1
7450 9890 1
7450 9900 1
7451 9 1
7451 11 1
7451 41 1
7451 1543 1
7451 8816 1
7452 9 1
7452 442 1
7452 5147 1
7452 5820 1
7452 7878 1
7453 581 1
7453 2961 1
7453 4313 1
7453 6054 1
7454 1074 1
7454 1515 1
7454 1794 1
7454 3218 1
7454 9836 1
7455 2 1
7455 250 1
7455 3931 1
7456 699 1
7456 1615 1
7456 3515 1
7456 5186 1
7456 8237 1
7457 81 1
7457 235 1
7457 850 1
7457 3124 1
7458 18 1
7458 220 1
7458 2606 1
7458 6282 1
7459 1 1
7459 11 1
7459 2147 1
7459 5317 1
7460 1690 1
7460 4771 1
7460 5215 1
7460 6639 1
7460 7487 1
7460 7673 1
7460 8605 1
7460 9657 1
7461 267 1
7461 2821 1
7461 3705 1
7461 3782 1
7462 147 1
7462 222 1
7462 1143 1
7462 4007 1
7462 8531 1
7463 673 1
7463 6103 1
7463 6833 1
7463 7320 1
7463 8240 1
7464 365 1
7464 4066 1
7464 4227 1
7464 6720 1
7464 9714 1
7465 46 1
7465 210 1
7465 614 1
7465 2098 1
7465 8299 1
7466 17 1
7466 453 1
7466 1373 1
7466 5651 1
7466 7653 1
7466 8169 1
7467 12 1
7467 4054 1
7467 4741 1
7467 6781 1
7467 7667 1
7467 9359 1
7468 19 1
7468 29 1
7468 1107 1
7468 1407 1
7469 1539 1
7469 1558 1
7469 1958 1
7469 6005 1
7469 8415 1
7470 2 1
7470 195 1
7470 1142 1
7470 1374 1
7471 2 1
7471 6 1
7471 1306 1
7471 2253 1
7471 9163 1
7472 1762 1
7472 2563 1
7472 2869 1
7472 5237 1
7472 8333 1
7472 8765 1
7473 672 1
7473 738 1
7473 2220 1
7473 5250 1
7473 8991 1
7474 116 1
7474 1706 1
7474 3451 1
7474 4710 1
7475 2 1
7475 509 1
7475 2543 1
7475 7446 1
7475 9322 1
7475 9534 1
7476 187 1
7476 415 1
7476 1016 1
7476 1644 1
7476 7882 1
7477 17 1
7477 674 1
7477 1596 1
7477 1717 1
7478 211 1
7478 255 1
7478 2420 1
7478 2658 1
7478 8488 1
7479 92 1
7479 346 1
7479 1086 1
7479 3602 1
7480 525 1
7480 681 1
7480 4122 1
7480 4358 1
7480 7978 1
7481 618 1
7481 1995 1
7481 5781 1
7481 6187 1
7481 7932 1
7482 419 1
7482 888 1
7482 3330 1
7482 5608 1
7482 7786 1
7482 8737 1
7483 539 1
7483 995 1
7483 5329 1
7483 6105 1
7484 443 1
7484 2193 1
7484 2606 1
7484 5428 1
7485 297 1
7485 3132 1
7485 5500 1
7485 6305 1
7485 7620 1
7486 459 1
7486 1994 1
7486 3610 1
7486 5541 1
7487 101 1
7487 1444 1
7487 1566 1
7487 7460 1
7488 34 1
7488 1587 1
7488 1951 1
7488 2585 1
7489 300 1
7489 2251 1
7489 5734 1
7489 5849 1
7490 1026 1
7490 1588 1
7490 5338 1
7490 5712 1
7490 7497 1
7490 9889 1
7491 98 1
7491 274 1
7491 1305 1
7491 3200 1
7491 8437 1
7492 627 1
7492 3062 1
7492 4840 1
7492 5319 1
7493 49 1
7493 3997 1
7493 4794 1
7493 6971 1
7494 1 1
7494 971 1
7494 4029 1
7494 5266 1
7494 9763 1
7495 45 1
7495 899 1
7495 1138 1
7495 5812 1
7495 7741 1
7495 9811 1
7495 9888 1
7496 28 1
7496 744 1
7496 1363 1
7496 1513 1
7496 9399 1
7497 161 1
7497 1026 1
7497 5209 1
7497 7490 1
7498 129 1
7498 1060 1
7498 2492 1
7498 5953 1
7498 8379 1
7499 1131 1
7499 2473 1
7499 4514 1
7499 6118 1
7500 243 1
7500 1646 1
7500 3683 1
7500 4889 1
7500 9165 1
7501 6 1
7501 488 1
7501 582 1
7501 3741 1
7501 8812 1
7502 779 1
7502 842 1
7502 1728 1
7502 2641 1
7503 254 1
7503 445 1
7503 4126 1
7503 5005 1
7504 3762 1
7504 4091 1
7504 6034 1
7504 6238 1
7504 9833 1
7505 1540 1
7505 2062 1
7505 2784 1
7505 3728 1
7506 2156 1
7506 3857 1
7506 5042 1
7506 5330 1
7506 8432 1
7507 5 1
7507 166 1
7507 404 1
7507 1259 1
7507 9606 1
7508 403 1
7508 1212 1
7508 1373 1
7508 5110 1
7509 90 1
7509 294 1
7509 467 1
7509 7145 1
7510 844 1
7510 2062 1
7510 2901 1
7510 3370 1
7510 8776 1
7511 1481 1
7511 4971 1
7511 5007 1
7511 6452 1
7512 3522 1
7512 4740 1
7512 5539 1
7512 5591 1
7513 244 1
7513 2600 1
7513 2885 1
7513 3468 1
7514 58 1
7514 433 1
7514 1954 1
7514 6617 1
7515 36 1
7515 133 1
7515 655 1
7515 2350 1
7516 2059 1
7516 3827 1
7516 6215 1
7516 6368 1
7516 8286 1
7517 10 1
7517 163 1
7517 3372 1
7517 3945 1
7518 179 1
7518 233 1
7518 2242 1
7518 3378 1
7519 10 1
7519 11 1
7519 2243 1
7519 6414 1
7520 355 1
7520 865 1
7520 1245 1
7520 6539 1
7520 8575 1
7520 9849 1
7521 59 1
7521 155 1
7521 1529 1
7521 5993 1
7521 9160 1
7521 9728 1
7522 199 1
7522 1827 1
7522 2146 1
7522 6297 1
7523 42 1
7523 342 1
7523 525 1
7523 4123 1
7524 7 1
7524 3657 1
7524 5599 1
7524 5626 1
7524 9498 1
7525 338 1
7525 3390 1
7525 4646 1
7525 6545 1
7525 8771 1
7526 348 1
7526 541 1
7526 650 1
7526 3461 1
7527 250 1
7527 291 1
7527 2423 1
7527 2907 1
7528 9 1
7528 1924 1
7528 2037 1
7528 5210 1
7528 8698 1
7529 1889 1
7529 2254 1
7529 5391 1
7529 6364 1
7529 8128 1
7529 8905 1
7530 858 1
7530 1661 1
7530 4065 1
7530 6881 1
7530 8400 1
7531 345 1
7531 2322 1
7531 4473 1
7531 5420 1
7531 8314 1
7531 8880 1
7531 9341 1
7532 826 1
7532 2232 1
7532 4748 1
7532 6116 1
7533 52 1
7533 1481 1
7533 4368 1
7533 6966 1
7533 8387 1
7533 9703 1
7534 4 1
7534 655 1
7534 3942 1
7534 5250 1
7534 9126 1
7535 322 1
7535 327 1
7535 1415 1
7535 5619 1
7535 8353 1
7535 9029 1
7536 41 1
7536 425 1
7536 1134 1
7536 2268 1
7537 131 1
7537 796 1
7537 938 1
7537 5121 1
7538 549 1
7538 1003 1
7538 2924 1
7538 7281 1
7539 9 1
7539 199 1
7539 683 1
7539 3716 1
7539 7619 1
7539 8673 1
7539 9012 1
7540 73 1
7540 126 1
7540 1840 1
7540 2909 1
7541 34 1
7541 4852 1
7541 6028 1
7541 7377 1
7542 3862 1
7542 5582 1
7542 6777 1
7542 7334 1
7543 81 1
7543 622 1
7543 3839 1
7543 4528 1
7544 1723 1
7544 1786 1
7544 2631 1
7544 2977 1
7544 9628 1
7544 9673 1
7545 11 1
7545 41 1
7545 67 1
7545 1942 1
7546 25 1
7546 282 1
7546 297 1
7546 1873 1
7547 2 1
7547 1876 1
7547 4861 1
7547 5677 1
7548 18 1
7548 36 1
7548 384 1
7548 4886 1
7548 9253 1
7549 1 1
7549 621 1
7549 827 1
7549 3513 1
7549 9259 1
7550 2117 1
7550 3713 1
7550 3882 1
7550 5892 1
7551 18 1
7551 73 1
7551 940 1
7551 3440 1
7552 49 1
7552 72 1
7552 257 1
7552 7041 1
7552 9205 1
7553 322 1
7553 2642 1
7553 2929 1
7553 3872 1
7553 9425 1
7554 41 1
7554 790 1
7554 3737 1
7554 5453 1
7554 8104 1
7555 26 1
7555 394 1
7555 562 1
7555 4118 1
7556 1034 1
7556 1666 1
7556 2690 1
7556 7176 1
7557 75 1
7557 469 1
7557 825 1
7557 6696 1
7558 9 1
7558 2485 1
7558 4595 1
7558 5141 1
7559 1525 1
7559 2122 1
7559 7157 1
7559 7161 1
7560 1281 1
7560 3546 1
7560 7081 1
7560 7095 1
7561 319 1
7561 322 1
7561 1553 1
7561 3515 1
7561 9129 1
7562 598 1
7562 661 1
7562 1562 1
7562 6250 1
7563 329 1
7563 573 1
7563 665 1
7563 3711 1
7563 9122 1
7564 25 1
7564 2941 1
7564 5815 1
7564 6921 1
7565 25 1
7565 665 1
7565 2042 1
7565 2695 1
7566 282 1
7566 4580 1
7566 7419 1
7566 7444 1
7567 81 1
7567 129 1
7567 3415 1
7567 7235 1
7568 9 1
7568 3107 1
7568 3417 1
7568 5101 1
7569 291 1
7569 2361 1
7569 5421 1
7569 5816 1
7570 17 1
7570 113 1
7570 1835 1
7570 6841 1
7571 708 1
7571 1057 1
7571 4248 1
7571 5590 1
7572 2218 1
7572 2651 1
7572 3173 1
7572 3876 1
7573 245 1
7573 1740 1
7573 5449 1
7573 6937 1
7574 57 1
7574 532 1
7574 2073 1
7574 2212 1
7574 8143 1
7575 21 1
7575 1991 1
7575 3333 1
7575 4605 1
7575 9772 1
7576 1982 1
7576 2205 1
7576 4578 1
7576 6813 1
7577 865 1
7577 1339 1
7577 4945 1
7577 6539 1
7577 7694 1
7578 92 1
7578 2658 1
7578 3997 1
7578 4842 1
7578 8582 1
7578 9704 1
7579 1 1
7579 51 1
7579 3078 1
7579 4271 1
7579 9582 1
7580 19 1
7580 1441 1
7580 1645 1
7580 3132 1
7581 259 1
7581 4457 1
7581 5863 1
7581 7040 1
7581 7891 1
7582 25 1
7582 329 1
7582 772 1
7582 2774 1
7583 258 1
7583 3929 1
7583 5520 1
7583 6759 1
7583 8288 1
7584 14 1
7584 854 1
7584 1539 1
7584 6005 1
7584 7643 1
7584 9436 1
7585 18 1
7585 25 1
7585 73 1
7585 3093 1
7585 8917 1
7586 162 1
7586 292 1
7586 917 1
7586 1011 1
7586 8664 1
7586 9783 1
7586 9852 1
7587 1500 1
7587 4401 1
7587 4523 1
7587 5522 1
7588 4 1
7588 437 1
7588 2473 1
7588 5407 1
7589 5 1
7589 10 1
7589 969 1
7589 4987 1
7589 7654 1
7589 8147 1
7589 8751 1
7590 1137 1
7590 4985 1
7590 5317 1
7590 5978 1
7591 483 1
7591 716 1
7591 3699 1
7591 4609 1
7592 113 1
7592 429 1
7592 814 1
7592 6532 1
7593 1146 1
7593 2671 1
7593 4273 1
7593 5688 1
7594 259 1
7594 1027 1
7594 1072 1
7594 1209 1
7594 7826 1
7595 85 1
7595 189 1
7595 243 1
7595 2487 1
7596 1635 1
7596 4916 1
7596 5430 1
7596 5812 1
7596 8834 1
7597 763 1
7597 2235 1
7597 6223 1
7597 6381 1
7598 1853 1
7598 5558 1
7598 6128 1
7598 7406 1
7598 9513 1
7599 701 1
7599 1148 1
7599 3503 1
7599 4454 1
7600 81 1
7600 1071 1
7600 2888 1
7600 3402 1
7601 51 1
7601 2056 1
7601 3020 1
7601 7095 1
7602 943 1
7602 2378 1
7602 2794 1
7602 2886 1
7603 1401 1
7603 3977 1
7603 4517 1
7603 7258 1
7603 8285 1
7603 8434 1
7604 50 1
7604 484 1
7604 1577 1
7604 6243 1
7605 868 1
7605 922 1
7605 978 1
7605 1528 1
7606 179 1
7606 1186 1
7606 2071 1
7606 6518 1
7607 17 1
7607 585 1
7607 5721 1
7607 7092 1
7608 266 1
7608 2263 1
7608 2893 1
7608 5384 1
7609 52 1
7609 3724 1
7609 4257 1
7609 7365 1
7609 9777 1
7610 26 1
7610 1482 1
7610 3124 1
7610 5335 1
7610 7804 1
7611 1512 1
7611 1670 1
7611 5113 1
7611 6782 1
7612 61 1
7612 1775 1
7612 3275 1
7612 5305 1
7613 3 1
7613 91 1
7613 173 1
7613 7064 1
7613 7916 1
7614 2275 1
7614 2282 1
7614 2447 1
7614 4877 1
7615 350 1
7615 941 1
7615 3253 1
7615 3837 1
7616 289 1
7616 1163 1
7616 3389 1
7616 4424 1
7617 340 1
7617 1313 1
7617 1505 1
7617 2241 1
7618 628 1
7618 733 1
7618 2946 1
7618 5226 1
7619 683 1
7619 1897 1
7619 3716 1
7619 7539 1
7620 825 1
7620 2925 1
7620 3427 1
7620 7485 1
7621 81 1
7621 944 1
7621 958 1
7621 5323 1
7621 9726 1
7622 5 1
7622 81 1
7622 3786 1
7622 3996 1
7622 9828 1
7622 9834 1
7623 505 1
7623 794 1
7623 2808 1
7623 3981 1
7624 90 1
7624 146 1
7624 2870 1
7624 5723 1
7625 986 1
7625 1770 1
7625 3466 1
7625 6561 1
7625 8903 1
7626 17 1
7626 1724 1
7626 2900 1
7626 6629 1
7626 7737 1
7626 8664 1
7627 20 1
7627 2412 1
7627 4761 1
7627 7178 1
7628 121 1
7628 1756 1
7628 2764 1
7628 5685 1
7629 90 1
7629 141 1
7629 1140 1
7629 3326 1
7629 7915 1
7630 5 1
7630 28 1
7630 942 1
7630 5149 1
7631 12 1
7631 3348 1
7631 3753 1
7631 3989 1
7632 19 1
7632 399 1
7632 3497 1
7632 6001 1
7633 51 1
7633 959 1
7633 2482 1
7633 2483 1
7633 7942 1
7633 9515 1
7633 9871 1
7634 3 1
7634 532 1
7634 6426 1
7634 6787 1
7634 7828 1
7635 9 1
7635 2826 1
7635 3227 1
7635 6468 1
7636 1329 1
7636 1413 1
7636 3601 1
7636 3844 1
7636 7694 1
7636 8464 1
7637 2652 1
7637 5986 1
7637 6002 1
7637 6293 1
7638 20 1
7638 285 1
7638 889 1
7638 3116 1
7639 45 1
7639 82 1
7639 881 1
7639 3237 1
7639 7894 1
7639 8070 1
7639 8756 1
7639 9520 1
7640 28 1
7640 91 1
7640 113 1
7640 1440 1
7641 282 1
7641 753 1
7641 1597 1
7641 3025 1
7642 634 1
7642 1105 1
7642 3340 1
7642 3525 1
7643 14 1
7643 2214 1
7643 2225 1
7643 7584 1
7643 8190 1
7643 8724 1
7644 459 1
7644 3146 1
7644 3610 1
7644 6290 1
7644 7991 1
7644 8397 1
7645 1289 1
7645 1556 1
7645 2543 1
7645 3136 1
7646 41 1
7646 149 1
7646 1889 1
7646 2900 1
7647 33 1
7647 81 1
7647 5196 1
7647 5748 1
7647 8727 1
7647 9096 1
7648 18 1
7648 1997 1
7648 2235 1
7648 2403 1
7649 161 1
7649 1108 1
7649 2399 1
7649 7065 1
7649 9811 1
7650 417 1
7650 442 1
7650 683 1
7650 1504 1
7650 9445 1
7651 60 1
7651 410 1
7651 1052 1
7651 4099 1
7652 10 1
7652 129 1
7652 1545 1
7652 5374 1
7653 507 1
7653 4746 1
7653 5758 1
7653 7466 1
7653 8785 1
7653 9618 1
7654 83 1
7654 1043 1
7654 6646 1
7654 7589 1
7655 6 1
7655 2100 1
7655 3714 1
7655 4705 1
7655 9076 1
7656 2581 1
7656 3371 1
7656 4984 1
7656 7276 1
7656 7805 1
7656 9451 1
7657 300 1
7657 642 1
7657 2379 1
7657 5492 1
7658 226 1
7658 413 1
7658 478 1
7658 2201 1
7659 22 1
7659 1311 1
7659 3770 1
7659 5963 1
7659 8281 1
7660 42 1
7660 478 1
7660 2948 1
7660 7363 1
7661 81 1
7661 308 1
7661 522 1
7661 4840 1
7662 64 1
7662 858 1
7662 2395 1
7662 5712 1
7663 6 1
7663 941 1
7663 1434 1
7663 4906 1
7664 2 1
7664 49 1
7664 604 1
7664 747 1
7665 171 1
7665 1320 1
7665 2761 1
7665 4482 1
7666 216 1
7666 827 1
7666 994 1
7666 1395 1
7666 7706 1
7666 8255 1
7667 2 1
7667 457 1
7667 629 1
7667 7467 1
7668 216 1
7668 1270 1
7668 1330 1
7668 5096 1
7669 308 1
7669 2277 1
7669 3007 1
7669 6375 1
7669 9471 1
7670 18 1
7670 788 1
7670 3738 1
7670 7343 1
7671 7 1
7671 122 1
7671 1983 1
7671 2291 1
7672 909 1
7672 1713 1
7672 3189 1
7672 3278 1
7673 465 1
7673 1690 1
7673 3730 1
7673 7460 1
7673 9133 1
7673 9427 1
7674 141 1
7674 481 1
7674 4749 1
7674 6127 1
7674 9582 1
7674 9793 1
7675 25 1
7675 611 1
7675 5748 1
7675 6436 1
7675 9330 1
7676 28 1
7676 3811 1
7676 4967 1
7676 6987 1
7677 92 1
7677 291 1
7677 2948 1
7677 6986 1
7678 41 1
7678 109 1
7678 1536 1
7678 5432 1
7679 703 1
7679 1427 1
7679 2034 1
7679 3844 1
7679 7901 1
7680 2588 1
7680 2657 1
7680 4861 1
7680 5677 1
7681 210 1
7681 451 1
7681 4516 1
7681 6767 1
7681 7957 1
7682 137 1
7682 858 1
7682 2474 1
7682 2735 1
7683 191 1
7683 1291 1
7683 5138 1
7683 6497 1
7684 48 1
7684 1037 1
7684 1704 1
7684 5516 1
7685 2 1
7685 244 1
7685 1919 1
7685 2165 1
7686 261 1
7686 617 1
7686 1714 1
7686 5339 1
7687 1009 1
7687 3541 1
7687 5271 1
7687 5276 1
7687 8202 1
7688 52 1
7688 76 1
7688 1770 1
7688 5948 1
7689 11 1
7689 192 1
7689 2267 1
7689 5837 1
7690 717 1
7690 1862 1
7690 3414 1
7690 6001 1
7690 9736 1
7691 124 1
7691 349 1
7691 1429 1
7691 4715 1
7692 337 1
7692 383 1
7692 5956 1
7692 6174 1
7692 8274 1
7692 8708 1
7693 11 1
7693 2490 1
7693 3461 1
7693 3716 1
7694 572 1
7694 3601 1
7694 7577 1
7694 7636 1
7694 8443 1
7695 478 1
7695 1500 1
7695 5473 1
7695 5720 1
7695 8594 1
7696 777 1
7696 1235 1
7696 4394 1
7696 4991 1
7697 9 1
7697 42 1
7697 523 1
7697 4094 1
7698 97 1
7698 306 1
7698 790 1
7698 2475 1
7699 1275 1
7699 2313 1
7699 2363 1
7699 6739 1
7699 9952 1
7700 1010 1
7700 1023 1
7700 4198 1
7700 5335 1
7701 289 1
7701 753 1
7701 1736 1
7701 2903 1
7702 680 1
7702 838 1
7702 1089 1
7702 4650 1
7703 4735 1
7703 5922 1
7703 6009 1
7703 6867 1
7704 2 1
7704 1304 1
7704 1633 1
7704 5666 1
7704 8029 1
7705 59 1
7705 81 1
7705 2618 1
7705 7389 1
7705 8046 1
7705 8261 1
7706 651 1
7706 1395 1
7706 4074 1
7706 7666 1
7706 8044 1
7707 193 1
7707 291 1
7707 1159 1
7707 1615 1
7707 9687 1
7708 1444 1
7708 3786 1
7708 4385 1
7708 5194 1
7709 53 1
7709 146 1
7709 651 1
7709 730 1
7710 3241 1
7710 5610 1
7710 6204 1
7710 6475 1
7711 3241 1
7711 4313 1
7711 6676 1
7711 7450 1
7711 7733 1
7712 58 1
7712 1964 1
7712 2963 1
7712 4534 1
7712 8844 1
7713 1987 1
7713 3195 1
7713 4155 1
7713 7171 1
7713 9433 1
7714 158 1
7714 214 1
7714 4942 1
7714 6297 1
7714 9532 1
7715 27 1
7715 209 1
7715 331 1
7715 4071 1
7716 297 1
7716 1357 1
7716 1515 1
7716 5140 1
7717 155 1
7717 1706 1
7717 4551 1
7717 5897 1
7718 3104 1
7718 3983 1
7718 4176 1
7718 5322 1
7718 8744 1
7719 91 1
7719 103 1
7719 2724 1
7719 2959 1
7719 9050 1
7720 276 1
7720 925 1
7720 3587 1
7720 7126 1
7721 181 1
7721 1115 1
7721 1570 1
7721 2417 1
7722 26 1
7722 645 1
7722 5450 1
7722 6180 1
7723 290 1
7723 1043 1
7723 1412 1
7723 3493 1
7723 7931 1
7724 273 1
7724 724 1
7724 1507 1
7724 1530 1
7725 1310 1
7725 1918 1
7725 2614 1
7725 2733 1
7725 7839 1
7726 17 1
7726 34 1
7726 791 1
7726 4763 1
7727 760 1
7727 1297 1
7727 1530 1
7727 6923 1
7728 1 1
7728 115 1
7728 769 1
7728 1619 1
7729 9 1
7729 494 1
7729 2305 1
7729 2490 1
7730 435 1
7730 627 1
7730 886 1
7730 4251 1
7730 8564 1
7731 91 1
7731 424 1
7731 5279 1
7731 7077 1
7731 7762 1
7732 467 1
7732 957 1
7732 3859 1
7732 5722 1
7733 3241 1
7733 4313 1
7733 7450 1
7733 7711 1
7733 8622 1
7733 8922 1
7734 664 1
7734 1819 1
7734 3394 1
7734 4258 1
7734 9217 1
7734 9585 1
7735 17 1
7735 3861 1
7735 6500 1
7735 7406 1
7736 73 1
7736 339 1
7736 2299 1
7736 7075 1
7737 505 1
7737 1859 1
7737 6526 1
7737 7626 1
7738 809 1
7738 1326 1
7738 1549 1
7738 4612 1
7739 2443 1
7739 2505 1
7739 4641 1
7739 6030 1
7739 9820 1
7740 2435 1
7740 2978 1
7740 4489 1
7740 5422 1
7741 1270 1
7741 2634 1
7741 5812 1
7741 7495 1
7742 33 1
7742 1508 1
7742 2946 1
7742 5625 1
7743 6 1
7743 5189 1
7743 5714 1
7743 7123 1
7744 91 1
7744 4154 1
7744 6809 1
7744 7196 1
7745 66 1
7745 162 1
7745 1825 1
7745 1865 1
7745 9103 1
7745 9320 1
7745 10000 1
7746 52 1
7746 220 1
7746 370 1
7746 6684 1
7746 9095 1
7747 19 1
7747 1964 1
7747 2538 1
7747 4525 1
7748 1514 1
7748 2610 1
7748 5450 1
7748 5779 1
7748 9420 1
7748 9706 1
7749 293 1
7749 2545 1
7749 2896 1
7749 4285 1
7749 8128 1
7750 55 1
7750 459 1
7750 1134 1
7750 1548 1
7751 1465 1
7751 2978 1
7751 4501 1
7751 5257 1
7751 8149 1
7751 9210 1
7752 18 1
7752 587 1
7752 1642 1
7752 2227 1
7753 582 1
7753 2657 1
7753 5643 1
7753 5658 1
7754 97 1
7754 238 1
7754 554 1
7754 4540 1
7754 9220 1
7755 872 1
7755 1178 1
7755 1196 1
7755 2619 1
7756 18 1
7756 402 1
7756 3339 1
7756 3965 1
7757 60 1
7757 1861 1
7757 2660 1
7757 4150 1
7758 1253 1
7758 1352 1
7758 2735 1
7758 4401 1
7759 81 1
7759 2483 1
7759 3296 1
7759 7114 1
7760 233 1
7760 306 1
7760 990 1
7760 1357 1
7761 178 1
7761 2954 1
7761 3051 1
7761 3537 1
7761 8796 1
7762 424 1
7762 5279 1
7762 7077 1
7762 7731 1
7763 163 1
7763 800 1
7763 1817 1
7763 4683 1
7764 848 1
7764 3433 1
7764 5363 1
7764 6880 1
7764 8019 1
7765 580 1
7765 748 1
7765 1332 1
7765 6715 1
7765 8145 1
7766 188 1
7766 396 1
7766 4065 1
7766 4667 1
7766 8090 1
7767 9 1
7767 74 1
7767 812 1
7767 5307 1
7768 473 1
7768 1454 1
7768 1892 1
7768 5075 1
7769 808 1
7769 889 1
7769 950 1
7769 2451 1
7770 442 1
7770 2836 1
7770 4629 1
7770 6626 1
7770 8651 1
7770 9269 1
7771 5 1
7771 1810 1
7771 2455 1
7771 3578 1
7772 906 1
7772 2753 1
7772 4521 1
7772 6376 1
7773 9 1
7773 49 1
7773 413 1
7773 5410 1
7774 2 1
7774 710 1
7774 2803 1
7774 6686 1
7774 8354 1
7774 8511 1
7774 9488 1
7775 2 1
7775 2538 1
7775 5132 1
7775 5859 1
7776 17 1
7776 1194 1
7776 4836 1
7776 5700 1
7777 30 1
7777 338 1
7777 751 1
7777 1085 1
7777 8697 1
7777 9825 1
7778 2681 1
7778 4308 1
7778 4901 1
7778 7448 1
7778 9511 1
7779 799 1
7779 944 1
7779 4192 1
7779 5850 1
7780 155 1
7780 229 1
7780 380 1
7780 1827 1
7780 9575 1
7781 41 1
7781 73 1
7781 1536 1
7781 7275 1
7781 8965 1
7782 365 1
7782 1759 1
7782 2297 1
7782 3990 1
7783 1924 1
7783 3537 1
7783 3605 1
7783 5536 1
7784 18 1
7784 60 1
7784 82 1
7784 3385 1
7785 25 1
7785 3578 1
7785 6295 1
7785 7154 1
7786 419 1
7786 577 1
7786 6147 1
7786 7482 1
7787 401 1
7787 753 1
7787 3139 1
7787 3541 1
7788 77 1
7788 788 1
7788 1221 1
7788 1400 1
7789 34 1
7789 365 1
7789 413 1
7789 5311 1
7789 9555 1
7790 66 1
7790 805 1
7790 5428 1
7790 6086 1
7790 9091 1
7790 9733 1
7791 358 1
7791 2764 1
7791 4763 1
7791 5110 1
7792 9 1
7792 18 1
7792 3907 1
7792 5145 1
7792 7797 1
7792 9946 1
7793 536 1
7793 580 1
7793 775 1
7793 3179 1
7794 1038 1
7794 1607 1
7794 4303 1
7794 5517 1
7794 8788 1
7795 2124 1
7795 4549 1
7795 4781 1
7795 7003 1
7796 25 1
7796 82 1
7796 562 1
7796 4281 1
7796 7808 1
7796 9566 1
7797 453 1
7797 3907 1
7797 5497 1
7797 7792 1
7798 449 1
7798 985 1
7798 2434 1
7798 4562 1
7798 8866 1
7799 335 1
7799 974 1
7799 3644 1
7799 5690 1
7799 8367 1
7800 185 1
7800 2929 1
7800 5518 1
7800 6426 1
7800 9253 1
7801 131 1
7801 665 1
7801 1167 1
7801 2540 1
7802 418 1
7802 953 1
7802 2926 1
7802 5894 1
7803 671 1
7803 739 1
7803 4052 1
7803 5507 1
7803 8412 1
7804 3797 1
7804 4736 1
7804 5335 1
7804 7610 1
7805 1953 1
7805 2581 1
7805 5426 1
7805 7656 1
7805 8557 1
7806 60 1
7806 1038 1
7806 7067 1
7806 7339 1
7807 803 1
7807 1580 1
7807 2001 1
7807 2764 1
7807 8470 1
7808 930 1
7808 4281 1
7808 7400 1
7808 7796 1
7809 5 1
7809 401 1
7809 1689 1
7809 2124 1
7810 507 1
7810 777 1
7810 799 1
7810 2817 1
7811 682 1
7811 2460 1
7811 2537 1
7811 4291 1
7812 160 1
7812 259 1
7812 1762 1
7812 3110 1
7813 18 1
7813 952 1
7813 4297 1
7813 6820 1
7814 35 1
7814 42 1
7814 194 1
7814 1137 1
7815 123 1
7815 513 1
7815 1257 1
7815 1349 1
7816 352 1
7816 585 1
7816 1254 1
7816 3076 1
7817 939 1
7817 4442 1
7817 7137 1
7817 7155 1
7817 9364 1
7818 163 1
7818 665 1
7818 1291 1
7818 1726 1
7819 545 1
7819 670 1
7819 1491 1
7819 1818 1
7820 5 1
7820 3510 1
7820 3548 1
7820 7149 1
7821 633 1
7821 2927 1
7821 4373 1
7821 6969 1
7821 8570 1
7822 213 1
7822 1117 1
7822 5599 1
7822 6802 1
7823 58 1
7823 113 1
7823 853 1
7823 2406 1
7823 9474 1
7824 709 1
7824 2505 1
7824 7020 1
7824 7362 1
7825 797 1
7825 2684 1
7825 3139 1
7825 3226 1
7825 8394 1
7826 97 1
7826 1027 1
7826 4751 1
7826 7594 1
7827 1292 1
7827 1651 1
7827 2813 1
7827 5419 1
7828 3 1
7828 33 1
7828 6426 1
7828 7634 1
7828 9206 1
7829 25 1
7829 417 1
7829 814 1
7829 7060 1
7829 9081 1
7830 11 1
7830 107 1
7830 2619 1
7830 3802 1
7831 26 1
7831 64 1
7831 780 1
7831 5117 1
7832 9 1
7832 242 1
7832 2200 1
7832 5800 1
7833 17 1
7833 693 1
7833 2422 1
7833 4357 1
7834 25 1
7834 259 1
7834 2695 1
7834 5564 1
7835 898 1
7835 2005 1
7835 4190 1
7835 7372 1
7836 681 1
7836 1242 1
7836 3447 1
7836 3602 1
7836 9989 1
7837 1379 1
7837 1500 1
7837 3065 1
7837 7117 1
7838 572 1
7838 805 1
7838 4193 1
7838 4910 1
7838 9132 1
7838 9641 1
7839 3789 1
7839 5108 1
7839 6375 1
7839 7725 1
7840 2 1
7840 73 1
7840 1695 1
7840 7248 1
7841 737 1
7841 1505 1
7841 6928 1
7841 7033 1
7842 2 1
7842 564 1
7842 1756 1
7842 5662 1
7842 9507 1
7843 233 1
7843 557 1
7843 914 1
7843 7201 1
7844 25 1
7844 693 1
7844 2969 1
7844 5175 1
7844 8436 1
7844 8818 1
7845 245 1
7845 1613 1
7845 1814 1
7845 5653 1
7846 322 1
7846 345 1
7846 894 1
7846 7043 1
7846 8273 1
7846 9129 1
7847 234 1
7847 385 1
7847 1626 1
7847 7161 1
7848 713 1
7848 3369 1
7848 3688 1
7848 5200 1
7848 8246 1
7849 701 1
7849 1325 1
7849 3653 1
7849 6422 1
7850 386 1
7850 1195 1
7850 4397 1
7850 4645 1
7851 500 1
7851 682 1
7851 746 1
7851 2647 1
7852 1791 1
7852 2137 1
7852 2531 1
7852 5249 1
7852 9874 1
7853 254 1
7853 1385 1
7853 1626 1
7853 2305 1
7853 9864 1
7854 51 1
7854 85 1
7854 1987 1
7854 2869 1
7854 9527 1
7855 745 1
7855 1815 1
7855 4404 1
7855 6088 1
7856 89 1
7856 141 1
7856 1642 1
7856 3993 1
7857 630 1
7857 1195 1
7857 4272 1
7857 7271 1
7857 8390 1
7858 4 1
7858 1628 1
7858 3257 1
7858 6290 1
7859 60 1
7859 545 1
7859 831 1
7859 6239 1
7860 394 1
7860 550 1
7860 610 1
7860 3293 1
7861 11 1
7861 1695 1
7861 1707 1
7861 5041 1
7861 7909 1
7862 10 1
7862 2100 1
7862 3341 1
7862 7047 1
7863 297 1
7863 394 1
7863 462 1
7863 2170 1
7864 535 1
7864 811 1
7864 814 1
7864 7223 1
7865 146 1
7865 1009 1
7865 2019 1
7865 2681 1
7865 8176 1
7866 323 1
7866 468 1
7866 1044 1
7866 5313 1
7866 8602 1
7866 9784 1
7867 138 1
7867 1007 1
7867 3182 1
7867 5963 1
7867 8399 1
7867 9298 1
7868 257 1
7868 1004 1
7868 2146 1
7868 6515 1
7869 3 1
7869 452 1
7869 1083 1
7869 6705 1
7870 102 1
7870 489 1
7870 1356 1
7870 3131 1
7871 17 1
7871 43 1
7871 1618 1
7871 6797 1
7872 1630 1
7872 2021 1
7872 2956 1
7872 4950 1
7873 19 1
7873 89 1
7873 1321 1
7873 7054 1
7874 546 1
7874 1822 1
7874 4898 1
7874 6558 1
7875 219 1
7875 4750 1
7875 5174 1
7875 5503 1
7876 43 1
7876 1799 1
7876 3267 1
7876 6390 1
7876 9518 1
7877 23 1
7877 815 1
7877 2091 1
7877 3041 1
7877 8352 1
7877 9714 1
7878 2347 1
7878 5914 1
7878 6393 1
7878 7452 1
7879 841 1
7879 1851 1
7879 2589 1
7879 4251 1
7880 619 1
7880 1267 1
7880 6851 1
7880 7169 1
7880 9869 1
7881 578 1
7881 797 1
7881 2572 1
7881 6175 1
7882 89 1
7882 3051 1
7882 4314 1
7882 7476 1
7882 8269 1
7883 246 1
7883 938 1
7883 2674 1
7883 6373 1
7883 8342 1
7883 9086 1
7884 113 1
7884 3548 1
7884 3729 1
7884 4066 1
7885 227 1
7885 459 1
7885 1266 1
7885 5261 1
7886 651 1
7886 1916 1
7886 2968 1
7886 5224 1
7886 8433 1
7886 9305 1
7887 126 1
7887 1199 1
7887 3931 1
7887 6096 1
7887 8368 1
7888 1 1
7888 4 1
7888 161 1
7888 5091 1
7889 292 1
7889 2180 1
7889 2929 1
7889 3744 1
7890 1 1
7890 73 1
7890 4476 1
7890 4559 1
7891 2095 1
7891 5379 1
7891 5863 1
7891 7581 1
7892 17 1
7892 187 1
7892 1260 1
7892 5820 1
7893 1401 1
7893 3039 1
7893 3298 1
7893 3652 1
7894 881 1
7894 967 1
7894 1325 1
7894 7639 1
7895 1546 1
7895 2221 1
7895 2260 1
7895 7037 1
7896 11 1
7896 311 1
7896 593 1
7896 1587 1
7896 9769 1
7897 675 1
7897 1284 1
7897 3195 1
7897 5469 1
7897 8294 1
7897 9689 1
7898 11 1
7898 1378 1
7898 3091 1
7898 6849 1
7899 788 1
7899 2441 1
7899 4174 1
7899 4283 1
7899 7989 1
7900 1 1
7900 194 1
7900 4098 1
7900 5846 1
7901 3844 1
7901 6403 1
7901 6697 1
7901 7679 1
7901 8314 1
7901 9299 1
7902 59 1
7902 822 1
7902 1059 1
7902 5434 1
7903 12 1
7903 1324 1
7903 4210 1
7903 5763 1
7904 132 1
7904 359 1
7904 920 1
7904 4451 1
7904 9789 1
7905 925 1
7905 2907 1
7905 3661 1
7905 6718 1
7905 8867 1
7906 553 1
7906 1924 1
7906 3448 1
7906 4162 1
7907 349 1
7907 380 1
7907 2602 1
7907 6522 1
7908 19 1
7908 92 1
7908 950 1
7908 1273 1
7908 8645 1
7909 407 1
7909 2414 1
7909 3617 1
7909 7861 1
7910 2 1
7910 11 1
7910 227 1
7910 4492 1
7911 348 1
7911 377 1
7911 3562 1
7911 4993 1
7911 8214 1
7911 9148 1
7911 9858 1
7912 2057 1
7912 2889 1
7912 3324 1
7912 5727 1
7913 707 1
7913 819 1
7913 1261 1
7913 1670 1
7914 361 1
7914 858 1
7914 1349 1
7914 1910 1
7914 9237 1
7915 18 1
7915 2603 1
7915 5461 1
7915 7629 1
7916 196 1
7916 1308 1
7916 6049 1
7916 7613 1
7917 357 1
7917 882 1
7917 3560 1
7917 4729 1
7918 5 1
7918 155 1
7918 4917 1
7918 6340 1
7919 10 1
7919 301 1
7919 978 1
7919 1531 1
7920 657 1
7920 5544 1
7920 6477 1
7920 7318 1
7921 20 1
7921 138 1
7921 1037 1
7921 2601 1
7922 218 1
7922 1314 1
7922 2821 1
7922 6032 1
7923 4 1
7923 194 1
7923 291 1
7923 2021 1
7923 8825 1
7923 9501 1
7924 2 1
7924 884 1
7924 1240 1
7924 3063 1
7925 17 1
7925 704 1
7925 2541 1
7925 6510 1
7926 89 1
7926 1203 1
7926 3003 1
7926 4393 1
7927 201 1
7927 1134 1
7927 1580 1
7927 1843 1
7928 117 1
7928 146 1
7928 835 1
7928 1821 1
7929 131 1
7929 714 1
7929 2251 1
7929 4655 1
7930 42 1
7930 3607 1
7930 4004 1
7930 4384 1
7930 9070 1
7931 878 1
7931 4412 1
7931 6405 1
7931 7723 1
7932 1753 1
7932 2677 1
7932 7039 1
7932 7481 1
7933 1041 1
7933 1487 1
7933 1645 1
7933 5906 1
7934 370 1
7934 980 1
7934 1132 1
7934 2343 1
7935 145 1
7935 210 1
7935 5578 1
7935 7032 1
7936 259 1
7936 279 1
7936 940 1
7936 2201 1
7937 4434 1
7937 5256 1
7937 5738 1
7937 7300 1
7938 25 1
7938 732 1
7938 923 1
7938 3135 1
7939 59 1
7939 75 1
7939 89 1
7939 5914 1
7940 419 1
7940 1250 1
7940 3396 1
7940 4910 1
7941 60 1
7941 804 1
7941 6915 1
7941 6970 1
7942 2330 1
7942 4116 1
7942 6614 1
7942 7633 1
7943 92 1
7943 227 1
7943 4810 1
7943 7205 1
7944 610 1
7944 1345 1
7944 3107 1
7944 4246 1
7945 1139 1
7945 1213 1
7945 4028 1
7945 5048 1
7945 7979 1
7945 9923 1
7946 3942 1
7946 4468 1
7946 5853 1
7946 7236 1
7946 9434 1
7947 193 1
7947 202 1
7947 530 1
7947 6302 1
7948 74 1
7948 618 1
7948 964 1
7948 2044 1
7949 50 1
7949 2507 1
7949 5244 1
7949 6759 1
7950 11 1
7950 74 1
7950 1832 1
7950 3092 1
7950 9226 1
7951 1570 1
7951 2456 1
7951 5383 1
7951 7287 1
7951 8648 1
7952 147 1
7952 188 1
7952 354 1
7952 2522 1
7953 41 1
7953 93 1
7953 1549 1
7953 2356 1
7954 707 1
7954 758 1
7954 874 1
7954 2905 1
7955 25 1
7955 33 1
7955 671 1
7955 3559 1
7955 8787 1
7955 9060 1
7955 9673 1
7956 3051 1
7956 3394 1
7956 4867 1
7956 5581 1
7957 41 1
7957 6767 1
7957 7005 1
7957 7681 1
7957 8568 1
7958 51 1
7958 651 1
7958 1340 1
7958 4694 1
7959 9 1
7959 3033 1
7959 4981 1
7959 5738 1
7959 8722 1
7959 9463 1
7959 9699 1
7960 25 1
7960 179 1
7960 762 1
7960 6841 1
7961 174 1
7961 1075 1
7961 2366 1
7961 7293 1
7962 41 1
7962 317 1
7962 1130 1
7962 7097 1
7962 9180 1
7962 9937 1
7963 1 1
7963 77 1
7963 544 1
7963 1047 1
7964 59 1
7964 575 1
7964 610 1
7964 1697 1
7964 8044 1
7965 305 1
7965 380 1
7965 594 1
7965 3509 1
7966 644 1
7966 2033 1
7966 4337 1
7966 6254 1
7967 179 1
7967 623 1
7967 3668 1
7967 5705 1
7968 146 1
7968 185 1
7968 580 1
7968 1522 1
7969 116 1
7969 278 1
7969 963 1
7969 2080 1
7969 7970 1
7969 7993 1
7970 826 1
7970 2080 1
7970 2430 1
7970 7969 1
7970 9394 1
7971 340 1
7971 865 1
7971 3161 1
7971 4253 1
7971 8148 1
7972 1246 1
7972 1351 1
7972 6291 1
7972 6955 1
7973 706 1
7973 812 1
7973 3595 1
7973 4939 1
7974 593 1
7974 3744 1
7974 3805 1
7974 5336 1
7975 33 1
7975 66 1
7975 3935 1
7975 7122 1
7975 9443 1
7975 9572 1
7976 295 1
7976 324 1
7976 2695 1
7976 2981 1
7977 18 1
7977 45 1
7977 299 1
7977 2542 1
7977 9085 1
7977 9568 1
7978 233 1
7978 818 1
7978 5138 1
7978 7480 1
7979 889 1
7979 1693 1
7979 4729 1
7979 7945 1
7980 51 1
7980 790 1
7980 1982 1
7980 3653 1
7981 380 1
7981 674 1
7981 1178 1
7981 2221 1
7982 4 1
7982 3553 1
7982 5544 1
7982 6888 1
7983 74 1
7983 467 1
7983 2926 1
7983 6729 1
7983 9437 1
7984 173 1
7984 365 1
7984 2202 1
7984 2556 1
7985 41 1
7985 1953 1
7985 6115 1
7985 7410 1
7985 8759 1
7985 9041 1
7985 9790 1
7986 1585 1
7986 3900 1
7986 4291 1
7986 5196 1
7987 465 1
7987 875 1
7987 1448 1
7987 3292 1
7987 8243 1
7988 2005 1
7988 2108 1
7988 3277 1
7988 4958 1
7988 8824 1
7989 394 1
7989 509 1
7989 538 1
7989 7899 1
7990 908 1
7990 913 1
7990 1662 1
7990 7074 1
7991 897 1
7991 6025 1
7991 6290 1
7991 7644 1
7992 644 1
7992 1818 1
7992 2431 1
7992 3092 1
7993 495 1
7993 2562 1
7993 2684 1
7993 7969 1
7994 402 1
7994 467 1
7994 995 1
7994 1517 1
7994 8081 1
7995 57 1
7995 314 1
7995 3793 1
7995 4707 1
7995 9159 1
7996 410 1
7996 874 1
7996 1204 1
7996 5278 1
7997 18 1
7997 416 1
7997 906 1
7997 2109 1
7998 1818 1
7998 1982 1
7998 2443 1
7998 3556 1
7999 364 1
7999 652 1
7999 2477 1
7999 4963 1
8000 18 1
8000 49 1
8000 3756 1
8000 4414 1
8001 161 1
8001 1378 1
8001 3417 1
8001 3739 1
8002 9 1
8002 26 1
8002 562 1
8002 1972 1
8002 8748 1
8003 50 1
8003 59 1
8003 5051 1
8003 7077 1
8004 427 1
8004 3129 1
8004 3843 1
8004 6169 1
8004 8881 1
8004 9590 1
8005 178 1
8005 4063 1
8005 6091 1
8005 7082 1
8006 243 1
8006 640 1
8006 756 1
8006 1021 1
8007 1329 1
8007 1522 1
8007 4249 1
8007 5395 1
8007 8113 1
8007 8365 1
8007 9717 1
8008 4 1
8008 1578 1
8008 3606 1
8008 6016 1
8008 9896 1
8009 354 1
8009 411 1
8009 3792 1
8009 5212 1
8009 8736 1
8010 144 1
8010 1225 1
8010 1325 1
8010 4349 1
8011 161 1
8011 890 1
8011 2237 1
8011 3609 1
8012 27 1
8012 35 1
8012 129 1
8012 1039 1
8013 89 1
8013 147 1
8013 913 1
8013 4451 1
8013 9841 1
8014 336 1
8014 434 1
8014 975 1
8014 4273 1
8015 9 1
8015 2003 1
8015 4719 1
8015 5906 1
8015 9162 1
8016 51 1
8016 131 1
8016 289 1
8016 7030 1
8017 757 1
8017 4099 1
8017 5433 1
8017 7217 1
8018 483 1
8018 709 1
8018 997 1
8018 4564 1
8019 1711 1
8019 4673 1
8019 5363 1
8019 7764 1
8020 91 1
8020 3470 1
8020 3880 1
8020 5667 1
8021 399 1
8021 2169 1
8021 2949 1
8021 4024 1
8021 8440 1
8022 9 1
8022 700 1
8022 3200 1
8022 4701 1
8023 639 1
8023 1163 1
8023 1678 1
8023 5944 1
8024 74 1
8024 75 1
8024 2061 1
8024 2101 1
8024 8974 1
8025 2749 1
8025 3163 1
8025 3393 1
8025 5464 1
8025 8500 1
8026 2 1
8026 5068 1
8026 5681 1
8026 6163 1
8027 161 1
8027 202 1
8027 5836 1
8027 6034 1
8027 9235 1
8028 680 1
8028 781 1
8028 2235 1
8028 6112 1
8029 2 1
8029 177 1
8029 3051 1
8029 7704 1
8029 9247 1
8030 209 1
8030 919 1
8030 3778 1
8030 5980 1
8031 98 1
8031 572 1
8031 883 1
8031 6863 1
8032 241 1
8032 273 1
8032 2859 1
8032 7061 1
8032 9563 1
8033 133 1
8033 2563 1
8033 2689 1
8033 2916 1
8034 221 1
8034 2522 1
8034 2555 1
8034 6389 1
8035 556 1
8035 1173 1
8035 3151 1
8035 7407 1
8036 3682 1
8036 5638 1
8036 6183 1
8036 6901 1
8036 8077 1
8037 93 1
8037 986 1
8037 3241 1
8037 5555 1
8038 126 1
8038 275 1
8038 468 1
8038 3336 1
8039 18 1
8039 459 1
8039 3867 1
8039 4541 1
8040 41 1
8040 145 1
8040 636 1
8040 3451 1
8041 236 1
8041 515 1
8041 2912 1
8041 4083 1
8042 162 1
8042 3018 1
8042 3708 1
8042 3809 1
8042 8435 1
8042 9726 1
8043 461 1
8043 473 1
8043 475 1
8043 801 1
8044 59 1
8044 223 1
8044 7706 1
8044 7964 1
8045 263 1
8045 605 1
8045 1271 1
8045 1412 1
8046 97 1
8046 2618 1
8046 4908 1
8046 7705 1
8046 8261 1
8047 2965 1
8047 4812 1
8047 4994 1
8047 5413 1
8048 4 1
8048 486 1
8048 1106 1
8048 1253 1
8049 10 1
8049 778 1
8049 6266 1
8049 7297 1
8050 1827 1
8050 2134 1
8050 4423 1
8050 7302 1
8050 8442 1
8050 8918 1
8050 9588 1
8051 868 1
8051 978 1
8051 1394 1
8051 3404 1
8052 213 1
8052 394 1
8052 565 1
8052 5582 1
8052 8797 1
8053 84 1
8053 1251 1
8053 2271 1
8053 4578 1
8053 9547 1
8054 89 1
8054 175 1
8054 3824 1
8054 4962 1
8055 9 1
8055 465 1
8055 1003 1
8055 3301 1
8056 18 1
8056 34 1
8056 753 1
8056 4761 1
8057 1507 1
8057 3843 1
8057 4653 1
8057 6933 1
8057 8825 1
8058 1450 1
8058 2349 1
8058 2688 1
8058 5008 1
8059 236 1
8059 296 1
8059 522 1
8059 943 1
8059 8610 1
8059 9099 1
8059 9121 1
8060 73 1
8060 3676 1
8060 4958 1
8060 5058 1
8060 9203 1
8061 99 1
8061 358 1
8061 2752 1
8061 4402 1
8061 9700 1
8062 81 1
8062 89 1
8062 6329 1
8062 6987 1
8062 8355 1
8063 30 1
8063 341 1
8063 1923 1
8063 6083 1
8064 1399 1
8064 2053 1
8064 2422 1
8064 2501 1
8065 301 1
8065 2238 1
8065 6266 1
8065 7297 1
8066 459 1
8066 871 1
8066 2248 1
8066 2307 1
8067 10 1
8067 338 1
8067 2118 1
8067 3053 1
8068 1602 1
8068 1700 1
8068 4559 1
8068 4794 1
8069 394 1
8069 739 1
8069 2389 1
8069 2841 1
8069 9556 1
8070 297 1
8070 3237 1
8070 6596 1
8070 7639 1
8071 1300 1
8071 5396 1
8071 6011 1
8071 6888 1
8072 1225 1
8072 2552 1
8072 3782 1
8072 5371 1
8073 1 1
8073 1705 1
8073 2900 1
8073 6872 1
8074 702 1
8074 1054 1
8074 1426 1
8074 6347 1
8074 8729 1
8074 9876 1
8075 345 1
8075 841 1
8075 2295 1
8075 7194 1
8076 172 1
8076 581 1
8076 2278 1
8076 3746 1
8077 768 1
8077 1819 1
8077 6633 1
8077 8036 1
8078 172 1
8078 2381 1
8078 4778 1
8078 7220 1
8079 146 1
8079 996 1
8079 2805 1
8079 4715 1
8079 9048 1
8080 94 1
8080 305 1
8080 525 1
8080 6050 1
8081 1187 1
8081 2715 1
8081 2772 1
8081 7994 1
8082 83 1
8082 338 1
8082 1753 1
8082 6152 1
8083 1 1
8083 81 1
8083 332 1
8083 5103 1
8084 1294 1
8084 2316 1
8084 3362 1
8084 7076 1
8084 8170 1
8085 25 1
8085 89 1
8085 965 1
8085 6634 1
8086 1167 1
8086 4223 1
8086 4819 1
8086 6997 1
8087 549 1
8087 3537 1
8087 5087 1
8087 5372 1
8088 267 1
8088 426 1
8088 532 1
8088 754 1
8089 22 1
8089 81 1
8089 570 1
8089 2472 1
8089 8389 1
8090 323 1
8090 3405 1
8090 6784 1
8090 7766 1
8090 8777 1
8091 49 1
8091 103 1
8091 910 1
8091 1622 1
8092 1524 1
8092 3490 1
8092 5123 1
8092 6719 1
8092 9914 1
8093 642 1
8093 3033 1
8093 4331 1
8093 4981 1
8093 8388 1
8093 9121 1
8094 2 1
8094 284 1
8094 363 1
8094 3441 1
8095 4 1
8095 121 1
8095 2117 1
8095 3617 1
8095 9871 1
8096 91 1
8096 445 1
8096 630 1
8096 7077 1
8097 18 1
8097 473 1
8097 1684 1
8097 3939 1
8097 9120 1
8098 620 1
8098 1819 1
8098 3797 1
8098 3844 1
8099 1331 1
8099 3796 1
8099 4159 1
8099 5243 1
8099 9688 1
8100 1708 1
8100 2564 1
8100 2805 1
8100 3075 1
8100 8201 1
8101 337 1
8101 939 1
8101 1018 1
8101 6331 1
8102 9 1
8102 330 1
8102 1345 1
8102 5758 1
8103 233 1
8103 1218 1
8103 2921 1
8103 5516 1
8104 790 1
8104 2441 1
8104 3737 1
8104 7554 1
8105 50 1
8105 65 1
8105 349 1
8105 3205 1
8106 138 1
8106 485 1
8106 1694 1
8106 4033 1
8106 9714 1
8107 67 1
8107 1777 1
8107 2955 1
8107 4307 1
8107 8556 1
8108 10 1
8108 706 1
8108 2779 1
8108 7163 1
8109 18 1
8109 2701 1
8109 2914 1
8109 3059 1
8110 1057 1
8110 5867 1
8110 7170 1
8110 7385 1
8110 9024 1
8111 451 1
8111 1727 1
8111 2594 1
8111 4601 1
8111 8337 1
8112 25 1
8112 1957 1
8112 4077 1
8112 4555 1
8112 8259 1
8112 9058 1
8113 1522 1
8113 2605 1
8113 6481 1
8113 8007 1
8113 8832 1
8114 225 1
8114 1291 1
8114 3764 1
8114 4843 1
8115 188 1
8115 4884 1
8115 5097 1
8115 5369 1
8116 757 1
8116 1916 1
8116 2786 1
8116 4377 1
8116 9144 1
8117 547 1
8117 1213 1
8117 1427 1
8117 5337 1
8118 25 1
8118 51 1
8118 439 1
8118 2778 1
8119 696 1
8119 2958 1
8119 4205 1
8119 7068 1
8120 1827 1
8120 2355 1
8120 5082 1
8120 6903 1
8121 12 1
8121 403 1
8121 2811 1
8121 5129 1
8122 355 1
8122 930 1
8122 993 1
8122 5590 1
8123 2124 1
8123 2884 1
8123 4259 1
8123 5089 1
8123 8310 1
8124 18 1
8124 916 1
8124 2033 1
8124 3496 1
8125 161 1
8125 1050 1
8125 2725 1
8125 4476 1
8126 2 1
8126 99 1
8126 2365 1
8126 2467 1
8127 1067 1
8127 2246 1
8127 4580 1
8127 5459 1
8128 641 1
8128 3007 1
8128 7529 1
8128 7749 1
8128 8723 1
8129 33 1
8129 1697 1
8129 5738 1
8129 6233 1
8129 9275 1
8130 1507 1
8130 1605 1
8130 2477 1
8130 6430 1
8131 372 1
8131 422 1
8131 6115 1
8131 6442 1
8132 623 1
8132 995 1
8132 1433 1
8132 4184 1
8133 73 1
8133 131 1
8133 2610 1
8133 6796 1
8134 11 1
8134 167 1
8134 1001 1
8134 6756 1
8134 9265 1
8135 186 1
8135 1364 1
8135 3028 1
8135 4614 1
8135 9656 1
8136 202 1
8136 1319 1
8136 1529 1
8136 5065 1
8136 8300 1
8136 8354 1
8137 2 1
8137 3445 1
8137 3887 1
8137 6643 1
8138 18 1
8138 1473 1
8138 1921 1
8138 2986 1
8138 8999 1
8139 510 1
8139 973 1
8139 1706 1
8139 6187 1
8140 77 1
8140 1218 1
8140 3956 1
8140 6364 1
8141 17 1
8141 2197 1
8141 4099 1
8141 4992 1
8141 8235 1
8141 9894 1
8142 62 1
8142 139 1
8142 3866 1
8142 6718 1
8143 141 1
8143 1123 1
8143 5845 1
8143 7574 1
8144 796 1
8144 1466 1
8144 5614 1
8144 6739 1
8144 9925 1
8145 62 1
8145 2563 1
8145 2869 1
8145 7765 1
8146 113 1
8146 1017 1
8146 1045 1
8146 4177 1
8147 566 1
8147 1087 1
8147 3974 1
8147 7589 1
8147 8854 1
8148 701 1
8148 914 1
8148 3161 1
8148 7971 1
8148 8462 1
8149 50 1
8149 141 1
8149 2419 1
8149 7751 1
8149 9654 1
8150 2151 1
8150 3164 1
8150 6594 1
8150 7326 1
8151 3314 1
8151 4886 1
8151 5107 1
8151 5753 1
8151 9071 1
8152 41 1
8152 768 1
8152 799 1
8152 6274 1
8152 9649 1
8153 2 1
8153 12 1
8153 1539 1
8153 3003 1
8154 20 1
8154 1001 1
8154 1417 1
8154 2240 1
8155 1750 1
8155 2365 1
8155 3635 1
8155 4263 1
8155 8409 1
8156 182 1
8156 789 1
8156 2019 1
8156 3633 1
8156 8585 1
8156 8640 1
8157 84 1
8157 655 1
8157 1852 1
8157 5897 1
8158 471 1
8158 1465 1
8158 1990 1
8158 4602 1
8159 1417 1
8159 2922 1
8159 4327 1
8159 7165 1
8160 2571 1
8160 2846 1
8160 3621 1
8160 5684 1
8161 569 1
8161 4769 1
8161 6084 1
8161 6919 1
8161 8524 1
8162 29 1
8162 1297 1
8162 1322 1
8162 2435 1
8163 25 1
8163 63 1
8163 2450 1
8163 4250 1
8163 8229 1
8164 211 1
8164 4167 1
8164 5393 1
8164 7362 1
8165 6 1
8165 941 1
8165 5081 1
8165 6336 1
8166 10 1
8166 914 1
8166 1531 1
8166 7025 1
8166 8711 1
8166 8941 1
8167 210 1
8167 249 1
8167 403 1
8167 5949 1
8168 81 1
8168 706 1
8168 1985 1
8168 7189 1
8168 9306 1
8169 678 1
8169 2002 1
8169 6011 1
8169 7466 1
8170 458 1
8170 1294 1
8170 3362 1
8170 8084 1
8171 407 1
8171 1908 1
8171 2748 1
8171 7085 1
8171 8368 1
8172 1898 1
8172 2275 1
8172 3548 1
8172 4086 1
8172 8746 1
8172 9328 1
8173 1618 1
8173 2032 1
8173 4082 1
8173 6062 1
8174 62 1
8174 307 1
8174 1029 1
8174 3285 1
8175 42 1
8175 130 1
8175 920 1
8175 2020 1
8176 33 1
8176 137 1
8176 2681 1
8176 7865 1
8176 9586 1
8177 1300 1
8177 1982 1
8177 5063 1
8177 6077 1
8177 8611 1
8178 11 1
8178 634 1
8178 770 1
8178 2497 1
8179 286 1
8179 2602 1
8179 2816 1
8179 3200 1
8180 170 1
8180 2132 1
8180 2275 1
8180 7051 1
8181 63 1
8181 2260 1
8181 3357 1
8181 6426 1
8182 202 1
8182 561 1
8182 3901 1
8182 7154 1
8183 317 1
8183 2262 1
8183 2663 1
8183 5464 1
8184 3754 1
8184 4692 1
8184 4958 1
8184 5678 1
8185 112 1
8185 2651 1
8185 3822 1
8185 4737 1
8186 366 1
8186 1548 1
8186 2740 1
8186 4845 1
8186 8809 1
8187 36 1
8187 161 1
8187 225 1
8187 7368 1
8187 8366 1
8187 9101 1
8188 867 1
8188 1490 1
8188 5157 1
8188 6056 1
8189 233 1
8189 588 1
8189 1507 1
8189 5753 1
8190 51 1
8190 1163 1
8190 7187 1
8190 7643 1
8190 9624 1
8191 81 1
8191 883 1
8191 991 1
8191 4092 1
8191 9993 1
8192 469 1
8192 2209 1
8192 3294 1
8192 7436 1
8192 9559 1
8193 6 1
8193 436 1
8193 979 1
8193 5485 1
8194 435 1
8194 794 1
8194 6338 1
8194 7257 1
8195 442 1
8195 1089 1
8195 4883 1
8195 6421 1
8195 9873 1
8196 81 1
8196 1018 1
8196 3376 1
8196 5097 1
8196 9607 1
8197 177 1
8197 3205 1
8197 4074 1
8197 5554 1
8198 316 1
8198 802 1
8198 5915 1
8198 6700 1
8199 42 1
8199 675 1
8199 1112 1
8199 5112 1
8200 138 1
8200 1625 1
8200 2314 1
8200 4620 1
8201 634 1
8201 2564 1
8201 2805 1
8201 8100 1
8202 2412 1
8202 2836 1
8202 5852 1
8202 7687 1
8203 356 1
8203 6382 1
8203 6613 1
8203 6811 1
8204 219 1
8204 373 1
8204 1137 1
8204 5563 1
8204 8978 1
8205 34 1
8205 74 1
8205 303 1
8205 1154 1
8205 8746 1
8206 283 1
8206 2339 1
8206 2518 1
8206 4867 1
8207 290 1
8207 693 1
8207 802 1
8207 1004 1
8208 5 1
8208 201 1
8208 484 1
8208 3340 1
8209 729 1
8209 1483 1
8209 2347 1
8209 3947 1
8210 2 1
8210 721 1
8210 2271 1
8210 5702 1
8211 266 1
8211 953 1
8211 1037 1
8211 5952 1
8212 84 1
8212 956 1
8212 1849 1
8212 5894 1
8213 451 1
8213 705 1
8213 828 1
8213 3329 1
8214 150 1
8214 3562 1
8214 4573 1
8214 7911 1
8215 160 1
8215 885 1
8215 1841 1
8215 2697 1
8216 162 1
8216 1821 1
8216 2981 1
8216 5817 1
8217 502 1
8217 1639 1
8217 5537 1
8217 6195 1
8217 9982 1
8218 2 1
8218 9 1
8218 186 1
8218 2004 1
8218 8370 1
8218 9635 1
8219 10 1
8219 763 1
8219 1283 1
8219 2162 1
8219 9106 1
8220 1140 1
8220 4903 1
8220 5217 1
8220 5476 1
8221 602 1
8221 1719 1
8221 2585 1
8221 3579 1
8221 8222 1
8221 9632 1
8222 81 1
8222 1140 1
8222 4481 1
8222 8221 1
8223 25 1
8223 466 1
8223 1849 1
8223 2563 1
8224 4070 1
8224 6089 1
8224 6218 1
8224 7091 1
8224 8740 1
8225 811 1
8225 1458 1
8225 1596 1
8225 2330 1
8225 9874 1
8226 73 1
8226 194 1
8226 2846 1
8226 7133 1
8227 785 1
8227 1927 1
8227 3602 1
8227 4611 1
8227 9137 1
8228 76 1
8228 233 1
8228 1094 1
8228 1748 1
8229 25 1
8229 1197 1
8229 4629 1
8229 8163 1
8230 683 1
8230 4386 1
8230 5267 1
8230 6413 1
8230 8386 1
8230 8721 1
8230 9093 1
8230 9412 1
8231 58 1
8231 265 1
8231 507 1
8231 2667 1
8232 885 1
8232 982 1
8232 5006 1
8232 7349 1
8232 9462 1
8233 40 1
8233 147 1
8233 418 1
8233 2266 1
8234 30 1
8234 97 1
8234 2255 1
8234 5165 1
8235 17 1
8235 29 1
8235 66 1
8235 8141 1
8236 297 1
8236 3250 1
8236 4077 1
8236 5036 1
8236 8280 1
8236 9995 1
8237 178 1
8237 699 1
8237 732 1
8237 7456 1
8238 897 1
8238 1053 1
8238 2012 1
8238 2186 1
8238 9923 1
8239 346 1
8239 770 1
8239 1741 1
8239 2388 1
8240 3067 1
8240 3078 1
8240 7320 1
8240 7463 1
8240 8719 1
8241 5 1
8241 1220 1
8241 1902 1
8241 4906 1
8242 257 1
8242 1073 1
8242 2125 1
8242 4126 1
8243 751 1
8243 915 1
8243 5742 1
8243 7987 1
8244 75 1
8244 617 1
8244 1221 1
8244 1574 1
8244 8423 1
8245 969 1
8245 2779 1
8245 3915 1
8245 5629 1
8246 139 1
8246 3369 1
8246 6769 1
8246 7848 1
8247 1587 1
8247 4594 1
8247 4981 1
8247 5846 1
8248 27 1
8248 510 1
8248 881 1
8248 2747 1
8249 878 1
8249 1148 1
8249 1609 1
8249 2387 1
8249 8750 1
8250 9 1
8250 384 1
8250 715 1
8250 4236 1
8250 8603 1
8250 8640 1
8251 632 1
8251 715 1
8251 1014 1
8251 2514 1
8252 339 1
8252 377 1
8252 1287 1
8252 6698 1
8253 77 1
8253 345 1
8253 5509 1
8253 6807 1
8254 1498 1
8254 2611 1
8254 5526 1
8254 5639 1
8254 8576 1
8255 216 1
8255 1022 1
8255 6940 1
8255 7666 1
8256 2 1
8256 129 1
8256 1281 1
8256 1545 1
8256 9969 1
8257 151 1
8257 1112 1
8257 1377 1
8257 6054 1
8258 102 1
8258 896 1
8258 3947 1
8258 4219 1
8259 385 1
8259 4077 1
8259 6411 1
8259 8112 1
8260 9 1
8260 227 1
8260 1162 1
8260 5978 1
8261 108 1
8261 3212 1
8261 7705 1
8261 8046 1
8262 131 1
8262 137 1
8262 225 1
8262 4640 1
8263 562 1
8263 1082 1
8263 3035 1
8263 6297 1
8264 369 1
8264 934 1
8264 4745 1
8264 6398 1
8265 661 1
8265 1213 1
8265 1408 1
8265 2413 1
8265 9207 1
8266 9 1
8266 36 1
8266 817 1
8266 6941 1
8267 33 1
8267 1017 1
8267 3707 1
8267 4175 1
8267 9171 1
8268 105 1
8268 2612 1
8268 3020 1
8268 4131 1
8269 209 1
8269 223 1
8269 501 1
8269 7882 1
8270 12 1
8270 852 1
8270 1340 1
8270 4581 1
8271 209 1
8271 587 1
8271 3355 1
8271 4406 1
8272 1305 1
8272 1564 1
8272 2153 1
8272 5954 1
8273 41 1
8273 345 1
8273 2250 1
8273 7846 1
8274 10 1
8274 14 1
8274 337 1
8274 7692 1
8275 51 1
8275 2613 1
8275 6044 1
8275 6913 1
8275 9365 1
8275 9567 1
8276 130 1
8276 1978 1
8276 4717 1
8276 4884 1
8276 8996 1
8276 9442 1
8277 235 1
8277 4114 1
8277 5116 1
8277 7206 1
8278 593 1
8278 1246 1
8278 1610 1
8278 1737 1
8278 8878 1
8279 2619 1
8279 2802 1
8279 3516 1
8279 4059 1
8280 25 1
8280 702 1
8280 6907 1
8280 8236 1
8280 9995 1
8281 1610 1
8281 3478 1
8281 5963 1
8281 7659 1
8282 426 1
8282 676 1
8282 2321 1
8282 6953 1
8283 36 1
8283 244 1
8283 329 1
8283 517 1
8283 8792 1
8284 198 1
8284 356 1
8284 681 1
8284 2507 1
8285 1394 1
8285 3046 1
8285 4467 1
8285 7603 1
8286 1435 1
8286 4402 1
8286 5921 1
8286 7516 1
8287 132 1
8287 1041 1
8287 2207 1
8287 4451 1
8287 9153 1
8288 1832 1
8288 3037 1
8288 5520 1
8288 7583 1
8289 970 1
8289 2468 1
8289 2881 1
8289 3505 1
8290 1407 1
8290 2158 1
8290 2698 1
8290 4724 1
8291 645 1
8291 2028 1
8291 3565 1
8291 3839 1
8291 9133 1
8292 772 1
8292 2426 1
8292 4553 1
8292 7265 1
8293 129 1
8293 262 1
8293 566 1
8293 6869 1
8294 19 1
8294 25 1
8294 675 1
8294 7897 1
8295 289 1
8295 546 1
8295 2477 1
8295 5907 1
8296 1093 1
8296 3123 1
8296 3466 1
8296 3985 1
8296 9675 1
8297 498 1
8297 1123 1
8297 3907 1
8297 5414 1
8297 8772 1
8298 1 1
8298 16 1
8298 3330 1
8298 6599 1
8298 8432 1
8299 557 1
8299 752 1
8299 4435 1
8299 7465 1
8300 1161 1
8300 4997 1
8300 6782 1
8300 8136 1
8300 8714 1
8301 89 1
8301 2590 1
8301 7177 1
8301 7450 1
8302 257 1
8302 3909 1
8302 5617 1
8302 5739 1
8303 1028 1
8303 3860 1
8303 5123 1
8303 6561 1
8304 94 1
8304 1749 1
8304 2628 1
8304 4554 1
8305 1872 1
8305 3628 1
8305 3811 1
8305 7335 1
8306 11 1
8306 332 1
8306 1172 1
8306 5060 1
8306 8474 1
8307 19 1
8307 2421 1
8307 2875 1
8307 5041 1
8308 1249 1
8308 2017 1
8308 2440 1
8308 2610 1
8309 1504 1
8309 2012 1
8309 2156 1
8309 4511 1
8309 8821 1
8310 2124 1
8310 5436 1
8310 5811 1
8310 8123 1
8310 9021 1
8311 2 1
8311 413 1
8311 2363 1
8311 4535 1
8311 9004 1
8312 2475 1
8312 3205 1
8312 6362 1
8312 6873 1
8313 49 1
8313 2450 1
8313 2960 1
8313 4747 1
8313 8702 1
8314 2322 1
8314 3254 1
8314 7531 1
8314 7901 1
8314 9299 1
8315 2 1
8315 1937 1
8315 4878 1
8315 6561 1
8316 118 1
8316 273 1
8316 1409 1
8316 2121 1
8317 786 1
8317 1723 1
8317 2977 1
8317 5340 1
8318 692 1
8318 3844 1
8318 5219 1
8318 6059 1
8319 9 1
8319 1825 1
8319 3663 1
8319 3774 1
8319 8471 1
8319 8634 1
8320 1121 1
8320 1284 1
8320 3092 1
8320 3562 1
8320 9984 1
8321 2 1
8321 44 1
8321 67 1
8321 4965 1
8322 2 1
8322 10 1
8322 5158 1
8322 7067 1
8323 91 1
8323 722 1
8323 3486 1
8323 7196 1
8324 46 1
8324 317 1
8324 1690 1
8324 2929 1
8325 281 1
8325 4566 1
8325 5624 1
8325 5857 1
8326 2231 1
8326 4627 1
8326 5450 1
8326 6549 1
8327 1529 1
8327 1832 1
8327 2828 1
8327 3710 1
8328 54 1
8328 81 1
8328 1893 1
8328 3106 1
8328 9149 1
8328 9771 1
8329 1530 1
8329 3126 1
8329 4509 1
8329 4579 1
8329 8588 1
8330 163 1
8330 800 1
8330 868 1
8330 4772 1
8331 128 1
8331 610 1
8331 1734 1
8331 2610 1
8332 158 1
8332 463 1
8332 761 1
8332 1715 1
8332 8946 1
8332 9630 1
8333 131 1
8333 1077 1
8333 3610 1
8333 7472 1
8333 8550 1
8334 27 1
8334 480 1
8334 1996 1
8334 3619 1
8335 1 1
8335 547 1
8335 3330 1
8335 7110 1
8336 2291 1
8336 3208 1
8336 3905 1
8336 4340 1
8337 73 1
8337 127 1
8337 451 1
8337 8111 1
8337 8936 1
8338 1 1
8338 2 1
8338 151 1
8338 153 1
8339 201 1
8339 3002 1
8339 4810 1
8339 6575 1
8340 467 1
8340 2401 1
8340 2936 1
8340 5237 1
8341 818 1
8341 986 1
8341 1038 1
8341 3163 1
8342 33 1
8342 3825 1
8342 7145 1
8342 7883 1
8343 728 1
8343 1113 1
8343 1699 1
8343 6930 1
8344 1465 1
8344 2037 1
8344 2645 1
8344 2674 1
8344 9210 1
8345 180 1
8345 2401 1
8345 6217 1
8345 6440 1
8346 705 1
8346 1197 1
8346 1542 1
8346 1652 1
8347 14 1
8347 1947 1
8347 2228 1
8347 7234 1
8348 489 1
8348 905 1
8348 4091 1
8348 4913 1
8349 307 1
8349 1235 1
8349 2985 1
8349 3924 1
8350 677 1
8350 986 1
8350 2547 1
8350 3466 1
8351 81 1
8351 301 1
8351 1203 1
8351 6983 1
8351 9488 1
8352 3 1
8352 699 1
8352 4953 1
8352 7877 1
8353 268 1
8353 1977 1
8353 5619 1
8353 7535 1
8353 9502 1
8354 75 1
8354 840 1
8354 7774 1
8354 8136 1
8354 9942 1
8355 81 1
8355 3789 1
8355 4182 1
8355 8062 1
8356 11 1
8356 492 1
8356 5019 1
8356 6781 1
8357 66 1
8357 421 1
8357 596 1
8357 4649 1
8357 8597 1
8357 9100 1
8358 10 1
8358 1005 1
8358 1093 1
8358 5709 1
8359 169 1
8359 334 1
8359 834 1
8359 3947 1
8359 9267 1
8360 12 1
8360 3323 1
8360 6555 1
8360 7273 1
8361 1 1
8361 837 1
8361 1225 1
8361 2710 1
8362 3 1
8362 2219 1
8362 2439 1
8362 2645 1
8363 93 1
8363 276 1
8363 4434 1
8363 7448 1
8364 2 1
8364 672 1
8364 4409 1
8364 5736 1
8365 11 1
8365 797 1
8365 5127 1
8365 8007 1
8366 18 1
8366 338 1
8366 6322 1
8366 8187 1
8367 3235 1
8367 5895 1
8367 5972 1
8367 7799 1
8367 9911 1
8368 709 1
8368 5019 1
8368 7887 1
8368 8171 1
8369 57 1
8369 537 1
8369 577 1
8369 2619 1
8369 8871 1
8369 9182 1
8370 2004 1
8370 2902 1
8370 4964 1
8370 8218 1
8371 19 1
8371 1393 1
8371 4108 1
8371 4535 1
8372 195 1
8372 289 1
8372 557 1
8372 1524 1
8373 9 1
8373 162 1
8373 266 1
8373 1555 1
8374 140 1
8374 236 1
8374 707 1
8374 6263 1
8375 958 1
8375 1203 1
8375 1584 1
8375 2343 1
8375 9727 1
8376 27 1
8376 78 1
8376 417 1
8376 4181 1
8377 1340 1
8377 1477 1
8377 3265 1
8377 3450 1
8377 9580 1
8378 219 1
8378 427 1
8378 5387 1
8378 7216 1
8379 199 1
8379 591 1
8379 5953 1
8379 7498 1
8379 8628 1
8380 104 1
8380 1194 1
8380 1301 1
8380 7248 1
8381 445 1
8381 711 1
8381 2642 1
8381 6392 1
8381 9863 1
8382 50 1
8382 90 1
8382 141 1
8382 1969 1
8383 58 1
8383 1873 1
8383 5123 1
8383 6525 1
8384 10 1
8384 257 1
8384 1083 1
8384 7150 1
8384 9609 1
8385 18 1
8385 661 1
8385 943 1
8385 1085 1
8386 18 1
8386 1792 1
8386 6270 1
8386 8230 1
8386 9093 1
8386 9412 1
8387 310 1
8387 1481 1
8387 2502 1
8387 7533 1
8388 539 1
8388 4331 1
8388 5671 1
8388 8093 1
8389 273 1
8389 1957 1
8389 5410 1
8389 8089 1
8389 8535 1
8390 630 1
8390 925 1
8390 1986 1
8390 7857 1
8390 8488 1
8391 49 1
8391 107 1
8391 4079 1
8391 6986 1
8391 9509 1
8392 17 1
8392 23 1
8392 517 1
8392 671 1
8392 9503 1
8393 25 1
8393 1257 1
8393 2802 1
8393 3822 1
8394 868 1
8394 922 1
8394 3173 1
8394 7825 1
8395 9 1
8395 340 1
8395 612 1
8395 4146 1
8396 2294 1
8396 3303 1
8396 4146 1
8396 7421 1
8397 1265 1
8397 1722 1
8397 6739 1
8397 7644 1
8398 91 1
8398 1013 1
8398 3293 1
8398 6822 1
8399 1007 1
8399 4301 1
8399 4627 1
8399 7867 1
8400 19 1
8400 3340 1
8400 3353 1
8400 7530 1
8401 633 1
8401 772 1
8401 858 1
8401 1795 1
8401 8451 1
8401 8751 1
8402 43 1
8402 177 1
8402 1939 1
8402 3491 1
8403 1960 1
8403 3606 1
8403 4945 1
8403 7276 1
8404 50 1
8404 425 1
8404 1637 1
8404 2085 1
8405 35 1
8405 469 1
8405 1925 1
8405 2781 1
8406 20 1
8406 2298 1
8406 2870 1
8406 4215 1
8406 8775 1
8406 9419 1
8407 1038 1
8407 1195 1
8407 1946 1
8407 4187 1
8408 699 1
8408 844 1
8408 3753 1
8408 3897 1
8408 9817 1
8409 1750 1
8409 2365 1
8409 3922 1
8409 8155 1
8410 436 1
8410 897 1
8410 3793 1
8410 6290 1
8411 113 1
8411 738 1
8411 2226 1
8411 6164 1
8411 8838 1
8412 1898 1
8412 3394 1
8412 6219 1
8412 7803 1
8413 561 1
8413 1477 1
8413 3548 1
8413 6724 1
8414 81 1
8414 259 1
8414 2150 1
8414 4949 1
8414 9219 1
8414 9664 1
8415 83 1
8415 868 1
8415 978 1
8415 7469 1
8416 9 1
8416 2057 1
8416 5380 1
8416 7342 1
8416 8469 1
8417 28 1
8417 410 1
8417 3710 1
8417 4821 1
8418 105 1
8418 370 1
8418 5658 1
8418 6627 1
8419 403 1
8419 1721 1
8419 4884 1
8419 6104 1
8419 9610 1
8420 1234 1
8420 2134 1
8420 5226 1
8420 5337 1
8421 9 1
8421 1972 1
8421 2483 1
8421 2895 1
8422 171 1
8422 770 1
8422 929 1
8422 3244 1
8422 8616 1
8423 75 1
8423 1141 1
8423 4373 1
8423 8244 1
8424 403 1
8424 459 1
8424 1500 1
8424 3829 1
8425 982 1
8425 2462 1
8425 2662 1
8425 3162 1
8426 6 1
8426 443 1
8426 1249 1
8426 2835 1
8427 1221 1
8427 1351 1
8427 4041 1
8427 4571 1
8428 18 1
8428 1075 1
8428 3490 1
8428 5123 1
8428 8948 1
8428 9082 1
8429 36 1
8429 1052 1
8429 1179 1
8429 1329 1
8429 9167 1
8430 12 1
8430 49 1
8430 1425 1
8430 5545 1
8430 8832 1
8431 389 1
8431 497 1
8431 2349 1
8431 5457 1
8432 346 1
8432 4415 1
8432 7506 1
8432 8298 1
8432 9430 1
8433 85 1
8433 1698 1
8433 2295 1
8433 7886 1
8433 9959 1
8434 1982 1
8434 2350 1
8434 5680 1
8434 7603 1
8435 357 1
8435 535 1
8435 3040 1
8435 8042 1
8436 685 1
8436 747 1
8436 2877 1
8436 7844 1
8437 174 1
8437 2752 1
8437 3237 1
8437 7491 1
8438 2 1
8438 358 1
8438 2345 1
8438 4067 1
8439 1 1
8439 1266 1
8439 2812 1
8439 3183 1
8439 9150 1
8440 1 1
8440 2124 1
8440 7294 1
8440 8021 1
8441 46 1
8441 5210 1
8441 7356 1
8441 7362 1
8442 2134 1
8442 4423 1
8442 7302 1
8442 8050 1
8442 8918 1
8443 747 1
8443 4932 1
8443 5338 1
8443 7694 1
8444 178 1
8444 2417 1
8444 2722 1
8444 4269 1
8445 153 1
8445 178 1
8445 921 1
8445 3686 1
8445 9248 1
8446 718 1
8446 1312 1
8446 1936 1
8446 2120 1
8447 777 1
8447 1535 1
8447 3267 1
8447 4156 1
8448 499 1
8448 2506 1
8448 4407 1
8448 5770 1
8449 13 1
8449 26 1
8449 779 1
8449 1140 1
8449 9272 1
8450 684 1
8450 3344 1
8450 3507 1
8450 5412 1
8450 9762 1
8451 324 1
8451 6043 1
8451 6268 1
8451 8401 1
8452 1690 1
8452 2930 1
8452 3963 1
8452 4771 1
8453 179 1
8453 2451 1
8453 6938 1
8453 7201 1
8454 10 1
8454 217 1
8454 477 1
8454 7321 1
8454 9938 1
8455 50 1
8455 123 1
8455 4296 1
8455 4593 1
8455 8813 1
8456 29 1
8456 250 1
8456 1287 1
8456 3426 1
8457 235 1
8457 443 1
8457 5285 1
8457 6912 1
8457 8890 1
8458 41 1
8458 146 1
8458 1341 1
8458 5912 1
8458 8774 1
8458 9272 1
8459 45 1
8459 227 1
8459 281 1
8459 2332 1
8460 2 1
8460 2581 1
8460 6061 1
8460 6869 1
8461 445 1
8461 5730 1
8461 7091 1
8461 7188 1
8461 9280 1
8462 145 1
8462 497 1
8462 5949 1
8462 8148 1
8462 9300 1
8463 266 1
8463 865 1
8463 2624 1
8463 5885 1
8463 9808 1
8464 1413 1
8464 3083 1
8464 3601 1
8464 7636 1
8465 289 1
8465 2228 1
8465 4533 1
8465 5373 1
8465 8924 1
8466 19 1
8466 473 1
8466 5595 1
8466 5900 1
8467 163 1
8467 889 1
8467 5521 1
8467 6808 1
8467 9670 1
8468 566 1
8468 830 1
8468 1485 1
8468 3852 1
8469 9 1
8469 154 1
8469 6039 1
8469 8416 1
8470 4489 1
8470 4584 1
8470 6825 1
8470 7807 1
8471 9 1
8471 233 1
8471 243 1
8471 8319 1
8471 9653 1
8472 81 1
8472 374 1
8472 2010 1
8472 4182 1
8473 110 1
8473 216 1
8473 1093 1
8473 1138 1
8474 332 1
8474 4866 1
8474 5431 1
8474 8306 1
8475 1 1
8475 52 1
8475 124 1
8475 2782 1
8476 14 1
8476 1795 1
8476 6394 1
8476 6954 1
8477 2740 1
8477 3280 1
8477 3396 1
8477 4858 1
8477 9626 1
8478 91 1
8478 121 1
8478 1938 1
8478 2756 1
8479 124 1
8479 129 1
8479 566 1
8479 5847 1
8480 223 1
8480 382 1
8480 1153 1
8480 6650 1
8480 8681 1
8481 677 1
8481 914 1
8481 1214 1
8481 2679 1
8482 27 1
8482 459 1
8482 469 1
8482 1305 1
8483 73 1
8483 803 1
8483 2067 1
8483 3061 1
8483 8787 1
8484 254 1
8484 562 1
8484 1708 1
8484 3378 1
8485 481 1
8485 1876 1
8485 4506 1
8485 6800 1
8485 9428 1
8486 97 1
8486 142 1
8486 3487 1
8486 3703 1
8487 186 1
8487 2979 1
8487 4237 1
8487 6269 1
8488 3716 1
8488 5162 1
8488 7478 1
8488 8390 1
8489 619 1
8489 1044 1
8489 3791 1
8489 5176 1
8490 118 1
8490 2571 1
8490 2614 1
8490 3990 1
8491 897 1
8491 4703 1
8491 5214 1
8491 6855 1
8492 20 1
8492 663 1
8492 2228 1
8492 2889 1
8493 645 1
8493 2523 1
8493 3508 1
8493 5753 1
8494 1524 1
8494 1853 1
8494 2220 1
8494 3270 1
8495 43 1
8495 332 1
8495 394 1
8495 944 1
8496 5 1
8496 2704 1
8496 4139 1
8496 6201 1
8497 284 1
8497 459 1
8497 2777 1
8497 5620 1
8497 8943 1
8498 10 1
8498 1332 1
8498 1745 1
8498 1990 1
8499 178 1
8499 2343 1
8499 4218 1
8499 6335 1
8500 5464 1
8500 5564 1
8500 6082 1
8500 8025 1
8501 31 1
8501 1072 1
8501 1424 1
8501 7066 1
8502 561 1
8502 955 1
8502 3729 1
8502 4651 1
8503 9 1
8503 25 1
8503 2454 1
8503 5659 1
8504 505 1
8504 1526 1
8504 2948 1
8504 7205 1
8505 2139 1
8505 2648 1
8505 2900 1
8505 5728 1
8506 891 1
8506 938 1
8506 4933 1
8506 5383 1
8507 9 1
8507 49 1
8507 5764 1
8507 5932 1
8508 290 1
8508 406 1
8508 687 1
8508 1019 1
8508 9258 1
8509 510 1
8509 1105 1
8509 5461 1
8509 7034 1
8510 18 1
8510 225 1
8510 1914 1
8510 7040 1
8510 8981 1
8510 9682 1
8511 369 1
8511 1795 1
8511 5629 1
8511 7774 1
8511 9007 1
8512 2 1
8512 1514 1
8512 5001 1
8512 6876 1
8513 105 1
8513 1218 1
8513 1915 1
8513 2523 1
8513 9289 1
8514 179 1
8514 1617 1
8514 5131 1
8514 6891 1
8514 8692 1
8514 9209 1
8515 25 1
8515 825 1
8515 3038 1
8515 7033 1
8516 316 1
8516 1010 1
8516 1176 1
8516 7397 1
8517 154 1
8517 1250 1
8517 1355 1
8517 1715 1
8518 4 1
8518 1134 1
8518 1563 1
8518 3486 1
8518 8690 1
8518 9387 1
8518 9560 1
8519 1004 1
8519 3047 1
8519 4209 1
8519 5676 1
8520 168 1
8520 325 1
8520 4920 1
8520 6082 1
8521 21 1
8521 1907 1
8521 2012 1
8521 3992 1
8522 1464 1
8522 3798 1
8522 5276 1
8522 7421 1
8523 4 1
8523 826 1
8523 1591 1
8523 5786 1
8524 4769 1
8524 6098 1
8524 7045 1
8524 8161 1
8525 738 1
8525 940 1
8525 1641 1
8525 5523 1
8526 101 1
8526 356 1
8526 1355 1
8526 6804 1
8527 148 1
8527 356 1
8527 963 1
8527 2177 1
8528 25 1
8528 850 1
8528 2814 1
8528 6591 1
8529 150 1
8529 885 1
8529 2662 1
8529 5193 1
8530 1081 1
8530 1130 1
8530 2219 1
8530 6907 1
8531 9 1
8531 2313 1
8531 6869 1
8531 7462 1
8532 50 1
8532 1747 1
8532 3531 1
8532 4370 1
8532 9124 1
8533 211 1
8533 2092 1
8533 5117 1
8533 5808 1
8534 8 1
8534 111 1
8534 955 1
8534 6616 1
8534 8711 1
8534 8973 1
8534 9391 1
8535 649 1
8535 1957 1
8535 5410 1
8535 8389 1
8536 242 1
8536 464 1
8536 779 1
8536 894 1
8537 14 1
8537 970 1
8537 2410 1
8537 4853 1
8538 38 1
8538 577 1
8538 3572 1
8538 5522 1
8539 1528 1
8539 2003 1
8539 4730 1
8539 6225 1
8539 8588 1
8540 576 1
8540 889 1
8540 2525 1
8540 5658 1
8541 41 1
8541 757 1
8541 1532 1
8541 4857 1
8541 9020 1
8542 627 1
8542 1878 1
8542 3429 1
8542 7394 1
8543 211 1
8543 5284 1
8543 5574 1
8543 6413 1
8544 13 1
8544 1442 1
8544 1533 1
8544 2917 1
8545 337 1
8545 2707 1
8545 3755 1
8545 6389 1
8546 146 1
8546 1044 1
8546 3029 1
8546 6793 1
8546 9903 1
8547 73 1
8547 92 1
8547 958 1
8547 2890 1
8548 25 1
8548 67 1
8548 131 1
8548 1754 1
8549 18 1
8549 36 1
8549 1445 1
8549 1915 1
8550 27 1
8550 275 1
8550 3610 1
8550 8333 1
8551 103 1
8551 155 1
8551 461 1
8551 3958 1
8552 155 1
8552 425 1
8552 1260 1
8552 3400 1
8552 9823 1
8553 426 1
8553 940 1
8553 1379 1
8553 5476 1
8554 2393 1
8554 4980 1
8554 6305 1
8554 7191 1
8555 1170 1
8555 1401 1
8555 1429 1
8555 1782 1
8556 25 1
8556 3153 1
8556 4898 1
8556 8107 1
8556 9805 1
8557 2581 1
8557 3908 1
8557 4183 1
8557 7805 1
8558 322 1
8558 1251 1
8558 2316 1
8558 3567 1
8558 9030 1
8558 9898 1
8559 25 1
8559 1027 1
8559 2236 1
8559 3019 1
8560 18 1
8560 1310 1
8560 4154 1
8560 5835 1
8561 1009 1
8561 5469 1
8561 6210 1
8561 6350 1
8561 9072 1
8562 2563 1
8562 3311 1
8562 5873 1
8562 7391 1
8563 4 1
8563 4878 1
8563 6436 1
8563 6786 1
8563 8959 1
8564 419 1
8564 1264 1
8564 4115 1
8564 7730 1
8565 41 1
8565 197 1
8565 1555 1
8565 2391 1
8566 1156 1
8566 3165 1
8566 3329 1
8566 4019 1
8566 9614 1
8567 28 1
8567 1914 1
8567 3467 1
8567 4665 1
8568 2642 1
8568 3479 1
8568 3746 1
8568 7957 1
8569 465 1
8569 573 1
8569 2523 1
8569 3467 1
8569 9505 1
8570 20 1
8570 417 1
8570 5422 1
8570 7821 1
8571 2682 1
8571 2717 1
8571 3167 1
8571 6128 1
8572 10 1
8572 239 1
8572 353 1
8572 1490 1
8573 2209 1
8573 2271 1
8573 5386 1
8573 7436 1
8574 187 1
8574 3517 1
8574 4098 1
8574 6327 1
8575 253 1
8575 1795 1
8575 5907 1
8575 7520 1
8576 25 1
8576 1234 1
8576 6907 1
8576 8254 1
8577 9 1
8577 310 1
8577 3842 1
8577 4217 1
8577 9156 1
8577 9712 1
8577 9955 1
8578 300 1
8578 1329 1
8578 2159 1
8578 3581 1
8579 63 1
8579 97 1
8579 5861 1
8579 7207 1
8580 163 1
8580 1413 1
8580 1757 1
8580 4133 1
8581 335 1
8581 387 1
8581 733 1
8581 757 1
8582 1217 1
8582 4842 1
8582 5794 1
8582 7578 1
8583 97 1
8583 386 1
8583 1573 1
8583 6981 1
8583 8606 1
8583 8609 1
8584 5931 1
8584 5978 1
8584 6201 1
8584 6921 1
8585 185 1
8585 2019 1
8585 2211 1
8585 8156 1
8586 17 1
8586 426 1
8586 3220 1
8586 6900 1
8587 759 1
8587 828 1
8587 1032 1
8587 2275 1
8588 1528 1
8588 2003 1
8588 8329 1
8588 8539 1
8589 161 1
8589 225 1
8589 1682 1
8589 6911 1
8590 93 1
8590 1567 1
8590 1657 1
8590 2569 1
8590 8778 1
8590 9935 1
8591 755 1
8591 1442 1
8591 2701 1
8591 5901 1
8591 8747 1
8592 665 1
8592 3794 1
8592 3954 1
8592 7351 1
8593 118 1
8593 179 1
8593 4539 1
8593 6845 1
8594 2443 1
8594 3273 1
8594 3875 1
8594 7695 1
8595 1105 1
8595 2007 1
8595 2527 1
8595 3693 1
8596 11 1
8596 27 1
8596 2155 1
8596 3605 1
8597 4495 1
8597 4649 1
8597 7352 1
8597 8357 1
8597 9100 1
8598 62 1
8598 245 1
8598 1862 1
8598 6831 1
8599 27 1
8599 703 1
8599 1183 1
8599 2594 1
8600 10 1
8600 51 1
8600 2122 1
8600 6202 1
8601 35 1
8601 210 1
8601 540 1
8601 2593 1
8602 710 1
8602 1858 1
8602 5313 1
8602 7866 1
8603 715 1
8603 4593 1
8603 7280 1
8603 8250 1
8604 3 1
8604 250 1
8604 1448 1
8604 3798 1
8605 9 1
8605 74 1
8605 4726 1
8605 7460 1
8605 8954 1
8606 3836 1
8606 6558 1
8606 6981 1
8606 8583 1
8607 329 1
8607 1763 1
8607 1779 1
8607 6605 1
8608 2 1
8608 166 1
8608 537 1
8608 1745 1
8609 386 1
8609 569 1
8609 3848 1
8609 8583 1
8609 9277 1
8610 356 1
8610 1662 1
8610 2060 1
8610 8059 1
8611 931 1
8611 3752 1
8611 7399 1
8611 8177 1
8612 1090 1
8612 1684 1
8612 1788 1
8612 3890 1
8613 197 1
8613 2156 1
8613 4187 1
8613 5757 1
8614 91 1
8614 155 1
8614 4659 1
8614 5701 1
8614 8752 1
8615 348 1
8615 426 1
8615 2318 1
8615 2658 1
8616 3883 1
8616 5223 1
8616 6024 1
8616 8422 1
8617 213 1
8617 842 1
8617 5865 1
8617 7340 1
8618 96 1
8618 192 1
8618 2232 1
8618 7337 1
8618 9329 1
8619 293 1
8619 459 1
8619 510 1
8619 6484 1
8620 547 1
8620 1221 1
8620 2076 1
8620 2478 1
8621 1322 1
8621 1718 1
8621 2278 1
8621 2436 1
8622 323 1
8622 4675 1
8622 5915 1
8622 7733 1
8622 9244 1
8623 782 1
8623 2225 1
8623 3037 1
8623 5520 1
8623 8873 1
8624 17 1
8624 20 1
8624 1342 1
8624 6598 1
8625 1497 1
8625 1574 1
8625 1596 1
8625 2827 1
8626 51 1
8626 2655 1
8626 4041 1
8626 5487 1
8627 417 1
8627 2019 1
8627 3228 1
8627 6873 1
8628 591 1
8628 1949 1
8628 7293 1
8628 8379 1
8629 481 1
8629 1770 1
8629 4649 1
8629 6614 1
8629 9553 1
8630 129 1
8630 2321 1
8630 2613 1
8630 4777 1
8630 9365 1
8631 1438 1
8631 1549 1
8631 2674 1
8631 5918 1
8632 860 1
8632 966 1
8632 4986 1
8632 7065 1
8633 25 1
8633 183 1
8633 1329 1
8633 6566 1
8634 1611 1
8634 1825 1
8634 4897 1
8634 8319 1
8635 155 1
8635 2246 1
8635 2636 1
8635 5330 1
8636 1427 1
8636 4314 1
8636 5758 1
8636 7165 1
8637 59 1
8637 1982 1
8637 2510 1
8637 3109 1
8638 9 1
8638 57 1
8638 2490 1
8638 4921 1
8639 193 1
8639 196 1
8639 354 1
8639 1887 1
8640 182 1
8640 6995 1
8640 8156 1
8640 8250 1
8641 146 1
8641 2243 1
8641 2503 1
8641 4700 1
8642 91 1
8642 146 1
8642 3451 1
8642 5429 1
8642 9438 1
8643 338 1
8643 697 1
8643 5219 1
8643 7277 1
8643 8989 1
8643 9221 1
8644 5 1
8644 497 1
8644 799 1
8644 1183 1
8645 25 1
8645 408 1
8645 4109 1
8645 7908 1
8646 531 1
8646 3474 1
8646 4066 1
8646 6067 1
8647 746 1
8647 1076 1
8647 1533 1
8647 7125 1
8648 1506 1
8648 1649 1
8648 5383 1
8648 7951 1
8649 10 1
8649 5401 1
8649 5725 1
8649 6698 1
8650 9 1
8650 1218 1
8650 2758 1
8650 6601 1
8650 9501 1
8651 1310 1
8651 2046 1
8651 2836 1
8651 7770 1
8652 1106 1
8652 3584 1
8652 5570 1
8652 5810 1
8652 8908 1
8653 2 1
8653 19 1
8653 885 1
8653 1147 1
8654 288 1
8654 435 1
8654 1198 1
8654 1389 1
8655 410 1
8655 971 1
8655 1204 1
8655 3191 1
8656 764 1
8656 925 1
8656 3776 1
8656 5446 1
8657 49 1
8657 155 1
8657 581 1
8657 6054 1
8658 11 1
8658 642 1
8658 915 1
8658 2726 1
8658 8985 1
8659 908 1
8659 2403 1
8659 3029 1
8659 3519 1
8660 564 1
8660 2221 1
8660 3722 1
8660 7103 1
8661 564 1
8661 3116 1
8661 5139 1
8661 5422 1
8661 9410 1
8662 21 1
8662 43 1
8662 618 1
8662 3390 1
8663 305 1
8663 3912 1
8663 5179 1
8663 5913 1
8664 917 1
8664 6629 1
8664 7586 1
8664 7626 1
8665 25 1
8665 732 1
8665 2033 1
8665 3109 1
8666 273 1
8666 1145 1
8666 2708 1
8666 3392 1
8667 250 1
8667 289 1
8667 498 1
8667 3201 1
8668 65 1
8668 1811 1
8668 2769 1
8668 3628 1
8669 20 1
8669 4649 1
8669 4924 1
8669 6379 1
8670 9 1
8670 2485 1
8670 4153 1
8670 4890 1
8671 33 1
8671 301 1
8671 2660 1
8671 5729 1
8672 34 1
8672 365 1
8672 806 1
8672 5138 1
8672 9787 1
8673 1 1
8673 2 1
8673 683 1
8673 7539 1
8674 49 1
8674 123 1
8674 1766 1
8674 5937 1
8674 9487 1
8674 9921 1
8675 81 1
8675 1572 1
8675 4181 1
8675 6955 1
8676 107 1
8676 2600 1
8676 3468 1
8676 3716 1
8677 19 1
8677 261 1
8677 1324 1
8677 4043 1
8678 394 1
8678 417 1
8678 2229 1
8678 4956 1
8679 1862 1
8679 2470 1
8679 3526 1
8679 5039 1
8680 1506 1
8680 2167 1
8680 4908 1
8680 6945 1
8681 9 1
8681 1153 1
8681 7203 1
8681 8480 1
8682 294 1
8682 600 1
8682 1038 1
8682 3044 1
8682 8852 1
8683 28 1
8683 29 1
8683 660 1
8683 2929 1
8683 9987 1
8684 99 1
8684 2219 1
8684 3779 1
8684 6854 1
8685 2054 1
8685 3821 1
8685 4129 1
8685 5503 1
8686 61 1
8686 545 1
8686 1609 1
8686 6562 1
8687 18 1
8687 33 1
8687 3106 1
8687 3386 1
8688 372 1
8688 3035 1
8688 3285 1
8688 4084 1
8689 50 1
8689 323 1
8689 4686 1
8689 5697 1
8690 1 1
8690 763 1
8690 847 1
8690 8518 1
8691 158 1
8691 279 1
8691 6540 1
8691 7128 1
8692 179 1
8692 1617 1
8692 5131 1
8692 8514 1
8693 1878 1
8693 4566 1
8693 4620 1
8693 7160 1
8694 180 1
8694 267 1
8694 1299 1
8694 3060 1
8694 9173 1
8695 2186 1
8695 2385 1
8695 3610 1
8695 4457 1
8696 574 1
8696 1529 1
8696 3597 1
8696 6739 1
8696 9450 1
8697 97 1
8697 751 1
8697 4275 1
8697 7777 1
8697 9145 1
8698 2831 1
8698 5210 1
8698 6268 1
8698 7528 1
8699 435 1
8699 780 1
8699 1034 1
8699 2546 1
8700 261 1
8700 276 1
8700 485 1
8700 3494 1
8701 790 1
8701 1451 1
8701 1738 1
8701 4732 1
8702 41 1
8702 322 1
8702 4747 1
8702 8313 1
8703 147 1
8703 153 1
8703 664 1
8703 4161 1
8704 2 1
8704 1916 1
8704 2714 1
8704 5970 1
8704 9294 1
8705 1 1
8705 63 1
8705 3358 1
8705 4250 1
8705 9185 1
8706 345 1
8706 667 1
8706 5287 1
8706 5739 1
8707 777 1
8707 849 1
8707 4886 1
8707 6930 1
8707 9645 1
8708 223 1
8708 337 1
8708 4443 1
8708 7692 1
8709 648 1
8709 2756 1
8709 6105 1
8709 7029 1
8710 46 1
8710 2569 1
8710 3337 1
8710 3426 1
8710 8778 1
8711 111 1
8711 6881 1
8711 8166 1
8711 8534 1
8711 9367 1
8712 289 1
8712 573 1
8712 1477 1
8712 6427 1
8712 9786 1
8713 186 1
8713 1811 1
8713 2853 1
8713 7345 1
8714 2651 1
8714 3108 1
8714 4465 1
8714 8300 1
8715 17 1
8715 51 1
8715 91 1
8715 4157 1
8716 116 1
8716 769 1
8716 1134 1
8716 4010 1
8717 17 1
8717 583 1
8717 1610 1
8717 5062 1
8718 289 1
8718 1265 1
8718 1301 1
8718 5541 1
8719 1082 1
8719 5523 1
8719 7335 1
8719 8240 1
8720 573 1
8720 1847 1
8720 2266 1
8720 3368 1
8721 683 1
8721 3244 1
8721 3479 1
8721 8230 1
8722 9 1
8722 311 1
8722 5943 1
8722 7959 1
8722 9620 1
8722 9699 1
8722 9980 1
8723 14 1
8723 128 1
8723 443 1
8723 8128 1
8724 395 1
8724 636 1
8724 3803 1
8724 7643 1
8725 1641 1
8725 2588 1
8725 5082 1
8725 5222 1
8725 9353 1
8726 531 1
8726 1446 1
8726 2462 1
8726 3127 1
8727 25 1
8727 3163 1
8727 5748 1
8727 7647 1
8728 950 1
8728 1125 1
8728 3065 1
8728 6859 1
8729 26 1
8729 905 1
8729 1242 1
8729 8074 1
8730 54 1
8730 150 1
8730 2431 1
8730 3468 1
8731 53 1
8731 256 1
8731 1023 1
8731 3435 1
8732 522 1
8732 777 1
8732 803 1
8732 1311 1
8733 5 1
8733 777 1
8733 1197 1
8733 6053 1
8734 81 1
8734 555 1
8734 826 1
8734 1591 1
8735 50 1
8735 247 1
8735 428 1
8735 777 1
8736 411 1
8736 554 1
8736 1260 1
8736 8009 1
8737 561 1
8737 3330 1
8737 3700 1
8737 7482 1
8738 13 1
8738 1332 1
8738 3101 1
8738 5072 1
8739 1 1
8739 3009 1
8739 6277 1
8739 7168 1
8740 932 1
8740 6089 1
8740 7188 1
8740 8224 1
8741 830 1
8741 4005 1
8741 4067 1
8741 4641 1
8741 9820 1
8742 250 1
8742 321 1
8742 1418 1
8742 2301 1
8743 154 1
8743 3236 1
8743 3394 1
8743 5193 1
8743 9217 1
8743 9585 1
8744 469 1
8744 949 1
8744 4176 1
8744 7718 1
8745 163 1
8745 1305 1
8745 2613 1
8745 6127 1
8746 3701 1
8746 4954 1
8746 8172 1
8746 8205 1
8747 7 1
8747 81 1
8747 1442 1
8747 8591 1
8748 2444 1
8748 4009 1
8748 6715 1
8748 8002 1
8749 197 1
8749 997 1
8749 5607 1
8749 7110 1
8750 1148 1
8750 1968 1
8750 4850 1
8750 8249 1
8751 1163 1
8751 3591 1
8751 7589 1
8751 8401 1
8752 2049 1
8752 2308 1
8752 5074 1
8752 8614 1
8753 994 1
8753 3433 1
8753 4530 1
8753 4682 1
8754 147 1
8754 329 1
8754 5257 1
8754 5525 1
8754 9025 1
8755 3594 1
8755 4560 1
8755 5953 1
8755 7009 1
8756 82 1
8756 964 1
8756 6909 1
8756 7639 1
8757 3508 1
8757 4269 1
8757 4386 1
8757 7117 1
8758 224 1
8758 2960 1
8758 3422 1
8758 5102 1
8759 171 1
8759 972 1
8759 1203 1
8759 7985 1
8759 8850 1
8760 498 1
8760 720 1
8760 1835 1
8760 4207 1
8760 8772 1
8761 17 1
8761 89 1
8761 1343 1
8761 5018 1
8762 81 1
8762 89 1
8762 683 1
8762 7116 1
8762 8902 1
8762 9709 1
8763 123 1
8763 301 1
8763 905 1
8763 4272 1
8764 2363 1
8764 5530 1
8764 5746 1
8764 6492 1
8765 354 1
8765 2185 1
8765 6654 1
8765 7472 1
8766 297 1
8766 1312 1
8766 3016 1
8766 4846 1
8767 519 1
8767 3147 1
8767 3784 1
8767 5266 1
8768 2 1
8768 387 1
8768 555 1
8768 6690 1
8768 9630 1
8769 97 1
8769 273 1
8769 560 1
8769 6422 1
8770 35 1
8770 444 1
8770 941 1
8770 4906 1
8771 1052 1
8771 3390 1
8771 3827 1
8771 7525 1
8772 498 1
8772 3352 1
8772 8297 1
8772 8760 1
8773 2 1
8773 321 1
8773 501 1
8773 6050 1
8773 8890 1
8774 465 1
8774 1094 1
8774 5912 1
8774 8458 1
8775 20 1
8775 2298 1
8775 2870 1
8775 8406 1
8775 9419 1
8776 20 1
8776 844 1
8776 1258 1
8776 7510 1
8777 53 1
8777 5785 1
8777 6784 1
8777 8090 1
8778 2569 1
8778 5766 1
8778 8590 1
8778 8710 1
8779 174 1
8779 774 1
8779 1342 1
8779 4331 1
8780 692 1
8780 2697 1
8780 4039 1
8780 4761 1
8781 10 1
8781 3314 1
8781 3357 1
8781 4308 1
8781 9965 1
8782 1 1
8782 2427 1
8782 3938 1
8782 5153 1
8782 9582 1
8783 1 1
8783 2918 1
8783 3302 1
8783 5584 1
8784 57 1
8784 1083 1
8784 4631 1
8784 5038 1
8785 49 1
8785 2779 1
8785 6214 1
8785 7653 1
8785 9699 1
8786 58 1
8786 66 1
8786 2640 1
8786 6007 1
8787 468 1
8787 2494 1
8787 7955 1
8787 8483 1
8788 267 1
8788 2162 1
8788 7023 1
8788 7794 1
8789 317 1
8789 535 1
8789 1989 1
8789 2050 1
8789 9868 1
8790 65 1
8790 155 1
8790 772 1
8790 6835 1
8790 9345 1
8790 9558 1
8791 564 1
8791 575 1
8791 2663 1
8791 7297 1
8791 9532 1
8792 402 1
8792 2978 1
8792 3657 1
8792 8283 1
8793 465 1
8793 3327 1
8793 6598 1
8793 7023 1
8794 162 1
8794 1029 1
8794 1524 1
8794 7427 1
8795 9 1
8795 4687 1
8795 4719 1
8795 7247 1
8796 285 1
8796 1813 1
8796 2364 1
8796 7761 1
8797 542 1
8797 2709 1
8797 3083 1
8797 8052 1
8798 178 1
8798 2380 1
8798 2791 1
8798 5546 1
8799 89 1
8799 190 1
8799 279 1
8799 2217 1
8800 133 1
8800 146 1
8800 1581 1
8800 3007 1
8801 577 1
8801 1990 1
8801 4587 1
8801 7292 1
8802 3277 1
8802 3983 1
8802 5367 1
8802 5557 1
8803 260 1
8803 1924 1
8803 3249 1
8803 6842 1
8804 57 1
8804 137 1
8804 298 1
8804 3030 1
8805 293 1
8805 661 1
8805 2956 1
8805 5003 1
8805 9109 1
8806 94 1
8806 129 1
8806 3974 1
8806 4114 1
8807 2 1
8807 163 1
8807 224 1
8807 5025 1
8808 1 1
8808 1839 1
8808 2825 1
8808 3115 1
8809 17 1
8809 366 1
8809 1893 1
8809 8186 1
8810 2418 1
8810 5977 1
8810 6873 1
8810 7390 1
8811 234 1
8811 3260 1
8811 3765 1
8811 4602 1
8812 534 1
8812 2014 1
8812 3060 1
8812 7501 1
8813 123 1
8813 2453 1
8813 3898 1
8813 8455 1
8814 273 1
8814 1095 1
8814 1373 1
8814 2569 1
8815 27 1
8815 154 1
8815 539 1
8815 4340 1
8816 11 1
8816 41 1
8816 1543 1
8816 7451 1
8817 17 1
8817 138 1
8817 4506 1
8817 7260 1
8818 3140 1
8818 4737 1
8818 5175 1
8818 7844 1
8819 11 1
8819 1027 1
8819 2205 1
8819 6180 1
8820 484 1
8820 1913 1
8820 4953 1
8820 5452 1
8821 188 1
8821 2156 1
8821 6099 1
8821 8309 1
8821 8844 1
8821 9072 1
8822 405 1
8822 623 1
8822 1747 1
8822 4994 1
8823 394 1
8823 1030 1
8823 3168 1
8823 3246 1
8824 804 1
8824 2108 1
8824 6468 1
8824 7988 1
8825 194 1
8825 1846 1
8825 7923 1
8825 8057 1
8826 2 1
8826 406 1
8826 1339 1
8826 7271 1
8827 513 1
8827 3711 1
8827 4613 1
8827 5904 1
8828 1034 1
8828 2455 1
8828 4068 1
8828 5085 1
8829 294 1
8829 539 1
8829 2130 1
8829 4140 1
8830 757 1
8830 1966 1
8830 3146 1
8830 3713 1
8831 1701 1
8831 1971 1
8831 2386 1
8831 2755 1
8831 9351 1
8832 534 1
8832 5320 1
8832 8113 1
8832 8430 1
8833 306 1
8833 847 1
8833 2981 1
8833 5370 1
8833 8926 1
8833 9414 1
8834 1581 1
8834 2104 1
8834 4197 1
8834 7596 1
8834 8971 1
8835 58 1
8835 1429 1
8835 4108 1
8835 7298 1
8836 194 1
8836 297 1
8836 3411 1
8836 5921 1
8837 1404 1
8837 1960 1
8837 2233 1
8837 5586 1
8838 14 1
8838 1217 1
8838 6164 1
8838 8411 1
8839 32 1
8839 618 1
8839 3505 1
8839 4403 1
8840 1546 1
8840 2109 1
8840 2506 1
8840 7037 1
8840 9231 1
8840 9656 1
8841 74 1
8841 83 1
8841 3455 1
8841 3644 1
8841 9496 1
8842 1998 1
8842 4512 1
8842 6268 1
8842 6830 1
8842 9047 1
8842 9135 1
8843 315 1
8843 772 1
8843 3217 1
8843 5002 1
8844 53 1
8844 58 1
8844 7712 1
8844 8821 1
8845 1452 1
8845 2929 1
8845 6378 1
8845 6999 1
8846 474 1
8846 1371 1
8846 2541 1
8846 6699 1
8847 481 1
8847 797 1
8847 1017 1
8847 1140 1
8848 286 1
8848 781 1
8848 991 1
8848 6069 1
8849 4 1
8849 1020 1
8849 1913 1
8849 2183 1
8850 1203 1
8850 1255 1
8850 2562 1
8850 8759 1
8851 361 1
8851 3067 1
8851 3327 1
8851 5048 1
8852 73 1
8852 166 1
8852 4331 1
8852 8682 1
8853 113 1
8853 2356 1
8853 2403 1
8853 4031 1
8854 1955 1
8854 4082 1
8854 7443 1
8854 8147 1
8854 9069 1
8855 353 1
8855 2905 1
8855 3182 1
8855 6875 1
8856 36 1
8856 1642 1
8856 2393 1
8856 4847 1
8857 1671 1
8857 2571 1
8857 3621 1
8857 4527 1
8858 18 1
8858 516 1
8858 952 1
8858 1501 1
8858 9735 1
8859 9 1
8859 272 1
8859 603 1
8859 2236 1
8860 9 1
8860 1425 1
8860 2267 1
8860 6473 1
8861 1465 1
8861 2522 1
8861 5030 1
8861 6149 1
8861 9403 1
8861 9738 1
8862 207 1
8862 513 1
8862 854 1
8862 2069 1
8863 180 1
8863 945 1
8863 2792 1
8863 7205 1
8864 1284 1
8864 1490 1
8864 3130 1
8864 4991 1
8865 11 1
8865 2439 1
8865 3013 1
8865 5752 1
8866 971 1
8866 4562 1
8866 6447 1
8866 7798 1
8867 50 1
8867 387 1
8867 3686 1
8867 7905 1
8868 275 1
8868 3300 1
8868 5189 1
8868 6250 1
8868 8998 1
8869 46 1
8869 410 1
8869 478 1
8869 1033 1
8869 9116 1
8870 393 1
8870 787 1
8870 2967 1
8870 6355 1
8870 9383 1
8870 9573 1
8871 1182 1
8871 3899 1
8871 6964 1
8871 8369 1
8871 9182 1
8871 9672 1
8872 2365 1
8872 3293 1
8872 5210 1
8872 6702 1
8873 114 1
8873 1413 1
8873 6858 1
8873 8623 1
8874 561 1
8874 1571 1
8874 2141 1
8874 2855 1
8875 691 1
8875 745 1
8875 2890 1
8875 2921 1
8876 38 1
8876 1090 1
8876 3469 1
8876 7396 1
8877 610 1
8877 2709 1
8877 3603 1
8877 6171 1
8878 181 1
8878 1507 1
8878 1610 1
8878 8278 1
8879 6 1
8879 37 1
8879 2017 1
8879 2912 1
8880 2973 1
8880 4802 1
8880 4949 1
8880 7531 1
8881 26 1
8881 2369 1
8881 6169 1
8881 8004 1
8881 8903 1
8881 9696 1
8882 5 1
8882 947 1
8882 2603 1
8882 2988 1
8883 411 1
8883 1119 1
8883 3873 1
8883 6050 1
8883 9812 1
8884 196 1
8884 581 1
8884 2209 1
8884 5978 1
8885 157 1
8885 292 1
8885 1905 1
8885 2085 1
8886 282 1
8886 380 1
8886 5547 1
8886 7357 1
8887 2573 1
8887 3343 1
8887 5121 1
8887 6265 1
8888 1 1
8888 33 1
8888 758 1
8888 4267 1
8889 41 1
8889 83 1
8889 133 1
8889 5396 1
8890 501 1
8890 6912 1
8890 8457 1
8890 8773 1
8891 1362 1
8891 1389 1
8891 1777 1
8891 1978 1
8891 9129 1
8892 25 1
8892 2942 1
8892 3147 1
8892 5307 1
8893 19 1
8893 478 1
8893 3791 1
8893 6901 1
8894 154 1
8894 844 1
8894 1418 1
8894 5684 1
8895 38 1
8895 49 1
8895 5019 1
8895 5695 1
8896 10 1
8896 92 1
8896 2133 1
8896 3123 1
8897 10 1
8897 54 1
8897 1036 1
8897 6977 1
8898 102 1
8898 199 1
8898 1532 1
8898 5588 1
8899 2585 1
8899 3168 1
8899 6017 1
8899 6508 1
8899 9319 1
8900 2 1
8900 10 1
8900 2193 1
8900 7004 1
8901 73 1
8901 154 1
8901 3098 1
8901 3232 1
8902 53 1
8902 251 1
8902 1249 1
8902 8762 1
8902 9709 1
8903 26 1
8903 7188 1
8903 7625 1
8903 8881 1
8904 11 1
8904 1881 1
8904 4697 1
8904 6022 1
8904 9204 1
8905 932 1
8905 3683 1
8905 4533 1
8905 7529 1
8906 700 1
8906 5197 1
8906 5370 1
8906 6170 1
8907 882 1
8907 1734 1
8907 1874 1
8907 4726 1
8908 123 1
8908 1106 1
8908 5810 1
8908 8652 1
8909 778 1
8909 1052 1
8909 1555 1
8909 6530 1
8910 25 1
8910 261 1
8910 1684 1
8910 4834 1
8911 41 1
8911 133 1
8911 618 1
8911 5082 1
8911 9397 1
8911 9421 1
8911 9919 1
8912 915 1
8912 2809 1
8912 5119 1
8912 5429 1
8913 468 1
8913 3099 1
8913 3110 1
8913 5300 1
8914 25 1
8914 547 1
8914 1426 1
8914 3304 1
8915 49 1
8915 2374 1
8915 2460 1
8915 6789 1
8916 33 1
8916 103 1
8916 869 1
8916 6505 1
8917 25 1
8917 73 1
8917 3093 1
8917 7585 1
8918 197 1
8918 282 1
8918 8050 1
8918 8442 1
8918 9588 1
8919 11 1
8919 1291 1
8919 3293 1
8919 4323 1
8920 1520 1
8920 2963 1
8920 5513 1
8920 5694 1
8921 435 1
8921 1150 1
8921 2506 1
8921 4202 1
8921 9523 1
8922 3241 1
8922 3417 1
8922 7362 1
8922 7733 1
8922 9722 1
8923 630 1
8923 1087 1
8923 1953 1
8923 4637 1
8924 139 1
8924 194 1
8924 4533 1
8924 8465 1
8925 1935 1
8925 4180 1
8925 6643 1
8925 6719 1
8926 564 1
8926 5370 1
8926 6699 1
8926 8833 1
8926 9462 1
8927 186 1
8927 328 1
8927 1557 1
8927 7293 1
8928 695 1
8928 1406 1
8928 1833 1
8928 5954 1
8929 27 1
8929 505 1
8929 1293 1
8929 1986 1
8929 9098 1
8930 25 1
8930 1187 1
8930 2194 1
8930 4557 1
8931 644 1
8931 1255 1
8931 1737 1
8931 6791 1
8932 942 1
8932 3185 1
8932 3201 1
8932 4491 1
8933 772 1
8933 3965 1
8933 4740 1
8933 5860 1
8934 18 1
8934 995 1
8934 2690 1
8934 7264 1
8935 203 1
8935 243 1
8935 806 1
8935 2453 1
8936 1312 1
8936 4452 1
8936 6246 1
8936 8337 1
8937 74 1
8937 196 1
8937 1964 1
8937 4611 1
8938 10 1
8938 1833 1
8938 5401 1
8938 5879 1
8939 1370 1
8939 3877 1
8939 6428 1
8939 6608 1
8940 457 1
8940 1801 1
8940 5667 1
8940 6380 1
8941 172 1
8941 2381 1
8941 6527 1
8941 8166 1
8942 419 1
8942 491 1
8942 1717 1
8942 7422 1
8942 9092 1
8942 9516 1
8943 405 1
8943 4181 1
8943 5094 1
8943 8497 1
8944 17 1
8944 1202 1
8944 1250 1
8944 4196 1
8945 9 1
8945 1610 1
8945 2099 1
8945 5652 1
8946 167 1
8946 2898 1
8946 2971 1
8946 8332 1
8947 192 1
8947 265 1
8947 888 1
8947 4464 1
8947 8982 1
8947 9036 1
8948 99 1
8948 1827 1
8948 3490 1
8948 8428 1
8948 9715 1
8949 236 1
8949 1045 1
8949 3882 1
8949 6009 1
8950 169 1
8950 347 1
8950 678 1
8950 7217 1
8951 1806 1
8951 2784 1
8951 4110 1
8951 4475 1
8952 1090 1
8952 1158 1
8952 2330 1
8952 4517 1
8953 500 1
8953 524 1
8953 1097 1
8953 2092 1
8953 9430 1
8954 5080 1
8954 5140 1
8954 5232 1
8954 8605 1
8955 4 1
8955 1113 1
8955 1467 1
8955 5184 1
8956 329 1
8956 369 1
8956 1597 1
8956 4752 1
8957 987 1
8957 1585 1
8957 5152 1
8957 6707 1
8958 29 1
8958 299 1
8958 381 1
8958 1331 1
8959 146 1
8959 601 1
8959 3082 1
8959 8563 1
8960 330 1
8960 539 1
8960 2732 1
8960 3610 1
8961 18 1
8961 931 1
8961 7073 1
8961 7227 1
8962 108 1
8962 676 1
8962 2378 1
8962 4651 1
8963 18 1
8963 214 1
8963 418 1
8963 3594 1
8964 1061 1
8964 1830 1
8964 3101 1
8964 3777 1
8965 1334 1
8965 4800 1
8965 4840 1
8965 7781 1
8965 9476 1
8966 18 1
8966 163 1
8966 510 1
8966 5844 1
8967 301 1
8967 994 1
8967 4053 1
8967 6940 1
8968 26 1
8968 147 1
8968 2406 1
8968 5055 1
8969 25 1
8969 1897 1
8969 2185 1
8969 4791 1
8970 33 1
8970 461 1
8970 924 1
8970 6446 1
8971 1810 1
8971 4197 1
8971 6514 1
8971 8834 1
8972 273 1
8972 421 1
8972 1124 1
8972 4543 1
8972 9975 1
8973 76 1
8973 1587 1
8973 1854 1
8973 8534 1
8974 228 1
8974 287 1
8974 4957 1
8974 8024 1
8975 168 1
8975 333 1
8975 569 1
8975 6970 1
8975 9963 1
8976 27 1
8976 254 1
8976 1532 1
8976 4004 1
8976 9551 1
8977 2082 1
8977 2894 1
8977 3036 1
8977 6313 1
8978 373 1
8978 1137 1
8978 5563 1
8978 8204 1
8979 1319 1
8979 1609 1
8979 2147 1
8979 6024 1
8979 9169 1
8980 277 1
8980 507 1
8980 1487 1
8980 3357 1
8981 9 1
8981 1914 1
8981 1931 1
8981 8510 1
8982 59 1
8982 192 1
8982 265 1
8982 8947 1
8982 9036 1
8983 73 1
8983 123 1
8983 6172 1
8983 6341 1
8984 59 1
8984 823 1
8984 6718 1
8984 7114 1
8984 9179 1
8985 915 1
8985 1531 1
8985 2726 1
8985 8658 1
8986 4223 1
8986 4252 1
8986 4819 1
8986 6898 1
8987 305 1
8987 1571 1
8987 3437 1
8987 4391 1
8988 116 1
8988 344 1
8988 535 1
8988 1026 1
8989 90 1
8989 5219 1
8989 7277 1
8989 8643 1
8989 9013 1
8990 11 1
8990 1036 1
8990 2437 1
8990 5636 1
8991 4 1
8991 2305 1
8991 5146 1
8991 7473 1
8992 4 1
8992 238 1
8992 326 1
8992 2506 1
8993 100 1
8993 1313 1
8993 3107 1
8993 4513 1
8993 9376 1
8994 17 1
8994 1657 1
8994 1850 1
8994 3858 1
8995 107 1
8995 201 1
8995 467 1
8995 3921 1
8996 2026 1
8996 2138 1
8996 2170 1
8996 8276 1
8997 2830 1
8997 3660 1
8997 3681 1
8997 4271 1
8997 9026 1
8998 57 1
8998 167 1
8998 5876 1
8998 8868 1
8999 219 1
8999 1473 1
8999 6214 1
8999 8138 1
9000 2358 1
9000 3277 1
9000 3536 1
9000 4743 1
9001 6 1
9001 43 1
9001 314 1
9001 4920 1
9002 1590 1
9002 2443 1
9002 3556 1
9002 5123 1
9003 92 1
9003 138 1
9003 1263 1
9003 2490 1
9004 2 1
9004 14 1
9004 1625 1
9004 8311 1
9004 9066 1
9005 9 1
9005 4117 1
9005 4257 1
9005 6496 1
9005 9672 1
9006 499 1
9006 2850 1
9006 5918 1
9006 6148 1
9007 1425 1
9007 1795 1
9007 2570 1
9007 8511 1
9008 4 1
9008 3382 1
9008 4425 1
9008 5622 1
9008 9506 1
9009 1619 1
9009 3009 1
9009 3049 1
9009 5919 1
9010 217 1
9010 235 1
9010 2395 1
9010 4035 1
9011 819 1
9011 979 1
9011 1355 1
9011 4167 1
9011 9084 1
9012 17 1
9012 879 1
9012 1032 1
9012 7539 1
9013 57 1
9013 139 1
9013 521 1
9013 8989 1
9014 1476 1
9014 3160 1
9014 5673 1
9014 7291 1
9015 402 1
9015 768 1
9015 1114 1
9015 2163 1
9016 40 1
9016 1546 1
9016 3923 1
9016 4981 1
9017 101 1
9017 165 1
9017 311 1
9017 533 1
9017 9620 1
9018 1862 1
9018 3993 1
9018 4571 1
9018 7033 1
9019 43 1
9019 249 1
9019 1114 1
9019 6351 1
9019 9170 1
9020 41 1
9020 89 1
9020 2397 1
9020 8541 1
9021 184 1
9021 2756 1
9021 4547 1
9021 8310 1
9022 1117 1
9022 2705 1
9022 3188 1
9022 7364 1
9023 93 1
9023 231 1
9023 1226 1
9023 4549 1
9024 187 1
9024 2333 1
9024 7385 1
9024 8110 1
9025 462 1
9025 1240 1
9025 1411 1
9025 8754 1
9026 4 1
9026 915 1
9026 2830 1
9026 8997 1
9027 166 1
9027 1259 1
9027 5709 1
9027 6045 1
9028 273 1
9028 1990 1
9028 6609 1
9028 7207 1
9029 98 1
9029 322 1
9029 736 1
9029 7535 1
9030 77 1
9030 1225 1
9030 2298 1
9030 8558 1
9031 5 1
9031 959 1
9031 4299 1
9031 4621 1
9032 235 1
9032 915 1
9032 5777 1
9032 6989 1
9033 852 1
9033 2857 1
9033 4149 1
9033 5866 1
9034 10 1
9034 661 1
9034 1173 1
9034 2613 1
9035 30 1
9035 154 1
9035 2694 1
9035 7113 1
9036 10 1
9036 1306 1
9036 8947 1
9036 8982 1
9037 1 1
9037 97 1
9037 1338 1
9037 2958 1
9038 18 1
9038 2578 1
9038 6905 1
9038 6945 1
9038 9264 1
9039 80 1
9039 1177 1
9039 3288 1
9039 4591 1
9040 601 1
9040 2153 1
9040 2267 1
9040 4531 1
9041 41 1
9041 110 1
9041 1266 1
9041 7985 1
9042 1 1
9042 18 1
9042 447 1
9042 3172 1
9043 517 1
9043 3908 1
9043 6447 1
9043 6901 1
9044 18 1
9044 259 1
9044 806 1
9044 4778 1
9045 281 1
9045 1777 1
9045 4046 1
9045 7281 1
9046 208 1
9046 782 1
9046 3577 1
9046 6141 1
9047 3810 1
9047 3889 1
9047 6793 1
9047 8842 1
9048 10 1
9048 746 1
9048 866 1
9048 8079 1
9049 11 1
9049 2556 1
9049 3348 1
9049 5384 1
9050 465 1
9050 1291 1
9050 1865 1
9050 7719 1
9050 9405 1
9050 9951 1
9051 289 1
9051 1147 1
9051 3465 1
9051 5717 1
9052 13 1
9052 2873 1
9052 4131 1
9052 4330 1
9052 9720 1
9053 801 1
9053 2061 1
9053 2471 1
9053 7219 1
9054 230 1
9054 4765 1
9054 5169 1
9054 5298 1
9055 14 1
9055 254 1
9055 329 1
9055 906 1
9056 4 1
9056 2293 1
9056 4850 1
9056 4960 1
9057 4852 1
9057 6015 1
9057 6044 1
9057 6580 1
9058 307 1
9058 356 1
9058 4555 1
9058 8112 1
9059 36 1
9059 100 1
9059 227 1
9059 6047 1
9060 298 1
9060 4882 1
9060 5201 1
9060 7955 1
9061 106 1
9061 323 1
9061 739 1
9061 5313 1
9062 3 1
9062 2056 1
9062 3046 1
9062 3647 1
9063 5 1
9063 2644 1
9063 4451 1
9063 6886 1
9063 9505 1
9064 25 1
9064 1268 1
9064 2024 1
9064 2133 1
9065 99 1
9065 1540 1
9065 4416 1
9065 5665 1
9065 9556 1
9066 661 1
9066 1625 1
9066 6429 1
9066 9004 1
9067 1853 1
9067 3067 1
9067 3145 1
9067 5116 1
9068 1054 1
9068 2235 1
9068 3265 1
9068 5949 1
9069 452 1
9069 2356 1
9069 4082 1
9069 8854 1
9070 42 1
9070 142 1
9070 337 1
9070 7930 1
9071 27 1
9071 370 1
9071 703 1
9071 8151 1
9072 121 1
9072 6049 1
9072 8561 1
9072 8821 1
9073 426 1
9073 4653 1
9073 5195 1
9073 6032 1
9074 44 1
9074 620 1
9074 6347 1
9074 7229 1
9075 2315 1
9075 3097 1
9075 6289 1
9075 7319 1
9076 265 1
9076 1679 1
9076 2717 1
9076 7655 1
9077 10 1
9077 100 1
9077 438 1
9077 1753 1
9078 178 1
9078 2487 1
9078 3147 1
9078 5599 1
9079 211 1
9079 237 1
9079 3077 1
9079 7303 1
9080 1684 1
9080 2660 1
9080 4306 1
9080 5239 1
9080 9312 1
9081 417 1
9081 2851 1
9081 3101 1
9081 7829 1
9082 1322 1
9082 3045 1
9082 3265 1
9082 8428 1
9083 1274 1
9083 2606 1
9083 5428 1
9083 6515 1
9084 441 1
9084 979 1
9084 4192 1
9084 9011 1
9085 25 1
9085 473 1
9085 1484 1
9085 7977 1
9086 33 1
9086 2976 1
9086 5119 1
9086 7883 1
9087 4 1
9087 25 1
9087 4506 1
9087 9528 1
9088 185 1
9088 1026 1
9088 2185 1
9088 5402 1
9089 204 1
9089 3194 1
9089 4362 1
9089 6492 1
9090 2315 1
9090 2734 1
9090 3097 1
9090 3293 1
9091 372 1
9091 399 1
9091 2705 1
9091 7790 1
9092 419 1
9092 1574 1
9092 5555 1
9092 8942 1
9093 9 1
9093 2736 1
9093 8230 1
9093 8386 1
9094 44 1
9094 332 1
9094 1158 1
9094 2686 1
9095 220 1
9095 6609 1
9095 6684 1
9095 7746 1
9096 4 1
9096 3518 1
9096 5196 1
9096 7647 1
9097 252 1
9097 790 1
9097 2176 1
9097 5413 1
9098 1545 1
9098 1986 1
9098 6092 1
9098 8929 1
9099 943 1
9099 1177 1
9099 2154 1
9099 8059 1
9099 9650 1
9100 170 1
9100 6412 1
9100 8357 1
9100 8597 1
9100 9922 1
9101 36 1
9101 225 1
9101 4272 1
9101 8187 1
9102 179 1
9102 2693 1
9102 4281 1
9102 6069 1
9103 66 1
9103 670 1
9103 6303 1
9103 7745 1
9103 9512 1
9103 10000 1
9104 134 1
9104 700 1
9104 1729 1
9104 6797 1
9105 674 1
9105 913 1
9105 2282 1
9105 3155 1
9106 188 1
9106 882 1
9106 2614 1
9106 8219 1
9107 291 1
9107 1320 1
9107 2599 1
9107 6643 1
9107 9285 1
9108 36 1
9108 532 1
9108 2807 1
9108 5353 1
9109 1138 1
9109 2956 1
9109 5003 1
9109 8805 1
9109 9451 1
9110 356 1
9110 818 1
9110 2887 1
9110 3644 1
9111 33 1
9111 220 1
9111 2073 1
9111 7083 1
9112 1 1
9112 285 1
9112 1741 1
9112 2388 1
9113 716 1
9113 2006 1
9113 3110 1
9113 5050 1
9114 766 1
9114 1908 1
9114 2634 1
9114 4884 1
9114 9209 1
9115 4524 1
9115 6211 1
9115 6269 1
9115 6926 1
9116 1844 1
9116 1986 1
9116 4058 1
9116 8869 1
9117 1089 1
9117 1996 1
9117 3329 1
9117 6490 1
9118 1057 1
9118 1156 1
9118 4072 1
9118 5484 1
9119 2530 1
9119 3103 1
9119 3933 1
9119 5080 1
9120 475 1
9120 1382 1
9120 2233 1
9120 8097 1
9121 81 1
9121 2266 1
9121 8059 1
9121 8093 1
9122 3220 1
9122 4626 1
9122 6982 1
9122 7563 1
9123 43 1
9123 1411 1
9123 1738 1
9123 7053 1
9124 12 1
9124 49 1
9124 672 1
9124 8532 1
9125 162 1
9125 322 1
9125 4563 1
9125 5155 1
9125 9130 1
9126 4 1
9126 132 1
9126 2514 1
9126 7534 1
9127 50 1
9127 2593 1
9127 4497 1
9127 4512 1
9128 65 1
9128 85 1
9128 370 1
9128 4994 1
9129 7342 1
9129 7561 1
9129 7846 1
9129 8891 1
9130 162 1
9130 298 1
9130 1915 1
9130 9125 1
9131 2 1
9131 2581 1
9131 6922 1
9131 7275 1
9132 805 1
9132 5372 1
9132 6362 1
9132 7838 1
9133 1448 1
9133 3730 1
9133 7673 1
9133 8291 1
9134 2600 1
9134 3521 1
9134 5050 1
9134 5090 1
9134 9390 1
9135 171 1
9135 194 1
9135 1998 1
9135 8842 1
9135 9495 1
9136 49 1
9136 273 1
9136 872 1
9136 2738 1
9137 60 1
9137 410 1
9137 5664 1
9137 8227 1
9138 66 1
9138 133 1
9138 3363 1
9138 6009 1
9139 1555 1
9139 1612 1
9139 3910 1
9139 4922 1
9140 182 1
9140 1556 1
9140 4058 1
9140 6704 1
9141 978 1
9141 2326 1
9141 3376 1
9141 5872 1
9142 42 1
9142 101 1
9142 753 1
9142 6419 1
9143 3208 1
9143 3625 1
9143 3683 1
9143 6469 1
9144 992 1
9144 2660 1
9144 2786 1
9144 8116 1
9145 42 1
9145 751 1
9145 1221 1
9145 8697 1
9146 73 1
9146 2034 1
9146 2723 1
9146 3397 1
9147 1291 1
9147 2394 1
9147 2501 1
9147 3068 1
9148 119 1
9148 1515 1
9148 2756 1
9148 7911 1
9149 54 1
9149 435 1
9149 3020 1
9149 8328 1
9150 1541 1
9150 2150 1
9150 4385 1
9150 8439 1
9151 3006 1
9151 3293 1
9151 4323 1
9151 5514 1
9152 1417 1
9152 3243 1
9152 6281 1
9152 7395 1
9152 9924 1
9153 1041 1
9153 4714 1
9153 6877 1
9153 8287 1
9154 601 1
9154 2739 1
9154 4201 1
9154 4867 1
9155 394 1
9155 1275 1
9155 2351 1
9155 4658 1
9156 89 1
9156 257 1
9156 4217 1
9156 8577 1
9156 9712 1
9157 132 1
9157 629 1
9157 1946 1
9157 3018 1
9158 838 1
9158 4066 1
9158 4665 1
9158 4970 1
9159 11 1
9159 57 1
9159 1923 1
9159 7995 1
9160 155 1
9160 1529 1
9160 5993 1
9160 7521 1
9161 2 1
9161 85 1
9161 2093 1
9161 5618 1
9162 131 1
9162 2792 1
9162 3331 1
9162 8015 1
9162 9325 1
9163 356 1
9163 778 1
9163 3502 1
9163 7471 1
9164 25 1
9164 745 1
9164 4027 1
9164 4404 1
9165 210 1
9165 2169 1
9165 3733 1
9165 7500 1
9166 1041 1
9166 2051 1
9166 2493 1
9166 3088 1
9167 550 1
9167 1755 1
9167 4957 1
9167 8429 1
9168 225 1
9168 766 1
9168 937 1
9168 5626 1
9169 219 1
9169 3674 1
9169 4834 1
9169 8979 1
9169 9965 1
9170 1114 1
9170 3769 1
9170 4188 1
9170 9019 1
9171 11 1
9171 3320 1
9171 5723 1
9171 8267 1
9172 11 1
9172 1085 1
9172 1355 1
9172 3402 1
9173 180 1
9173 267 1
9173 1299 1
9173 8694 1
9174 2453 1
9174 2894 1
9174 4131 1
9174 6777 1
9174 9261 1
9175 2030 1
9175 2186 1
9175 4330 1
9175 5654 1
9176 259 1
9176 367 1
9176 5185 1
9176 5255 1
9177 853 1
9177 2186 1
9177 4157 1
9177 7401 1
9178 73 1
9178 448 1
9178 1546 1
9178 1833 1
9179 777 1
9179 2837 1
9179 7243 1
9179 8984 1
9180 317 1
9180 945 1
9180 3339 1
9180 7962 1
9181 757 1
9181 4620 1
9181 4865 1
9181 5718 1
9181 9886 1
9182 3402 1
9182 6736 1
9182 8369 1
9182 8871 1
9183 4 1
9183 2867 1
9183 2937 1
9183 6220 1
9183 9336 1
9184 485 1
9184 865 1
9184 3196 1
9184 3742 1
9185 3177 1
9185 3417 1
9185 5610 1
9185 8705 1
9186 2 1
9186 917 1
9186 2435 1
9186 2981 1
9187 17 1
9187 57 1
9187 1404 1
9187 2529 1
9188 185 1
9188 652 1
9188 757 1
9188 5200 1
9189 41 1
9189 141 1
9189 898 1
9189 1261 1
9190 61 1
9190 2380 1
9190 4347 1
9190 5546 1
9191 690 1
9191 2569 1
9191 2967 1
9191 3831 1
9192 15 1
9192 789 1
9192 2084 1
9192 2395 1
9192 9321 1
9193 133 1
9193 2516 1
9193 2835 1
9193 6839 1
9194 2221 1
9194 2811 1
9194 5190 1
9194 6871 1
9195 92 1
9195 1762 1
9195 3769 1
9195 4402 1
9196 185 1
9196 972 1
9196 1986 1
9196 2424 1
9197 522 1
9197 564 1
9197 1578 1
9197 6791 1
9198 378 1
9198 2241 1
9198 3620 1
9198 6922 1
9199 19 1
9199 589 1
9199 895 1
9199 1262 1
9200 335 1
9200 1356 1
9200 2529 1
9200 3254 1
9200 9705 1
9201 146 1
9201 1393 1
9201 1445 1
9201 4465 1
9202 418 1
9202 814 1
9202 2524 1
9202 5003 1
9203 89 1
9203 589 1
9203 2979 1
9203 8060 1
9204 63 1
9204 3019 1
9204 4697 1
9204 8904 1
9205 514 1
9205 1419 1
9205 6503 1
9205 7552 1
9206 3 1
9206 73 1
9206 600 1
9206 7828 1
9207 300 1
9207 661 1
9207 7362 1
9207 8265 1
9208 130 1
9208 245 1
9208 285 1
9208 4763 1
9209 1399 1
9209 4536 1
9209 8514 1
9209 9114 1
9209 9920 1
9210 1465 1
9210 6282 1
9210 7751 1
9210 8344 1
9211 1783 1
9211 1854 1
9211 4091 1
9211 4417 1
9212 147 1
9212 2011 1
9212 2875 1
9212 3308 1
9213 17 1
9213 203 1
9213 1998 1
9213 3393 1
9214 290 1
9214 361 1
9214 1643 1
9214 2596 1
9215 2615 1
9215 4307 1
9215 4856 1
9215 6020 1
9216 564 1
9216 1055 1
9216 1195 1
9216 3698 1
9217 25 1
9217 3394 1
9217 7734 1
9217 8743 1
9217 9585 1
9218 302 1
9218 945 1
9218 3020 1
9218 3601 1
9219 786 1
9219 4019 1
9219 7411 1
9219 8414 1
9220 40 1
9220 1125 1
9220 3487 1
9220 7754 1
9221 19 1
9221 697 1
9221 5029 1
9221 8643 1
9222 10 1
9222 2649 1
9222 4395 1
9222 6978 1
9223 9 1
9223 137 1
9223 610 1
9223 6426 1
9223 9314 1
9224 596 1
9224 1466 1
9224 3662 1
9224 5614 1
9225 800 1
9225 3490 1
9225 3736 1
9225 7161 1
9225 9431 1
9226 11 1
9226 3802 1
9226 6858 1
9226 7950 1
9227 66 1
9227 243 1
9227 2349 1
9227 4593 1
9228 1451 1
9228 1652 1
9228 4606 1
9228 5153 1
9228 9483 1
9229 91 1
9229 934 1
9229 3052 1
9229 4196 1
9230 257 1
9230 621 1
9230 1632 1
9230 2334 1
9231 2490 1
9231 5100 1
9231 7037 1
9231 8840 1
9232 1 1
9232 1476 1
9232 5130 1
9232 7103 1
9232 9606 1
9232 9941 1
9233 1687 1
9233 2255 1
9233 6201 1
9233 6921 1
9234 370 1
9234 1529 1
9234 1887 1
9234 2083 1
9234 9450 1
9235 161 1
9235 1572 1
9235 2929 1
9235 8027 1
9236 11 1
9236 251 1
9236 445 1
9236 4108 1
9237 11 1
9237 2690 1
9237 7264 1
9237 7914 1
9238 697 1
9238 1288 1
9238 3594 1
9238 4560 1
9238 9493 1
9239 219 1
9239 1156 1
9239 5484 1
9239 7185 1
9240 2878 1
9240 4161 1
9240 4573 1
9240 5679 1
9240 9727 1
9241 2066 1
9241 2605 1
9241 2792 1
9241 3378 1
9242 106 1
9242 1229 1
9242 1292 1
9242 3686 1
9243 1242 1
9243 2169 1
9243 5076 1
9243 5197 1
9244 1542 1
9244 4697 1
9244 5141 1
9244 8622 1
9245 293 1
9245 934 1
9245 2545 1
9245 4721 1
9246 4452 1
9246 5855 1
9246 6300 1
9246 6387 1
9247 177 1
9247 796 1
9247 2083 1
9247 8029 1
9248 4 1
9248 259 1
9248 5427 1
9248 8445 1
9249 258 1
9249 690 1
9249 6626 1
9249 6669 1
9250 57 1
9250 341 1
9250 4756 1
9250 7013 1
9250 9486 1
9251 9 1
9251 1370 1
9251 1905 1
9251 5983 1
9251 9593 1
9252 1 1
9252 3812 1
9252 6139 1
9252 6843 1
9252 9905 1
9253 194 1
9253 6426 1
9253 7548 1
9253 7800 1
9254 1595 1
9254 2145 1
9254 3348 1
9254 6107 1
9255 589 1
9255 1009 1
9255 4774 1
9255 6531 1
9255 9885 1
9256 99 1
9256 4564 1
9256 4747 1
9256 5941 1
9257 444 1
9257 594 1
9257 2118 1
9257 4305 1
9258 290 1
9258 2522 1
9258 4321 1
9258 8508 1
9259 555 1
9259 1945 1
9259 2475 1
9259 7549 1
9260 19 1
9260 203 1
9260 858 1
9260 1365 1
9261 329 1
9261 621 1
9261 627 1
9261 9174 1
9262 18 1
9262 338 1
9262 451 1
9262 969 1
9262 9966 1
9263 594 1
9263 714 1
9263 5987 1
9263 6254 1
9264 2065 1
9264 3610 1
9264 6905 1
9264 9038 1
9265 167 1
9265 1365 1
9265 1510 1
9265 8134 1
9266 323 1
9266 2683 1
9266 3786 1
9266 4385 1
9267 834 1
9267 2681 1
9267 4733 1
9267 8359 1
9268 11 1
9268 1369 1
9268 1588 1
9268 3172 1
9269 442 1
9269 4617 1
9269 7140 1
9269 7770 1
9269 9827 1
9270 91 1
9270 991 1
9270 2403 1
9270 6377 1
9270 9413 1
9270 9616 1
9271 117 1
9271 2632 1
9271 2939 1
9271 6380 1
9272 752 1
9272 6561 1
9272 8449 1
9272 8458 1
9273 38 1
9273 2315 1
9273 2800 1
9273 4971 1
9274 9 1
9274 713 1
9274 4293 1
9274 5815 1
9275 2168 1
9275 3990 1
9275 6233 1
9275 8129 1
9276 27 1
9276 33 1
9276 3035 1
9276 6258 1
9276 9872 1
9277 10 1
9277 30 1
9277 866 1
9277 8609 1
9278 170 1
9278 4436 1
9278 4908 1
9278 6305 1
9279 4 1
9279 2724 1
9279 3805 1
9279 5336 1
9280 327 1
9280 6214 1
9280 7091 1
9280 8461 1
9281 257 1
9281 655 1
9281 833 1
9281 6363 1
9282 545 1
9282 1006 1
9282 1381 1
9282 2976 1
9283 1544 1
9283 2059 1
9283 3350 1
9283 3546 1
9284 82 1
9284 3409 1
9284 5271 1
9284 5803 1
9285 1320 1
9285 2599 1
9285 5898 1
9285 9107 1
9286 66 1
9286 1103 1
9286 1986 1
9286 2391 1
9287 789 1
9287 1853 1
9287 2084 1
9287 3705 1
9287 9911 1
9288 2378 1
9288 6669 1
9288 6876 1
9288 6964 1
9289 819 1
9289 965 1
9289 1218 1
9289 8513 1
9290 90 1
9290 227 1
9290 1189 1
9290 4816 1
9291 196 1
9291 467 1
9291 530 1
9291 547 1
9292 49 1
9292 226 1
9292 467 1
9292 707 1
9293 403 1
9293 1052 1
9293 2602 1
9293 4324 1
9294 847 1
9294 2991 1
9294 6330 1
9294 8704 1
9295 185 1
9295 1500 1
9295 3041 1
9295 5189 1
9296 129 1
9296 186 1
9296 633 1
9296 4401 1
9297 1570 1
9297 5685 1
9297 6173 1
9297 7349 1
9298 746 1
9298 1007 1
9298 2701 1
9298 7867 1
9298 9609 1
9299 2086 1
9299 2738 1
9299 7901 1
9299 8314 1
9300 497 1
9300 1383 1
9300 3482 1
9300 8462 1
9301 49 1
9301 434 1
9301 4169 1
9301 6440 1
9302 260 1
9302 602 1
9302 4889 1
9302 7351 1
9303 1 1
9303 163 1
9303 265 1
9303 4533 1
9304 469 1
9304 2435 1
9304 5519 1
9304 7027 1
9305 1916 1
9305 3771 1
9305 4922 1
9305 7886 1
9306 81 1
9306 4154 1
9306 5272 1
9306 8168 1
9307 11 1
9307 193 1
9307 1350 1
9307 3343 1
9308 1414 1
9308 2091 1
9308 5436 1
9308 6932 1
9309 12 1
9309 1417 1
9309 6130 1
9309 7165 1
9309 9650 1
9310 1369 1
9310 1895 1
9310 2947 1
9310 7399 1
9311 1 1
9311 399 1
9311 3066 1
9311 6099 1
9312 904 1
9312 1424 1
9312 2024 1
9312 9080 1
9313 3213 1
9313 4330 1
9313 5718 1
9313 6114 1
9314 610 1
9314 2501 1
9314 6380 1
9314 9223 1
9315 583 1
9315 1550 1
9315 1981 1
9315 2102 1
9316 38 1
9316 98 1
9316 160 1
9316 212 1
9317 515 1
9317 3803 1
9317 5579 1
9317 6948 1
9317 9463 1
9318 144 1
9318 3130 1
9318 3235 1
9318 5200 1
9319 4298 1
9319 6508 1
9319 7014 1
9319 8899 1
9320 1865 1
9320 6195 1
9320 7143 1
9320 7745 1
9321 163 1
9321 2395 1
9321 7006 1
9321 9192 1
9322 18 1
9322 120 1
9322 645 1
9322 7475 1
9323 874 1
9323 3833 1
9323 3913 1
9323 4813 1
9324 4 1
9324 172 1
9324 1681 1
9324 3174 1
9325 939 1
9325 1029 1
9325 2016 1
9325 9162 1
9326 53 1
9326 1140 1
9326 2077 1
9326 2526 1
9327 1089 1
9327 2645 1
9327 3559 1
9327 7198 1
9328 265 1
9328 826 1
9328 3883 1
9328 8172 1
9329 192 1
9329 2232 1
9329 7337 1
9329 8618 1
9330 187 1
9330 628 1
9330 1547 1
9330 7675 1
9331 33 1
9331 3286 1
9331 3417 1
9331 5488 1
9332 772 1
9332 2002 1
9332 2277 1
9332 6051 1
9333 11 1
9333 2391 1
9333 2716 1
9333 3819 1
9334 163 1
9334 411 1
9334 2323 1
9334 6799 1
9335 10 1
9335 1325 1
9335 1692 1
9335 7100 1
9336 2795 1
9336 2937 1
9336 3783 1
9336 9183 1
9337 25 1
9337 394 1
9337 1305 1
9337 3005 1
9338 708 1
9338 847 1
9338 3377 1
9338 5370 1
9338 9913 1
9339 871 1
9339 1197 1
9339 4427 1
9339 7370 1
9340 310 1
9340 1145 1
9340 6074 1
9340 6501 1
9341 22 1
9341 27 1
9341 2322 1
9341 7531 1
9342 3433 1
9342 4215 1
9342 4306 1
9342 6891 1
9343 1513 1
9343 2202 1
9343 4674 1
9343 6657 1
9344 10 1
9344 19 1
9344 3340 1
9344 3353 1
9345 162 1
9345 1703 1
9345 2113 1
9345 8790 1
9345 9558 1
9346 2138 1
9346 2716 1
9346 5383 1
9346 5811 1
9347 146 1
9347 1163 1
9347 3097 1
9347 4196 1
9348 5 1
9348 2019 1
9348 4094 1
9348 5722 1
9349 54 1
9349 616 1
9349 5431 1
9349 7242 1
9350 400 1
9350 629 1
9350 660 1
9350 3172 1
9351 3153 1
9351 5697 1
9351 6081 1
9351 8831 1
9352 33 1
9352 348 1
9352 1389 1
9352 5605 1
9353 296 1
9353 780 1
9353 5604 1
9353 8725 1
9353 9458 1
9354 2739 1
9354 4105 1
9354 6219 1
9354 6333 1
9355 267 1
9355 3714 1
9355 4705 1
9355 6116 1
9356 18 1
9356 89 1
9356 113 1
9356 6252 1
9357 5 1
9357 1358 1
9357 2590 1
9357 3286 1
9358 3113 1
9358 3210 1
9358 3252 1
9358 3331 1
9359 4715 1
9359 5277 1
9359 7040 1
9359 7467 1
9360 22 1
9360 634 1
9360 3784 1
9360 7445 1
9361 33 1
9361 700 1
9361 1347 1
9361 3556 1
9361 9754 1
9362 465 1
9362 490 1
9362 918 1
9362 4739 1
9362 9813 1
9363 25 1
9363 809 1
9363 2149 1
9363 5232 1
9364 1475 1
9364 5714 1
9364 7137 1
9364 7817 1
9365 2459 1
9365 2613 1
9365 8275 1
9365 8630 1
9366 1029 1
9366 2166 1
9366 3180 1
9366 3766 1
9367 5 1
9367 287 1
9367 6881 1
9367 8711 1
9368 772 1
9368 1623 1
9368 3103 1
9368 7252 1
9369 2930 1
9369 2975 1
9369 3866 1
9369 4555 1
9369 9529 1
9370 92 1
9370 497 1
9370 2169 1
9370 6850 1
9371 411 1
9371 2068 1
9371 2531 1
9371 3944 1
9372 130 1
9372 2922 1
9372 3950 1
9372 6169 1
9373 329 1
9373 3124 1
9373 3243 1
9373 5212 1
9374 43 1
9374 2314 1
9374 4266 1
9374 7043 1
9375 289 1
9375 303 1
9375 361 1
9375 889 1
9376 699 1
9376 1907 1
9376 5524 1
9376 8993 1
9377 2915 1
9377 4354 1
9377 4449 1
9377 6206 1
9378 2521 1
9378 3297 1
9378 4387 1
9378 4579 1
9379 259 1
9379 510 1
9379 5863 1
9379 6500 1
9380 681 1
9380 961 1
9380 1378 1
9380 3602 1
9381 26 1
9381 767 1
9381 2571 1
9381 7245 1
9382 1107 1
9382 2370 1
9382 3458 1
9382 4995 1
9383 393 1
9383 2677 1
9383 5829 1
9383 8870 1
9384 505 1
9384 3548 1
9384 5109 1
9384 6315 1
9385 24 1
9385 935 1
9385 1201 1
9385 3900 1
9386 2427 1
9386 2795 1
9386 4192 1
9386 4803 1
9387 4 1
9387 1563 1
9387 1610 1
9387 8518 1
9388 227 1
9388 627 1
9388 3928 1
9388 5985 1
9389 569 1
9389 1018 1
9389 1126 1
9389 2069 1
9389 9963 1
9390 89 1
9390 5090 1
9390 6756 1
9390 9134 1
9391 216 1
9391 714 1
9391 955 1
9391 8534 1
9392 1985 1
9392 4530 1
9392 4700 1
9392 6282 1
9393 11 1
9393 927 1
9393 1526 1
9393 5289 1
9394 98 1
9394 716 1
9394 6333 1
9394 7970 1
9395 20 1
9395 940 1
9395 3402 1
9395 6537 1
9396 1119 1
9396 1344 1
9396 2161 1
9396 3944 1
9397 5 1
9397 508 1
9397 1937 1
9397 8911 1
9398 41 1
9398 159 1
9398 1754 1
9398 3552 1
9399 14 1
9399 28 1
9399 7073 1
9399 7496 1
9399 9858 1
9400 89 1
9400 494 1
9400 2177 1
9400 7216 1
9401 11 1
9401 650 1
9401 3924 1
9401 7332 1
9402 91 1
9402 618 1
9402 3082 1
9402 4363 1
9403 1324 1
9403 2522 1
9403 6149 1
9403 8861 1
9404 6 1
9404 554 1
9404 1271 1
9404 1581 1
9405 1528 1
9405 6228 1
9405 7320 1
9405 9050 1
9406 89 1
9406 1828 1
9406 3313 1
9406 5152 1
9407 464 1
9407 677 1
9407 2162 1
9407 5668 1
9408 372 1
9408 1947 1
9408 2597 1
9408 4550 1
9409 12 1
9409 5268 1
9409 5744 1
9409 5763 1
9410 219 1
9410 4834 1
9410 5422 1
9410 8661 1
9411 81 1
9411 196 1
9411 1305 1
9411 1308 1
9412 641 1
9412 1792 1
9412 8230 1
9412 8386 1
9413 261 1
9413 1122 1
9413 6377 1
9413 9270 1
9414 9 1
9414 241 1
9414 3076 1
9414 8833 1
9414 9818 1
9415 18 1
9415 3339 1
9415 3635 1
9415 4214 1
9416 1666 1
9416 2366 1
9416 5649 1
9416 7307 1
9417 9 1
9417 50 1
9417 428 1
9417 5649 1
9418 89 1
9418 323 1
9418 1354 1
9418 1744 1
9419 2298 1
9419 3377 1
9419 8406 1
9419 8775 1
9420 46 1
9420 189 1
9420 5779 1
9420 7748 1
9421 25 1
9421 869 1
9421 5934 1
9421 8911 1
9422 654 1
9422 2622 1
9422 5241 1
9422 7043 1
9423 237 1
9423 946 1
9423 2068 1
9423 4785 1
9424 214 1
9424 692 1
9424 2633 1
9424 5069 1
9425 322 1
9425 2881 1
9425 7273 1
9425 7553 1
9426 820 1
9426 3684 1
9426 4236 1
9426 6677 1
9427 4 1
9427 2445 1
9427 4900 1
9427 7673 1
9428 19 1
9428 7095 1
9428 7373 1
9428 8485 1
9429 909 1
9429 2885 1
9429 3981 1
9429 6339 1
9430 346 1
9430 6957 1
9430 8432 1
9430 8953 1
9430 9708 1
9431 69 1
9431 6177 1
9431 7161 1
9431 9225 1
9432 823 1
9432 1131 1
9432 1860 1
9432 5521 1
9433 1987 1
9433 2067 1
9433 5449 1
9433 7713 1
9434 4010 1
9434 4468 1
9434 6828 1
9434 7946 1
9435 1530 1
9435 2235 1
9435 3079 1
9435 6653 1
9436 298 1
9436 325 1
9436 4486 1
9436 7584 1
9437 74 1
9437 3113 1
9437 6327 1
9437 7983 1
9438 93 1
9438 145 1
9438 6232 1
9438 8642 1
9439 6 1
9439 424 1
9439 2510 1
9439 3415 1
9440 966 1
9440 1658 1
9440 2084 1
9440 3505 1
9441 601 1
9441 4152 1
9441 5991 1
9441 6901 1
9442 130 1
9442 1515 1
9442 1978 1
9442 8276 1
9443 1 1
9443 5281 1
9443 7122 1
9443 7975 1
9444 13 1
9444 1725 1
9444 3306 1
9444 3906 1
9445 373 1
9445 614 1
9445 804 1
9445 7650 1
9445 9783 1
9446 258 1
9446 3170 1
9446 3456 1
9446 6194 1
9447 53 1
9447 652 1
9447 757 1
9447 6126 1
9448 78 1
9448 3136 1
9448 3451 1
9448 5743 1
9449 307 1
9449 1667 1
9449 2053 1
9449 3667 1
9450 1529 1
9450 3860 1
9450 8696 1
9450 9234 1
9451 1138 1
9451 4984 1
9451 7656 1
9451 9109 1
9452 22 1
9452 1233 1
9452 2058 1
9452 5517 1
9453 635 1
9453 1513 1
9453 2191 1
9453 6092 1
9454 141 1
9454 822 1
9454 1341 1
9454 2618 1
9455 202 1
9455 1959 1
9455 3670 1
9455 7340 1
9456 149 1
9456 865 1
9456 2484 1
9456 3796 1
9457 19 1
9457 33 1
9457 664 1
9457 3707 1
9457 9629 1
9457 9719 1
9457 9889 1
9458 340 1
9458 4523 1
9458 5604 1
9458 9353 1
9459 396 1
9459 762 1
9459 2020 1
9459 4007 1
9460 18 1
9460 3417 1
9460 6594 1
9460 7335 1
9461 194 1
9461 1422 1
9461 2628 1
9461 7335 1
9462 982 1
9462 5370 1
9462 8232 1
9462 8926 1
9463 2658 1
9463 6948 1
9463 7959 1
9463 9317 1
9464 2 1
9464 545 1
9464 2228 1
9464 6269 1
9465 665 1
9465 1452 1
9465 2395 1
9465 4955 1
9466 11 1
9466 2130 1
9466 4259 1
9466 6631 1
9467 4 1
9467 97 1
9467 206 1
9467 4908 1
9468 4 1
9468 477 1
9468 2577 1
9468 7449 1
9469 778 1
9469 2639 1
9469 2981 1
9469 3006 1
9470 394 1
9470 550 1
9470 2874 1
9470 6958 1
9470 9595 1
9471 308 1
9471 461 1
9471 2500 1
9471 7669 1
9472 91 1
9472 369 1
9472 893 1
9472 3181 1
9473 1734 1
9473 4020 1
9473 6402 1
9473 6426 1
9474 58 1
9474 433 1
9474 718 1
9474 7823 1
9475 569 1
9475 5073 1
9475 5193 1
9475 5629 1
9475 9798 1
9476 541 1
9476 4294 1
9476 4840 1
9476 8965 1
9477 172 1
9477 2555 1
9477 2962 1
9477 6409 1
9477 9552 1
9478 243 1
9478 1646 1
9478 2121 1
9478 4505 1
9479 1887 1
9479 2003 1
9479 2346 1
9479 7083 1
9480 434 1
9480 587 1
9480 3091 1
9480 3315 1
9481 483 1
9481 513 1
9481 1908 1
9481 6906 1
9481 9984 1
9482 29 1
9482 100 1
9482 5449 1
9482 7345 1
9483 1730 1
9483 2668 1
9483 5153 1
9483 9228 1
9484 76 1
9484 1661 1
9484 3844 1
9484 4977 1
9485 9 1
9485 1820 1
9485 1852 1
9485 3180 1
9486 154 1
9486 3275 1
9486 3926 1
9486 9250 1
9487 1060 1
9487 1836 1
9487 3614 1
9487 8674 1
9487 9921 1
9488 36 1
9488 3721 1
9488 7774 1
9488 8351 1
9489 323 1
9489 1707 1
9489 1834 1
9489 4092 1
9490 66 1
9490 187 1
9490 1415 1
9490 2698 1
9491 155 1
9491 353 1
9491 3260 1
9491 3491 1
9492 1923 1
9492 5129 1
9492 5707 1
9492 6921 1
9493 35 1
9493 461 1
9493 4918 1
9493 9238 1
9494 103 1
9494 711 1
9494 2490 1
9494 4939 1
9495 52 1
9495 185 1
9495 1706 1
9495 9135 1
9496 2 1
9496 4 1
9496 429 1
9496 8841 1
9497 665 1
9497 5904 1
9497 6042 1
9497 7242 1
9498 226 1
9498 2862 1
9498 3193 1
9498 7524 1
9499 3043 1
9499 3308 1
9499 3396 1
9499 6169 1
9500 4 1
9500 1079 1
9500 2162 1
9500 3578 1
9501 1009 1
9501 1218 1
9501 7923 1
9501 8650 1
9501 9924 1
9502 10 1
9502 1597 1
9502 1977 1
9502 8353 1
9502 9879 1
9503 17 1
9503 975 1
9503 7406 1
9503 8392 1
9504 2506 1
9504 4553 1
9504 5053 1
9504 7417 1
9505 5 1
9505 306 1
9505 8569 1
9505 9063 1
9506 746 1
9506 3980 1
9506 4425 1
9506 9008 1
9507 2 1
9507 152 1
9507 884 1
9507 7842 1
9508 3 1
9508 1970 1
9508 2235 1
9508 5349 1
9509 18 1
9509 227 1
9509 291 1
9509 8391 1
9510 4 1
9510 181 1
9510 2421 1
9510 3804 1
9511 274 1
9511 2681 1
9511 3683 1
9511 7778 1
9512 1078 1
9512 4898 1
9512 6421 1
9512 9103 1
9513 34 1
9513 321 1
9513 7406 1
9513 7598 1
9514 471 1
9514 1557 1
9514 6517 1
9514 7184 1
9515 2482 1
9515 2483 1
9515 4082 1
9515 7633 1
9516 97 1
9516 666 1
9516 1481 1
9516 8942 1
9517 3331 1
9517 4002 1
9517 4003 1
9517 7331 1
9517 9973 1
9518 5270 1
9518 6709 1
9518 6942 1
9518 7876 1
9519 49 1
9519 3951 1
9519 5917 1
9519 7150 1
9519 9934 1
9520 822 1
9520 3130 1
9520 6925 1
9520 7639 1
9521 1901 1
9521 2261 1
9521 2468 1
9521 5946 1
9522 524 1
9522 1162 1
9522 1349 1
9522 2983 1
9523 196 1
9523 1444 1
9523 5645 1
9523 8921 1
9524 147 1
9524 782 1
9524 2225 1
9524 5276 1
9525 1096 1
9525 2714 1
9525 4229 1
9525 5271 1
9526 3891 1
9526 4993 1
9526 7317 1
9526 7428 1
9527 25 1
9527 345 1
9527 1987 1
9527 7854 1
9528 244 1
9528 977 1
9528 2757 1
9528 9087 1
9529 1363 1
9529 2930 1
9529 4555 1
9529 9369 1
9530 1 1
9530 701 1
9530 1146 1
9530 1212 1
9531 627 1
9531 2105 1
9531 3448 1
9531 4569 1
9532 214 1
9532 706 1
9532 7714 1
9532 8791 1
9533 51 1
9533 2235 1
9533 3603 1
9533 4290 1
9534 895 1
9534 1124 1
9534 2147 1
9534 7475 1
9535 146 1
9535 156 1
9535 185 1
9535 5590 1
9536 442 1
9536 629 1
9536 2726 1
9536 6060 1
9536 9902 1
9537 50 1
9537 523 1
9537 2017 1
9537 5772 1
9538 11 1
9538 1889 1
9538 2021 1
9538 2816 1
9539 673 1
9539 930 1
9539 2274 1
9539 7357 1
9540 2931 1
9540 6412 1
9540 6476 1
9540 6938 1
9541 556 1
9541 868 1
9541 3404 1
9541 4546 1
9542 66 1
9542 410 1
9542 1557 1
9542 2300 1
9543 249 1
9543 1202 1
9543 5287 1
9543 5814 1
9544 67 1
9544 251 1
9544 451 1
9544 4699 1
9544 9850 1
9545 106 1
9545 220 1
9545 227 1
9545 482 1
9546 377 1
9546 462 1
9546 916 1
9546 6838 1
9547 651 1
9547 2271 1
9547 5634 1
9547 8053 1
9548 41 1
9548 250 1
9548 1818 1
9548 5727 1
9549 1647 1
9549 4206 1
9549 6085 1
9549 7258 1
9550 201 1
9550 789 1
9550 2084 1
9550 3927 1
9551 387 1
9551 1313 1
9551 4004 1
9551 8976 1
9552 172 1
9552 2006 1
9552 2940 1
9552 9477 1
9553 1012 1
9553 1041 1
9553 1770 1
9553 8629 1
9554 219 1
9554 447 1
9554 2021 1
9554 5695 1
9555 3286 1
9555 3972 1
9555 6735 1
9555 7789 1
9556 124 1
9556 1324 1
9556 8069 1
9556 9065 1
9557 2 1
9557 401 1
9557 1201 1
9557 1527 1
9558 1703 1
9558 2113 1
9558 8790 1
9558 9345 1
9559 699 1
9559 2186 1
9559 2948 1
9559 8192 1
9560 6 1
9560 1563 1
9560 2102 1
9560 8518 1
9561 748 1
9561 864 1
9561 2268 1
9561 2862 1
9562 569 1
9562 4497 1
9562 5953 1
9562 7009 1
9563 273 1
9563 1388 1
9563 2859 1
9563 8032 1
9564 94 1
9564 558 1
9564 2058 1
9564 4905 1
9565 1737 1
9565 4132 1
9565 4814 1
9565 6490 1
9566 5 1
9566 83 1
9566 4281 1
9566 7796 1
9567 185 1
9567 657 1
9567 6398 1
9567 8275 1
9568 1108 1
9568 2395 1
9568 2542 1
9568 7977 1
9569 4 1
9569 74 1
9569 2771 1
9569 2997 1
9570 11 1
9570 17 1
9570 521 1
9570 699 1
9571 17 1
9571 651 1
9571 3008 1
9571 5440 1
9572 380 1
9572 5717 1
9572 6466 1
9572 7975 1
9573 787 1
9573 1314 1
9573 4101 1
9573 8870 1
9574 653 1
9574 1755 1
9574 2181 1
9574 2963 1
9575 155 1
9575 1246 1
9575 5605 1
9575 7780 1
9575 9947 1
9576 50 1
9576 1039 1
9576 1369 1
9576 2501 1
9577 2 1
9577 111 1
9577 258 1
9577 2361 1
9578 369 1
9578 1560 1
9578 4881 1
9578 5363 1
9579 699 1
9579 1393 1
9579 2605 1
9579 7123 1
9580 387 1
9580 3450 1
9580 5351 1
9580 8377 1
9581 18 1
9581 19 1
9581 1441 1
9581 1929 1
9582 1 1
9582 7579 1
9582 7674 1
9582 8782 1
9582 9793 1
9583 91 1
9583 1690 1
9583 2740 1
9583 3373 1
9584 1 1
9584 527 1
9584 2586 1
9584 4817 1
9585 3394 1
9585 7734 1
9585 8743 1
9585 9217 1
9586 290 1
9586 745 1
9586 6378 1
9586 8176 1
9587 70 1
9587 2006 1
9587 2389 1
9587 6735 1
9588 462 1
9588 608 1
9588 8050 1
9588 8918 1
9589 2 1
9589 305 1
9589 616 1
9589 6351 1
9590 716 1
9590 3864 1
9590 5676 1
9590 8004 1
9591 1586 1
9591 2213 1
9591 3515 1
9591 6873 1
9591 9809 1
9592 298 1
9592 3241 1
9592 3826 1
9592 5449 1
9593 2104 1
9593 5901 1
9593 6290 1
9593 9251 1
9594 30 1
9594 229 1
9594 866 1
9594 1140 1
9595 495 1
9595 1383 1
9595 6958 1
9595 9470 1
9596 1329 1
9596 1471 1
9596 4091 1
9596 4615 1
9597 27 1
9597 254 1
9597 650 1
9597 7226 1
9598 1704 1
9598 4986 1
9598 5185 1
9598 7065 1
9599 235 1
9599 386 1
9599 2883 1
9599 5285 1
9600 2 1
9600 493 1
9600 4931 1
9600 6553 1
9601 25 1
9601 1257 1
9601 1540 1
9601 5090 1
9602 1575 1
9602 2256 1
9602 4665 1
9602 7059 1
9603 427 1
9603 951 1
9603 4748 1
9603 7118 1
9604 338 1
9604 731 1
9604 5538 1
9604 6605 1
9605 36 1
9605 146 1
9605 900 1
9605 6381 1
9606 1 1
9606 5 1
9606 7507 1
9606 9232 1
9607 2 1
9607 81 1
9607 1919 1
9607 8196 1
9608 2 1
9608 298 1
9608 1809 1
9608 5038 1
9609 2525 1
9609 5697 1
9609 8384 1
9609 9298 1
9610 9 1
9610 179 1
9610 498 1
9610 8419 1
9611 473 1
9611 777 1
9611 1381 1
9611 3464 1
9612 291 1
9612 1370 1
9612 4834 1
9612 7258 1
9613 2 1
9613 858 1
9613 2276 1
9613 5587 1
9614 1772 1
9614 3329 1
9614 5751 1
9614 8566 1
9615 1195 1
9615 1414 1
9615 3963 1
9615 5329 1
9616 87 1
9616 1132 1
9616 6742 1
9616 9270 1
9617 987 1
9617 1531 1
9617 3099 1
9617 4583 1
9618 772 1
9618 1466 1
9618 2025 1
9618 7653 1
9619 25 1
9619 67 1
9619 6173 1
9619 6740 1
9620 311 1
9620 4398 1
9620 8722 1
9620 9017 1
9621 378 1
9621 1265 1
9621 1355 1
9621 3842 1
9621 9927 1
9622 415 1
9622 417 1
9622 1644 1
9622 5715 1
9623 65 1
9623 442 1
9623 643 1
9623 4439 1
9624 51 1
9624 4452 1
9624 6347 1
9624 8190 1
9625 2183 1
9625 2716 1
9625 4781 1
9625 4931 1
9626 1253 1
9626 2740 1
9626 4817 1
9626 8477 1
9627 930 1
9627 1258 1
9627 2874 1
9627 6050 1
9628 1747 1
9628 4697 1
9628 6929 1
9628 7544 1
9629 81 1
9629 662 1
9629 1291 1
9629 9457 1
9629 9889 1
9630 717 1
9630 6690 1
9630 8332 1
9630 8768 1
9631 33 1
9631 1508 1
9631 4557 1
9631 5033 1
9632 602 1
9632 2258 1
9632 4777 1
9632 8221 1
9633 52 1
9633 148 1
9633 480 1
9633 1185 1
9634 9 1
9634 91 1
9634 1321 1
9634 4894 1
9635 2 1
9635 9 1
9635 2004 1
9635 8218 1
9636 78 1
9636 187 1
9636 3065 1
9636 6401 1
9637 17 1
9637 511 1
9637 886 1
9637 1246 1
9638 1 1
9638 3082 1
9638 5882 1
9638 7347 1
9639 565 1
9639 1384 1
9639 2110 1
9639 2970 1
9640 594 1
9640 1364 1
9640 2628 1
9640 2680 1
9641 940 1
9641 4158 1
9641 4703 1
9641 7838 1
9642 5 1
9642 91 1
9642 2219 1
9642 5429 1
9643 25 1
9643 365 1
9643 2577 1
9643 4839 1
9644 12 1
9644 937 1
9644 3207 1
9644 5699 1
9645 50 1
9645 777 1
9645 1892 1
9645 8707 1
9646 1469 1
9646 2321 1
9646 5426 1
9646 7355 1
9647 905 1
9647 1280 1
9647 1288 1
9647 1625 1
9648 41 1
9648 390 1
9648 508 1
9648 6033 1
9649 41 1
9649 42 1
9649 5113 1
9649 8152 1
9650 233 1
9650 4962 1
9650 9099 1
9650 9309 1
9651 17 1
9651 1874 1
9651 2486 1
9651 4157 1
9652 162 1
9652 780 1
9652 2291 1
9652 4994 1
9653 9 1
9653 2536 1
9653 4272 1
9653 8471 1
9653 9999 1
9654 633 1
9654 787 1
9654 4387 1
9654 8149 1
9655 679 1
9655 4568 1
9655 6358 1
9655 7336 1
9656 75 1
9656 186 1
9656 8135 1
9656 8840 1
9657 4 1
9657 43 1
9657 99 1
9657 7460 1
9658 139 1
9658 147 1
9658 161 1
9658 420 1
9659 92 1
9659 186 1
9659 369 1
9659 1633 1
9660 2004 1
9660 2202 1
9660 3007 1
9660 6728 1
9660 9798 1
9661 10 1
9661 43 1
9661 330 1
9661 3491 1
9662 3633 1
9662 5484 1
9662 5696 1
9662 5897 1
9663 11 1
9663 839 1
9663 1906 1
9663 5788 1
9664 67 1
9664 81 1
9664 4182 1
9664 8414 1
9665 1690 1
9665 2466 1
9665 4771 1
9665 5877 1
9666 89 1
9666 285 1
9666 3097 1
9666 5014 1
9667 51 1
9667 187 1
9667 2365 1
9667 7220 1
9668 242 1
9668 517 1
9668 1674 1
9668 4126 1
9669 131 1
9669 297 1
9669 1555 1
9669 7249 1
9670 2426 1
9670 5521 1
9670 7190 1
9670 8467 1
9671 773 1
9671 1415 1
9671 2997 1
9671 4260 1
9672 4605 1
9672 6964 1
9672 8871 1
9672 9005 1
9673 2044 1
9673 2374 1
9673 7544 1
9673 7955 1
9674 9 1
9674 2885 1
9674 6339 1
9674 7146 1
9674 9945 1
9675 2419 1
9675 4205 1
9675 6312 1
9675 8296 1
9676 10 1
9676 34 1
9676 570 1
9676 1200 1
9676 9723 1
9677 1456 1
9677 2562 1
9677 2750 1
9677 5282 1
9678 1017 1
9678 1513 1
9678 2676 1
9678 6657 1
9679 225 1
9679 899 1
9679 3305 1
9679 6539 1
9680 547 1
9680 685 1
9680 4113 1
9680 5316 1
9681 2044 1
9681 3713 1
9681 5353 1
9681 6330 1
9682 1914 1
9682 3486 1
9682 6050 1
9682 8510 1
9683 2281 1
9683 4486 1
9683 4683 1
9683 5247 1
9684 468 1
9684 1409 1
9684 2043 1
9684 6230 1
9684 9784 1
9685 473 1
9685 676 1
9685 791 1
9685 5062 1
9686 99 1
9686 4400 1
9686 5361 1
9686 6906 1
9687 1159 1
9687 1402 1
9687 5958 1
9687 7707 1
9688 939 1
9688 3796 1
9688 5243 1
9688 8099 1
9688 9973 1
9689 10 1
9689 2750 1
9689 3027 1
9689 7897 1
9690 50 1
9690 2092 1
9690 2246 1
9690 7270 1
9691 18 1
9691 553 1
9691 5364 1
9691 6480 1
9692 257 1
9692 662 1
9692 5955 1
9692 6467 1
9692 9842 1
9693 553 1
9693 5293 1
9693 5320 1
9693 6493 1
9694 474 1
9694 5261 1
9694 6394 1
9694 6443 1
9695 989 1
9695 2205 1
9695 3308 1
9695 6183 1
9696 194 1
9696 2369 1
9696 5878 1
9696 8881 1
9697 634 1
9697 963 1
9697 1673 1
9697 4090 1
9698 66 1
9698 729 1
9698 2370 1
9698 6484 1
9699 49 1
9699 7959 1
9699 8722 1
9699 8785 1
9700 99 1
9700 273 1
9700 6268 1
9700 8061 1
9701 41 1
9701 442 1
9701 588 1
9701 5428 1
9702 814 1
9702 1530 1
9702 2331 1
9702 5073 1
9703 1209 1
9703 1407 1
9703 4365 1
9703 7533 1
9704 2922 1
9704 2979 1
9704 4069 1
9704 7578 1
9705 256 1
9705 335 1
9705 1356 1
9705 9200 1
9706 2610 1
9706 2684 1
9706 4209 1
9706 7748 1
9707 235 1
9707 2913 1
9707 6007 1
9707 7206 1
9708 1291 1
9708 4663 1
9708 5513 1
9708 9430 1
9709 81 1
9709 7017 1
9709 8762 1
9709 8902 1
9710 107 1
9710 359 1
9710 2118 1
9710 3353 1
9711 33 1
9711 237 1
9711 1306 1
9711 3596 1
9712 4217 1
9712 7369 1
9712 8577 1
9712 9156 1
9713 131 1
9713 1044 1
9713 1312 1
9713 3623 1
9714 2770 1
9714 7464 1
9714 7877 1
9714 8106 1
9715 1827 1
9715 2014 1
9715 2019 1
9715 8948 1
9716 154 1
9716 676 1
9716 4490 1
9716 6078 1
9717 1515 1
9717 2137 1
9717 4549 1
9717 8007 1
9718 834 1
9718 2380 1
9718 5041 1
9718 5806 1
9719 19 1
9719 1629 1
9719 4017 1
9719 9457 1
9720 13 1
9720 900 1
9720 4066 1
9720 9052 1
9721 311 1
9721 4231 1
9721 4799 1
9721 7076 1
9722 2813 1
9722 4027 1
9722 4751 1
9722 8922 1
9723 3368 1
9723 4268 1
9723 5514 1
9723 9676 1
9724 266 1
9724 349 1
9724 402 1
9724 1870 1
9725 91 1
9725 6043 1
9725 6570 1
9725 7105 1
9726 1 1
9726 5323 1
9726 7621 1
9726 8042 1
9727 2858 1
9727 4426 1
9727 8375 1
9727 9240 1
9728 137 1
9728 155 1
9728 5227 1
9728 7521 1
9728 9844 1
9729 337 1
9729 2261 1
9729 3925 1
9729 7127 1
9730 541 1
9730 2377 1
9730 4109 1
9730 6481 1
9731 113 1
9731 957 1
9731 1698 1
9731 6584 1
9732 66 1
9732 1923 1
9732 3724 1
9732 4809 1
9733 169 1
9733 838 1
9733 7196 1
9733 7790 1
9734 412 1
9734 708 1
9734 1407 1
9734 4128 1
9735 18 1
9735 2681 1
9735 5364 1
9735 8858 1
9736 1027 1
9736 1528 1
9736 5244 1
9736 7690 1
9737 1 1
9737 446 1
9737 920 1
9737 4152 1
9738 146 1
9738 4079 1
9738 5342 1
9738 8861 1
9739 10 1
9739 18 1
9739 1188 1
9739 4081 1
9740 9 1
9740 4043 1
9740 6416 1
9740 6438 1
9741 1033 1
9741 1171 1
9741 1299 1
9741 1422 1
9742 523 1
9742 531 1
9742 1045 1
9742 2682 1
9743 611 1
9743 804 1
9743 4493 1
9743 4977 1
9744 10 1
9744 955 1
9744 1908 1
9744 5514 1
9744 9814 1
9745 348 1
9745 4251 1
9745 6137 1
9745 6381 1
9746 1009 1
9746 2313 1
9746 2338 1
9746 3058 1
9747 4 1
9747 17 1
9747 1092 1
9747 6612 1
9748 11 1
9748 156 1
9748 2059 1
9748 3546 1
9748 9980 1
9749 1610 1
9749 2450 1
9749 2965 1
9749 6093 1
9750 2663 1
9750 3765 1
9750 6294 1
9750 6480 1
9751 1 1
9751 3302 1
9751 4405 1
9751 7357 1
9752 3412 1
9752 4137 1
9752 4511 1
9752 6755 1
9753 72 1
9753 1424 1
9753 2276 1
9753 4300 1
9754 41 1
9754 1347 1
9754 3556 1
9754 9361 1
9754 9810 1
9755 838 1
9755 3457 1
9755 4786 1
9755 6335 1
9756 11 1
9756 6210 1
9756 6522 1
9756 7279 1
9757 107 1
9757 312 1
9757 2065 1
9757 5893 1
9758 18 1
9758 114 1
9758 3222 1
9758 6367 1
9759 634 1
9759 1866 1
9759 1987 1
9759 2084 1
9760 2108 1
9760 3894 1
9760 4933 1
9760 5575 1
9761 10 1
9761 4137 1
9761 6239 1
9761 6461 1
9762 478 1
9762 684 1
9762 5412 1
9762 8450 1
9763 639 1
9763 854 1
9763 4301 1
9763 7494 1
9764 13 1
9764 802 1
9764 5449 1
9764 5915 1
9765 321 1
9765 1258 1
9765 2223 1
9765 4493 1
9766 10 1
9766 1257 1
9766 2094 1
9766 2611 1
9767 906 1
9767 987 1
9767 5355 1
9767 5980 1
9768 1051 1
9768 4745 1
9768 6915 1
9768 7053 1
9769 2 1
9769 1181 1
9769 3536 1
9769 7896 1
9770 468 1
9770 857 1
9770 2073 1
9770 4296 1
9771 707 1
9771 3016 1
9771 5859 1
9771 8328 1
9772 929 1
9772 3333 1
9772 5999 1
9772 7575 1
9773 2378 1
9773 3153 1
9773 5659 1
9773 6708 1
9774 9 1
9774 361 1
9774 6039 1
9774 6926 1
9775 41 1
9775 481 1
9775 1163 1
9775 7122 1
9776 677 1
9776 2547 1
9776 3466 1
9776 4273 1
9777 99 1
9777 1833 1
9777 2355 1
9777 7609 1
9778 102 1
9778 187 1
9778 1547 1
9778 3434 1
9779 28 1
9779 2171 1
9779 2720 1
9779 4665 1
9780 154 1
9780 2206 1
9780 3684 1
9780 5889 1
9781 233 1
9781 1963 1
9781 5978 1
9781 6138 1
9782 345 1
9782 2913 1
9782 3422 1
9782 3949 1
9783 42 1
9783 292 1
9783 7586 1
9783 9445 1
9784 468 1
9784 4601 1
9784 7866 1
9784 9684 1
9785 53 1
9785 377 1
9785 1440 1
9785 3282 1
9786 465 1
9786 573 1
9786 1847 1
9786 8712 1
9787 365 1
9787 1889 1
9787 4620 1
9787 8672 1
9788 153 1
9788 683 1
9788 3881 1
9788 4487 1
9789 31 1
9789 1858 1
9789 3690 1
9789 7904 1
9790 848 1
9790 5180 1
9790 6115 1
9790 7985 1
9791 189 1
9791 628 1
9791 1935 1
9791 2389 1
9792 747 1
9792 1483 1
9792 2499 1
9792 3323 1
9793 4 1
9793 4749 1
9793 7674 1
9793 9582 1
9794 4 1
9794 1986 1
9794 6211 1
9794 6429 1
9795 924 1
9795 1382 1
9795 3346 1
9795 4065 1
9796 1 1
9796 9 1
9796 1848 1
9796 2245 1
9797 20 1
9797 3338 1
9797 3828 1
9797 4831 1
9798 2202 1
9798 4849 1
9798 9475 1
9798 9660 1
9799 130 1
9799 737 1
9799 1317 1
9799 2521 1
9800 154 1
9800 340 1
9800 3337 1
9800 6242 1
9801 692 1
9801 2349 1
9801 2866 1
9801 7268 1
9802 737 1
9802 2805 1
9802 4173 1
9802 4382 1
9803 105 1
9803 425 1
9803 4884 1
9803 5871 1
9804 50 1
9804 621 1
9804 2554 1
9804 7411 1
9805 1888 1
9805 2666 1
9805 5480 1
9805 8556 1
9806 287 1
9806 346 1
9806 353 1
9806 1805 1
9807 1162 1
9807 2019 1
9807 2532 1
9807 5510 1
9808 26 1
9808 882 1
9808 5885 1
9808 8463 1
9809 929 1
9809 968 1
9809 3515 1
9809 9591 1
9810 219 1
9810 1604 1
9810 6301 1
9810 9754 1
9811 1138 1
9811 6810 1
9811 7495 1
9811 7649 1
9812 473 1
9812 859 1
9812 6485 1
9812 8883 1
9813 929 1
9813 4131 1
9813 6498 1
9813 9362 1
9814 530 1
9814 681 1
9814 2308 1
9814 9744 1
9815 4 1
9815 642 1
9815 2379 1
9815 4036 1
9816 4 1
9816 459 1
9816 4624 1
9816 6530 1
9817 1195 1
9817 4301 1
9817 5907 1
9817 8408 1
9818 2497 1
9818 2683 1
9818 3076 1
9818 9414 1
9819 451 1
9819 1357 1
9819 3044 1
9819 5857 1
9820 65 1
9820 4641 1
9820 7739 1
9820 8741 1
9821 428 1
9821 2929 1
9821 4203 1
9821 5002 1
9822 73 1
9822 1273 1
9822 4969 1
9822 7289 1
9823 425 1
9823 485 1
9823 2531 1
9823 8552 1
9824 161 1
9824 817 1
9824 1161 1
9824 4220 1
9825 459 1
9825 3043 1
9825 3396 1
9825 7777 1
9826 1465 1
9826 1945 1
9826 2088 1
9826 3433 1
9827 442 1
9827 2441 1
9827 7130 1
9827 9269 1
9828 1657 1
9828 3786 1
9828 4271 1
9828 7622 1
9829 79 1
9829 826 1
9829 1370 1
9829 2900 1
9830 303 1
9830 361 1
9830 2563 1
9830 6088 1
9831 267 1
9831 3626 1
9831 4137 1
9831 6755 1
9832 20 1
9832 1268 1
9832 1619 1
9832 3737 1
9832 9901 1
9833 1916 1
9833 2601 1
9833 4091 1
9833 7504 1
9834 65 1
9834 3786 1
9834 6179 1
9834 7622 1
9835 89 1
9835 881 1
9835 1137 1
9835 4362 1
9836 109 1
9836 987 1
9836 2538 1
9836 7454 1
9837 4785 1
9837 5756 1
9837 6058 1
9837 6466 1
9838 5 1
9838 66 1
9838 340 1
9838 521 1
9839 33 1
9839 73 1
9839 2578 1
9839 4523 1
9840 1116 1
9840 1305 1
9840 2255 1
9840 6921 1
9841 913 1
9841 3539 1
9841 4352 1
9841 8013 1
9842 257 1
9842 1605 1
9842 3897 1
9842 9692 1
9842 9874 1
9843 906 1
9843 2275 1
9843 2368 1
9843 3161 1
9844 33 1
9844 4068 1
9844 5227 1
9844 9728 1
9845 206 1
9845 709 1
9845 2174 1
9845 7020 1
9846 29 1
9846 665 1
9846 2888 1
9846 5904 1
9847 94 1
9847 873 1
9847 1176 1
9847 1722 1
9848 89 1
9848 2677 1
9848 6430 1
9848 7148 1
9849 355 1
9849 2021 1
9849 3485 1
9849 7520 1
9850 7 1
9850 49 1
9850 451 1
9850 9544 1
9851 753 1
9851 3684 1
9851 3845 1
9851 6733 1
9852 355 1
9852 457 1
9852 1714 1
9852 7586 1
9853 1225 1
9853 2162 1
9853 3235 1
9853 4876 1
9854 968 1
9854 3276 1
9854 3594 1
9854 4551 1
9855 273 1
9855 3331 1
9855 5482 1
9855 6390 1
9856 81 1
9856 1769 1
9856 1783 1
9856 7361 1
9856 9936 1
9857 1782 1
9857 3862 1
9857 3960 1
9857 6436 1
9858 2069 1
9858 4799 1
9858 7911 1
9858 9399 1
9859 2298 1
9859 3114 1
9859 4173 1
9859 4837 1
9860 9 1
9860 1283 1
9860 2209 1
9860 4766 1
9861 33 1
9861 369 1
9861 4490 1
9861 4822 1
9862 1788 1
9862 2850 1
9862 3067 1
9862 3090 1
9863 1 1
9863 281 1
9863 6571 1
9863 8381 1
9864 2546 1
9864 5097 1
9864 6324 1
9864 7853 1
9865 11 1
9865 113 1
9865 1748 1
9865 7029 1
9866 1930 1
9866 2746 1
9866 4612 1
9866 4665 1
9867 28 1
9867 3317 1
9867 3795 1
9867 4507 1
9868 33 1
9868 716 1
9868 1323 1
9868 8789 1
9869 197 1
9869 2639 1
9869 2803 1
9869 7880 1
9870 5 1
9870 2977 1
9870 3556 1
9870 5027 1
9871 2 1
9871 51 1
9871 7633 1
9871 8095 1
9872 706 1
9872 6258 1
9872 6945 1
9872 9276 1
9873 554 1
9873 683 1
9873 4883 1
9873 8195 1
9874 2137 1
9874 7852 1
9874 8225 1
9874 9842 1
9875 772 1
9875 3705 1
9875 4249 1
9875 5395 1
9876 1547 1
9876 3732 1
9876 7212 1
9876 8074 1
9877 2 1
9877 322 1
9877 4266 1
9877 7043 1
9878 74 1
9878 194 1
9878 708 1
9878 7362 1
9879 67 1
9879 1303 1
9879 4121 1
9879 9502 1
9880 4 1
9880 1822 1
9880 1979 1
9880 7354 1
9881 99 1
9881 2897 1
9881 3554 1
9881 4396 1
9882 60 1
9882 266 1
9882 1669 1
9882 3254 1
9883 1715 1
9883 3348 1
9883 3959 1
9883 7246 1
9884 19 1
9884 267 1
9884 6116 1
9884 6409 1
9885 589 1
9885 2426 1
9885 6531 1
9885 9255 1
9886 92 1
9886 848 1
9886 4620 1
9886 9181 1
9887 145 1
9887 1709 1
9887 5748 1
9887 6269 1
9888 317 1
9888 2894 1
9888 7251 1
9888 7495 1
9889 5338 1
9889 7490 1
9889 9457 1
9889 9629 1
9890 1874 1
9890 6115 1
9890 6133 1
9890 7450 1
9890 9900 1
9891 9 1
9891 2644 1
9891 3589 1
9891 6983 1
9892 2846 1
9892 2853 1
9892 4131 1
9892 4753 1
9893 82 1
9893 545 1
9893 562 1
9893 1697 1
9893 9917 1
9894 469 1
9894 1730 1
9894 4992 1
9894 8141 1
9895 5 1
9895 198 1
9895 1428 1
9895 2850 1
9896 11 1
9896 3606 1
9896 6398 1
9896 8008 1
9897 9 1
9897 129 1
9897 2076 1
9897 3666 1
9898 246 1
9898 322 1
9898 4130 1
9898 8558 1
9899 268 1
9899 281 1
9899 658 1
9899 2315 1
9900 3097 1
9900 6076 1
9900 7450 1
9900 9890 1
9901 85 1
9901 164 1
9901 3422 1
9901 9832 1
9902 442 1
9902 2521 1
9902 3690 1
9902 9536 1
9903 4617 1
9903 5254 1
9903 5856 1
9903 8546 1
9904 1833 1
9904 3702 1
9904 3994 1
9904 6645 1
9905 1 1
9905 107 1
9905 471 1
9905 9252 1
9906 4 1
9906 1835 1
9906 4875 1
9906 6769 1
9907 138 1
9907 409 1
9907 606 1
9907 6169 1
9908 5 1
9908 3291 1
9908 5768 1
9908 7195 1
9909 194 1
9909 1482 1
9909 4197 1
9909 6701 1
9910 222 1
9910 436 1
9910 2393 1
9910 5323 1
9911 1397 1
9911 3705 1
9911 8367 1
9911 9287 1
9912 4 1
9912 421 1
9912 5427 1
9912 6776 1
9913 708 1
9913 847 1
9913 5370 1
9913 9338 1
9914 1590 1
9914 5872 1
9914 6719 1
9914 8092 1
9915 66 1
9915 264 1
9915 985 1
9915 1160 1
9916 51 1
9916 1163 1
9916 2645 1
9916 2710 1
9917 66 1
9917 112 1
9917 3771 1
9917 9893 1
9918 797 1
9918 2154 1
9918 5456 1
9918 6925 1
9919 474 1
9919 1328 1
9919 3774 1
9919 8911 1
9920 103 1
9920 877 1
9920 1312 1
9920 9209 1
9921 3051 1
9921 3737 1
9921 8674 1
9921 9487 1
9922 2 1
9922 285 1
9922 4009 1
9922 9100 1
9923 4028 1
9923 7375 1
9923 7945 1
9923 8238 1
9924 1410 1
9924 1417 1
9924 9152 1
9924 9501 1
9925 517 1
9925 1466 1
9925 3569 1
9925 8144 1
9926 75 1
9926 636 1
9926 5461 1
9926 6986 1
9927 284 1
9927 2678 1
9927 3842 1
9927 9621 1
9928 1058 1
9928 1665 1
9928 1826 1
9928 4948 1
9929 41 1
9929 1795 1
9929 2642 1
9929 5315 1
9930 359 1
9930 931 1
9930 5482 1
9930 7392 1
9931 3123 1
9931 3432 1
9931 4051 1
9931 4835 1
9932 1485 1
9932 2488 1
9932 4890 1
9932 5971 1
9933 42 1
9933 1545 1
9933 1874 1
9933 4180 1
9934 132 1
9934 2421 1
9934 6939 1
9934 9519 1
9935 92 1
9935 1657 1
9935 3858 1
9935 8590 1
9936 178 1
9936 5019 1
9936 7361 1
9936 9856 1
9937 2268 1
9937 2588 1
9937 7097 1
9937 7962 1
9938 2 1
9938 10 1
9938 1257 1
9938 8454 1
9939 188 1
9939 2667 1
9939 3225 1
9939 5199 1
9940 2 1
9940 396 1
9940 4860 1
9940 5177 1
9941 131 1
9941 687 1
9941 6130 1
9941 9232 1
9942 829 1
9942 1530 1
9942 4259 1
9942 8354 1
9943 99 1
9943 1684 1
9943 3193 1
9943 5144 1
9944 1404 1
9944 2071 1
9944 3611 1
9944 3985 1
9945 1564 1
9945 1780 1
9945 5060 1
9945 9674 1
9946 1355 1
9946 6647 1
9946 7351 1
9946 7792 1
9947 433 1
9947 2205 1
9947 2424 1
9947 9575 1
9948 415 1
9948 1855 1
9948 4847 1
9948 5322 1
9949 13 1
9949 397 1
9949 2094 1
9949 2577 1
9950 322 1
9950 787 1
9950 2904 1
9950 4970 1
9951 3184 1
9951 4409 1
9951 4820 1
9951 9050 1
9952 1275 1
9952 2965 1
9952 5578 1
9952 7699 1
9953 97 1
9953 474 1
9953 770 1
9953 2243 1
9954 834 1
9954 4541 1
9954 4747 1
9954 5452 1
9955 18 1
9955 57 1
9955 343 1
9955 8577 1
9956 25 1
9956 1381 1
9956 2304 1
9956 6313 1
9957 929 1
9957 4506 1
9957 5944 1
9957 7260 1
9958 777 1
9958 1883 1
9958 3773 1
9958 5150 1
9959 1818 1
9959 2290 1
9959 2987 1
9959 8433 1
9960 2 1
9960 4542 1
9960 4626 1
9960 4983 1
9961 158 1
9961 483 1
9961 2925 1
9961 4420 1
9962 25 1
9962 449 1
9962 4617 1
9962 7045 1
9963 242 1
9963 569 1
9963 8975 1
9963 9389 1
9964 13 1
9964 108 1
9964 2154 1
9964 6762 1
9965 219 1
9965 306 1
9965 8781 1
9965 9169 1
9966 338 1
9966 497 1
9966 7188 1
9966 9262 1
9967 25 1
9967 65 1
9967 691 1
9967 1257 1
9968 359 1
9968 1038 1
9968 1577 1
9968 1653 1
9969 146 1
9969 738 1
9969 2954 1
9969 8256 1
9970 183 1
9970 2297 1
9970 2666 1
9970 6718 1
9971 699 1
9971 2338 1
9971 3253 1
9971 5037 1
9972 28 1
9972 522 1
9972 2291 1
9972 3980 1
9973 303 1
9973 939 1
9973 9517 1
9973 9688 1
9974 129 1
9974 323 1
9974 797 1
9974 5084 1
9975 41 1
9975 115 1
9975 1791 1
9975 8972 1
9976 171 1
9976 1845 1
9976 3489 1
9976 6259 1
9977 1 1
9977 14 1
9977 3695 1
9977 4159 1
9978 685 1
9978 1194 1
9978 1318 1
9978 5011 1
9979 41 1
9979 219 1
9979 5054 1
9979 5400 1
9980 311 1
9980 957 1
9980 8722 1
9980 9748 1
9981 1 1
9981 1250 1
9981 2985 1
9981 3924 1
9982 502 1
9982 601 1
9982 6195 1
9982 8217 1
9983 1419 1
9983 1835 1
9983 2108 1
9983 2902 1
9984 1284 1
9984 5704 1
9984 8320 1
9984 9481 1
9985 1 1
9985 723 1
9985 907 1
9985 6932 1
9986 3441 1
9986 3523 1
9986 5022 1
9986 7206 1
9987 1054 1
9987 5886 1
9987 7250 1
9987 8683 1
9988 833 1
9988 2169 1
9988 2294 1
9988 4956 1
9989 19 1
9989 3546 1
9989 4483 1
9989 7836 1
9990 400 1
9990 3212 1
9990 4326 1
9990 7225 1
9991 28 1
9991 491 1
9991 2225 1
9991 3263 1
9992 308 1
9992 1809 1
9992 3210 1
9992 6390 1
9993 277 1
9993 1195 1
9993 3656 1
9993 8191 1
9994 1124 1
9994 1189 1
9994 4744 1
9994 5490 1
9995 297 1
9995 5036 1
9995 8236 1
9995 8280 1
9996 103 1
9996 522 1
9996 693 1
9996 5986 1
9997 1475 1
9997 2026 1
9997 2859 1
9997 3539 1
9998 27 1
9998 276 1
9998 454 1
9998 3353 1
9999 983 1
9999 5730 1
9999 5930 1
9999 9653 1
10000 273 1
10000 1135 1
10000 7745 1
10000 9103 1
