%%MatrixMarket matrix coordinate integer general
1 5 1
1 7 1
1 9 1
1 10 1
1 11 1
1 13 1
1 14 1
1 16 1
1 21 1
1 25 1
1 26 1
1 32 1
1 37 1
1 43 1
1 54 1
1 55 1
1 58 1
1 61 1
1 62 1
1 66 1
1 68 1
1 72 1
1 73 1
1 76 1
1 77 1
1 80 1
1 81 1
1 82 1
1 91 1
1 96 1
1 107 1
1 109 1
1 117 1
1 132 1
1 135 1
1 145 1
1 149 1
1 165 1
1 175 1
1 189 1
1 190 1
1 195 1
1 197 1
1 198 1
1 200 1
1 219 1
1 220 1
1 225 1
1 227 1
1 235 1
1 249 1
1 259 1
1 266 1
1 270 1
1 279 1
1 285 1
1 292 1
1 299 1
1 325 1
1 332 1
1 333 1
1 346 1
1 351 1
1 353 1
1 363 1
1 366 1
1 367 1
1 409 1
1 422 1
1 427 1
1 436 1
1 451 1
1 456 1
1 470 1
1 471 1
1 476 1
1 481 1
1 482 1
1 483 1
1 491 1
1 501 1
1 525 1
1 535 1
1 551 1
1 582 1
1 590 1
1 597 1
1 599 1
1 659 1
1 665 1
1 672 1
1 675 1
1 679 1
1 685 1
1 694 1
1 703 1
1 704 1
1 705 1
1 726 1
1 729 1
1 751 1
1 754 1
1 758 1
1 761 1
1 771 1
1 781 1
1 810 1
1 826 1
1 849 1
1 919 1
1 936 1
1 973 1
1 975 1
1 994 1
1 999 1
1 1016 1
1 1034 1
1 1044 1
1 1100 1
1 1109 1
1 1115 1
1 1126 1
1 1128 1
1 1137 1
1 1177 1
1 1184 1
1 1200 1
1 1226 1
1 1243 1
1 1248 1
1 1253 1
1 1264 1
1 1267 1
1 1275 1
1 1277 1
1 1282 1
1 1296 1
1 1299 1
1 1300 1
1 1321 1
1 1364 1
1 1370 1
1 1376 1
1 1395 1
1 1403 1
1 1422 1
1 1429 1
1 1473 1
1 1494 1
1 1505 1
1 1558 1
1 1561 1
1 1568 1
1 1570 1
1 1572 1
1 1589 1
1 1596 1
1 1620 1
1 1627 1
1 1663 1
1 1673 1
1 1684 1
1 1696 1
1 1700 1
1 1703 1
1 1715 1
1 1720 1
1 1731 1
1 1741 1
1 1784 1
1 1804 1
1 1826 1
1 1832 1
1 1837 1
1 1853 1
1 1863 1
1 1896 1
1 1981 1
1 1989 1
1 1997 1
1 2026 1
1 2088 1
1 2090 1
1 2097 1
1 2120 1
1 2137 1
1 2150 1
1 2173 1
1 2182 1
1 2199 1
1 2240 1
1 2313 1
1 2315 1
1 2319 1
1 2401 1
1 2417 1
1 2423 1
1 2431 1
1 2475 1
1 2480 1
1 2534 1
1 2574 1
1 2617 1
1 2623 1
1 2632 1
1 2659 1
1 2699 1
1 2745 1
1 2781 1
1 2789 1
1 2839 1
1 2898 1
1 2958 1
2 5 1
2 6 1
2 7 1
2 8 1
2 9 1
2 15 1
2 18 1
2 19 1
2 22 1
2 25 1
2 39 1
2 47 1
2 56 1
2 68 1
2 76 1
2 81 1
2 87 1
2 88 1
2 93 1
2 104 1
2 107 1
2 108 1
2 114 1
2 115 1
2 118 1
2 126 1
2 130 1
2 159 1
2 160 1
2 161 1
2 174 1
2 188 1
2 190 1
2 193 1
2 194 1
2 202 1
2 208 1
2 214 1
2 226 1
2 244 1
2 250 1
2 253 1
2 258 1
2 275 1
2 278 1
2 283 1
2 285 1
2 291 1
2 297 1
2 298 1
2 331 1
2 346 1
2 349 1
2 350 1
2 369 1
2 373 1
2 379 1
2 384 1
2 392 1
2 400 1
2 406 1
2 407 1
2 421 1
2 424 1
2 439 1
2 462 1
2 465 1
2 474 1
2 481 1
2 505 1
2 553 1
2 601 1
2 604 1
2 621 1
2 624 1
2 643 1
2 651 1
2 656 1
2 675 1
2 693 1
2 712 1
2 719 1
2 745 1
2 755 1
2 760 1
2 761 1
2 776 1
2 785 1
2 788 1
2 807 1
2 809 1
2 864 1
2 890 1
2 894 1
2 901 1
2 919 1
2 920 1
2 926 1
2 955 1
2 961 1
2 962 1
2 987 1
2 1020 1
2 1022 1
2 1026 1
2 1032 1
2 1053 1
2 1056 1
2 1057 1
2 1058 1
2 1085 1
2 1095 1
2 1103 1
2 1111 1
2 1131 1
2 1163 1
2 1165 1
2 1203 1
2 1232 1
2 1249 1
2 1261 1
2 1268 1
2 1323 1
2 1333 1
2 1336 1
2 1343 1
2 1356 1
2 1360 1
2 1365 1
2 1399 1
2 1416 1
2 1417 1
2 1452 1
2 1460 1
2 1488 1
2 1493 1
2 1513 1
2 1529 1
2 1535 1
2 1547 1
2 1581 1
2 1605 1
2 1618 1
2 1631 1
2 1649 1
2 1664 1
2 1688 1
2 1713 1
2 1748 1
2 1777 1
2 1784 1
2 1788 1
2 1818 1
2 1829 1
2 1839 1
2 1852 1
2 1925 1
2 1927 1
2 1956 1
2 1990 1
2 2038 1
2 2042 1
2 2046 1
2 2050 1
2 2100 1
2 2112 1
2 2123 1
2 2155 1
2 2172 1
2 2175 1
2 2212 1
2 2242 1
2 2255 1
2 2297 1
2 2309 1
2 2313 1
2 2329 1
2 2358 1
2 2359 1
2 2373 1
2 2386 1
2 2402 1
2 2431 1
2 2434 1
2 2486 1
2 2503 1
2 2520 1
2 2529 1
2 2563 1
2 2572 1
2 2596 1
2 2638 1
2 2646 1
2 2650 1
2 2663 1
2 2691 1
2 2694 1
2 2728 1
2 2736 1
2 2744 1
2 2750 1
2 2825 1
2 2841 1
2 2901 1
2 2917 1
2 2994 1
3 5 1
3 6 1
3 9 1
3 14 1
3 15 1
3 16 1
3 17 1
3 20 1
3 21 1
3 23 1
3 31 1
3 36 1
3 37 1
3 42 1
3 53 1
3 54 1
3 71 1
3 76 1
3 82 1
3 83 1
3 85 1
3 90 1
3 98 1
3 106 1
3 111 1
3 116 1
3 128 1
3 130 1
3 138 1
3 140 1
3 148 1
3 178 1
3 189 1
3 190 1
3 239 1
3 243 1
3 247 1
3 279 1
3 335 1
3 369 1
3 377 1
3 378 1
3 395 1
3 400 1
3 401 1
3 437 1
3 456 1
3 458 1
3 527 1
3 545 1
3 557 1
3 573 1
3 583 1
3 585 1
3 593 1
3 597 1
3 599 1
3 633 1
3 661 1
3 682 1
3 684 1
3 687 1
3 697 1
3 747 1
3 791 1
3 806 1
3 818 1
3 829 1
3 830 1
3 852 1
3 857 1
3 902 1
3 906 1
3 919 1
3 924 1
3 934 1
3 936 1
3 959 1
3 1029 1
3 1080 1
3 1092 1
3 1136 1
3 1179 1
3 1187 1
3 1197 1
3 1216 1
3 1221 1
3 1227 1
3 1245 1
3 1250 1
3 1260 1
3 1287 1
3 1394 1
3 1395 1
3 1421 1
3 1463 1
3 1504 1
3 1515 1
3 1539 1
3 1549 1
3 1565 1
3 1575 1
3 1605 1
3 1663 1
3 1668 1
3 1673 1
3 1683 1
3 1774 1
3 1821 1
3 1822 1
3 1823 1
3 1849 1
3 1850 1
3 1875 1
3 1966 1
3 1968 1
3 1974 1
3 2033 1
3 2055 1
3 2067 1
3 2158 1
3 2206 1
3 2277 1
3 2304 1
3 2311 1
3 2321 1
3 2339 1
3 2368 1
3 2372 1
3 2466 1
3 2486 1
3 2505 1
3 2527 1
3 2557 1
3 2566 1
3 2725 1
3 2757 1
3 2782 1
3 2815 1
3 2834 1
3 2850 1
3 2865 1
3 2886 1
3 2891 1
3 2963 1
3 2971 1
4 5 1
4 6 1
4 9 1
4 16 1
4 20 1
4 24 1
4 36 1
4 39 1
4 46 1
4 60 1
4 88 1
4 117 1
4 177 1
4 241 1
4 277 1
4 281 1
4 343 1
4 608 1
4 636 1
4 673 1
4 678 1
4 785 1
4 821 1
4 940 1
4 1059 1
4 1089 1
4 1196 1
4 1291 1
4 1329 1
4 1523 1
4 1633 1
4 1643 1
4 1715 1
4 1918 1
4 2060 1
4 2123 1
4 2235 1
4 2363 1
4 2391 1
4 2685 1
4 2708 1
4 2827 1
4 2947 1
4 2984 1
5 1 1
5 2 1
5 3 1
5 4 1
5 6 1
5 7 1
5 8 1
5 10 1
5 11 1
5 12 1
5 13 1
5 14 1
5 15 1
5 17 1
5 30 1
5 33 1
5 42 1
5 44 1
5 53 1
5 61 1
5 67 1
5 71 1
5 72 1
5 103 1
5 121 1
5 153 1
5 156 1
5 159 1
5 162 1
5 171 1
5 200 1
5 209 1
5 238 1
5 243 1
5 256 1
5 264 1
5 269 1
5 329 1
5 349 1
5 364 1
5 370 1
5 407 1
5 439 1
5 455 1
5 496 1
5 524 1
5 567 1
5 577 1
5 585 1
5 601 1
5 603 1
5 604 1
5 669 1
5 672 1
5 695 1
5 696 1
5 735 1
5 743 1
5 748 1
5 763 1
5 772 1
5 789 1
5 839 1
5 849 1
5 860 1
5 863 1
5 872 1
5 929 1
5 932 1
5 960 1
5 997 1
5 1018 1
5 1039 1
5 1055 1
5 1060 1
5 1077 1
5 1096 1
5 1101 1
5 1172 1
5 1218 1
5 1269 1
5 1277 1
5 1314 1
5 1329 1
5 1335 1
5 1338 1
5 1359 1
5 1367 1
5 1476 1
5 1526 1
5 1565 1
5 1624 1
5 1635 1
5 1687 1
5 1738 1
5 1934 1
5 1946 1
5 1975 1
5 2082 1
5 2119 1
5 2138 1
5 2139 1
5 2187 1
5 2231 1
5 2301 1
5 2334 1
5 2488 1
5 2564 1
5 2643 1
5 2856 1
5 2864 1
5 2871 1
5 2881 1
5 2903 1
5 2944 1
6 2 1
6 3 1
6 4 1
6 5 1
6 7 1
6 8 1
6 11 1
6 17 1
6 23 1
6 27 1
6 44 1
6 51 1
6 52 1
6 60 1
6 64 1
6 69 1
6 114 1
6 115 1
6 172 1
6 193 1
6 196 1
6 208 1
6 213 1
6 238 1
6 347 1
6 401 1
6 416 1
6 452 1
6 493 1
6 496 1
6 586 1
6 640 1
6 766 1
6 868 1
6 920 1
6 984 1
6 1119 1
6 1159 1
6 1170 1
6 1189 1
6 1447 1
6 1497 1
6 1602 1
6 1749 1
6 1938 1
6 1941 1
6 2118 1
6 2180 1
6 2386 1
6 2452 1
6 2485 1
6 2685 1
6 2766 1
7 1 1
7 2 1
7 5 1
7 6 1
7 12 1
7 13 1
7 24 1
7 38 1
7 41 1
7 78 1
7 87 1
7 183 1
7 185 1
7 219 1
7 249 1
7 304 1
7 423 1
7 436 1
7 474 1
7 523 1
7 536 1
7 605 1
7 739 1
7 744 1
7 872 1
7 982 1
7 1521 1
7 1754 1
7 1779 1
7 1842 1
7 1978 1
7 2040 1
7 2264 1
7 2393 1
7 2880 1
8 2 1
8 5 1
8 6 1
8 18 1
8 22 1
8 56 1
8 110 1
8 416 1
8 449 1
8 467 1
8 555 1
8 764 1
8 1013 1
8 1342 1
8 1605 1
8 2083 1
8 2910 1
8 2966 1
9 1 1
9 2 1
9 3 1
9 4 1
9 10 1
9 12 1
9 13 1
9 15 1
9 16 1
9 19 1
9 21 1
9 24 1
9 27 1
9 28 1
9 33 1
9 39 1
9 47 1
9 48 1
9 49 1
9 55 1
9 57 1
9 60 1
9 65 1
9 69 1
9 70 1
9 85 1
9 88 1
9 92 1
9 98 1
9 99 1
9 102 1
9 105 1
9 108 1
9 112 1
9 122 1
9 129 1
9 130 1
9 131 1
9 139 1
9 141 1
9 142 1
9 143 1
9 147 1
9 150 1
9 151 1
9 159 1
9 167 1
9 172 1
9 180 1
9 184 1
9 187 1
9 188 1
9 189 1
9 193 1
9 194 1
9 217 1
9 237 1
9 241 1
9 242 1
9 261 1
9 278 1
9 287 1
9 296 1
9 303 1
9 304 1
9 308 1
9 313 1
9 357 1
9 360 1
9 367 1
9 371 1
9 378 1
9 385 1
9 389 1
9 390 1
9 400 1
9 407 1
9 422 1
9 425 1
9 428 1
9 432 1
9 444 1
9 448 1
9 473 1
9 481 1
9 492 1
9 497 1
9 499 1
9 520 1
9 521 1
9 526 1
9 540 1
9 542 1
9 552 1
9 558 1
9 561 1
9 570 1
9 574 1
9 580 1
9 592 1
9 593 1
9 611 1
9 618 1
9 620 1
9 629 1
9 634 1
9 637 1
9 644 1
9 663 1
9 671 1
9 679 1
9 692 1
9 698 1
9 702 1
9 732 1
9 738 1
9 755 1
9 796 1
9 797 1
9 816 1
9 821 1
9 831 1
9 855 1
9 865 1
9 866 1
9 870 1
9 876 1
9 882 1
9 889 1
9 891 1
9 907 1
9 918 1
9 929 1
9 941 1
9 990 1
9 996 1
9 1009 1
9 1010 1
9 1019 1
9 1046 1
9 1058 1
9 1084 1
9 1102 1
9 1134 1
9 1136 1
9 1139 1
9 1148 1
9 1151 1
9 1175 1
9 1182 1
9 1189 1
9 1199 1
9 1217 1
9 1231 1
9 1237 1
9 1239 1
9 1262 1
9 1299 1
9 1303 1
9 1304 1
9 1314 1
9 1316 1
9 1328 1
9 1343 1
9 1389 1
9 1393 1
9 1410 1
9 1413 1
9 1424 1
9 1439 1
9 1440 1
9 1463 1
9 1491 1
9 1492 1
9 1522 1
9 1532 1
9 1539 1
9 1550 1
9 1565 1
9 1576 1
9 1588 1
9 1604 1
9 1607 1
9 1609 1
9 1661 1
9 1666 1
9 1668 1
9 1670 1
9 1681 1
9 1693 1
9 1756 1
9 1781 1
9 1793 1
9 1802 1
9 1839 1
9 1861 1
9 1908 1
9 1909 1
9 1915 1
9 1924 1
9 1925 1
9 1997 1
9 2029 1
9 2032 1
9 2062 1
9 2069 1
9 2112 1
9 2127 1
9 2143 1
9 2169 1
9 2172 1
9 2177 1
9 2209 1
9 2219 1
9 2234 1
9 2260 1
9 2262 1
9 2273 1
9 2280 1
9 2292 1
9 2317 1
9 2361 1
9 2365 1
9 2395 1
9 2396 1
9 2416 1
9 2440 1
9 2464 1
9 2481 1
9 2484 1
9 2532 1
9 2540 1
9 2544 1
9 2570 1
9 2603 1
9 2622 1
9 2713 1
9 2732 1
9 2758 1
9 2778 1
9 2786 1
9 2818 1
9 2848 1
9 2857 1
9 2873 1
9 2930 1
9 2937 1
9 2972 1
9 2994 1
10 1 1
10 5 1
10 9 1
10 11 1
10 20 1
10 21 1
10 23 1
10 25 1
10 27 1
10 29 1
10 31 1
10 33 1
10 35 1
10 62 1
10 65 1
10 69 1
10 70 1
10 99 1
10 136 1
10 146 1
10 158 1
10 167 1
10 170 1
10 183 1
10 186 1
10 224 1
10 264 1
10 302 1
10 307 1
10 345 1
10 347 1
10 358 1
10 362 1
10 412 1
10 450 1
10 476 1
10 517 1
10 564 1
10 569 1
10 570 1
10 596 1
10 600 1
10 616 1
10 658 1
10 691 1
10 698 1
10 701 1
10 714 1
10 725 1
10 728 1
10 746 1
10 748 1
10 755 1
10 769 1
10 790 1
10 809 1
10 862 1
10 866 1
10 897 1
10 903 1
10 904 1
10 908 1
10 946 1
10 973 1
10 1028 1
10 1036 1
10 1235 1
10 1246 1
10 1252 1
10 1258 1
10 1310 1
10 1320 1
10 1399 1
10 1408 1
10 1423 1
10 1500 1
10 1501 1
10 1512 1
10 1527 1
10 1553 1
10 1577 1
10 1620 1
10 1675 1
10 1686 1
10 1719 1
10 1791 1
10 1805 1
10 1806 1
10 1834 1
10 1939 1
10 2038 1
10 2065 1
10 2070 1
10 2075 1
10 2078 1
10 2163 1
10 2165 1
10 2199 1
10 2239 1
10 2256 1
10 2293 1
10 2353 1
10 2356 1
10 2430 1
10 2443 1
10 2444 1
10 2514 1
10 2637 1
10 2642 1
10 2716 1
10 2723 1
10 2766 1
10 2774 1
10 2823 1
10 2832 1
10 2922 1
10 2944 1
10 2946 1
10 2964 1
10 2967 1
11 1 1
11 5 1
11 6 1
11 10 1
11 12 1
11 14 1
11 20 1
11 29 1
11 32 1
11 33 1
11 44 1
11 50 1
11 80 1
11 88 1
11 92 1
11 94 1
11 97 1
11 112 1
11 119 1
11 120 1
11 121 1
11 133 1
11 140 1
11 144 1
11 145 1
11 163 1
11 181 1
11 186 1
11 205 1
11 213 1
11 223 1
11 224 1
11 262 1
11 264 1
11 323 1
11 328 1
11 335 1
11 337 1
11 343 1
11 344 1
11 345 1
11 358 1
11 361 1
11 362 1
11 404 1
11 429 1
11 438 1
11 465 1
11 486 1
11 514 1
11 528 1
11 532 1
11 533 1
11 559 1
11 564 1
11 586 1
11 618 1
11 640 1
11 686 1
11 701 1
11 718 1
11 754 1
11 786 1
11 819 1
11 869 1
11 881 1
11 891 1
11 896 1
11 933 1
11 946 1
11 953 1
11 976 1
11 991 1
11 1027 1
11 1086 1
11 1092 1
11 1275 1
11 1278 1
11 1352 1
11 1365 1
11 1372 1
11 1399 1
11 1400 1
11 1437 1
11 1446 1
11 1448 1
11 1458 1
11 1514 1
11 1563 1
11 1568 1
11 1598 1
11 1601 1
11 1615 1
11 1644 1
11 1645 1
11 1690 1
11 1716 1
11 1757 1
11 1770 1
11 1775 1
11 1798 1
11 1873 1
11 1874 1
11 1881 1
11 1885 1
11 1892 1
11 1919 1
11 1981 1
11 2002 1
11 2026 1
11 2033 1
11 2066 1
11 2163 1
11 2183 1
11 2187 1
11 2198 1
11 2244 1
11 2260 1
11 2286 1
11 2302 1
11 2334 1
11 2341 1
11 2344 1
11 2351 1
11 2400 1
11 2437 1
11 2464 1
11 2543 1
11 2562 1
11 2598 1
11 2615 1
11 2618 1
11 2627 1
11 2657 1
11 2668 1
11 2685 1
11 2699 1
11 2757 1
11 2828 1
11 2861 1
11 2868 1
11 2907 1
11 2970 1
12 5 1
12 7 1
12 9 1
12 11 1
12 18 1
12 38 1
12 40 1
12 101 1
12 103 1
12 125 1
12 143 1
12 156 1
12 181 1
12 224 1
12 234 1
12 243 1
12 262 1
12 274 1
12 335 1
12 357 1
12 398 1
12 475 1
12 496 1
12 522 1
12 533 1
12 571 1
12 575 1
12 617 1
12 632 1
12 633 1
12 651 1
12 817 1
12 851 1
12 911 1
12 930 1
12 946 1
12 1086 1
12 1099 1
12 1178 1
12 1362 1
12 1401 1
12 1428 1
12 1543 1
12 1650 1
12 1667 1
12 1764 1
12 1946 1
12 2171 1
12 2287 1
12 2348 1
12 2365 1
12 2423 1
12 2470 1
12 2513 1
12 2593 1
12 2673 1
12 2688 1
12 2746 1
12 2832 1
12 2944 1
12 2965 1
13 1 1
13 5 1
13 7 1
13 9 1
13 26 1
13 28 1
13 29 1
13 35 1
13 45 1
13 48 1
13 56 1
13 63 1
13 77 1
13 81 1
13 110 1
13 127 1
13 169 1
13 172 1
13 193 1
13 195 1
13 200 1
13 204 1
13 212 1
13 214 1
13 220 1
13 222 1
13 226 1
13 240 1
13 253 1
13 259 1
13 278 1
13 287 1
13 334 1
13 350 1
13 354 1
13 359 1
13 415 1
13 418 1
13 447 1
13 448 1
13 470 1
13 483 1
13 566 1
13 632 1
13 741 1
13 767 1
13 783 1
13 837 1
13 874 1
13 939 1
13 957 1
13 972 1
13 989 1
13 1113 1
13 1148 1
13 1159 1
13 1183 1
13 1254 1
13 1286 1
13 1335 1
13 1677 1
13 1783 1
13 1928 1
13 2000 1
13 2007 1
13 2056 1
13 2110 1
13 2275 1
13 2327 1
13 2461 1
13 2500 1
13 2535 1
13 2567 1
13 2589 1
13 2590 1
13 2864 1
13 2926 1
13 2939 1
13 2945 1
14 1 1
14 3 1
14 5 1
14 11 1
14 26 1
14 44 1
14 46 1
14 79 1
14 83 1
14 111 1
14 116 1
14 122 1
14 145 1
14 156 1
14 192 1
14 205 1
14 223 1
14 355 1
14 368 1
14 374 1
14 399 1
14 405 1
14 467 1
14 510 1
14 562 1
14 567 1
14 646 1
14 680 1
14 730 1
14 791 1
14 814 1
14 899 1
14 1056 1
14 1095 1
14 1202 1
14 1306 1
14 1393 1
14 1489 1
14 1604 1
14 1672 1
14 1673 1
14 1773 1
14 1825 1
14 1864 1
14 1887 1
14 1982 1
14 2145 1
14 2175 1
14 2269 1
14 2608 1
14 2610 1
14 2732 1
14 2785 1
14 2799 1
14 2859 1
15 2 1
15 3 1
15 5 1
15 9 1
15 18 1
15 19 1
15 22 1
15 78 1
15 98 1
15 124 1
15 362 1
15 386 1
15 411 1
15 457 1
15 462 1
15 774 1
15 1105 1
15 1111 1
15 1150 1
15 1435 1
15 1492 1
15 1701 1
15 1858 1
15 1963 1
15 2139 1
15 2362 1
15 2523 1
15 2633 1
15 2781 1
15 2975 1
16 1 1
16 3 1
16 4 1
16 9 1
16 17 1
16 42 1
16 47 1
16 48 1
16 53 1
16 54 1
16 55 1
16 62 1
16 66 1
16 67 1
16 93 1
16 104 1
16 105 1
16 117 1
16 140 1
16 174 1
16 206 1
16 240 1
16 263 1
16 282 1
16 313 1
16 333 1
16 349 1
16 352 1
16 459 1
16 618 1
16 848 1
16 948 1
16 998 1
16 1136 1
16 1211 1
16 1245 1
16 1841 1
16 2073 1
16 2250 1
16 2391 1
16 2675 1
17 3 1
17 5 1
17 6 1
17 16 1
17 23 1
17 31 1
17 42 1
17 50 1
17 51 1
17 54 1
17 67 1
17 73 1
17 77 1
17 79 1
17 87 1
17 113 1
17 149 1
17 154 1
17 173 1
17 175 1
17 178 1
17 181 1
17 191 1
17 196 1
17 207 1
17 257 1
17 266 1
17 277 1
17 293 1
17 303 1
17 312 1
17 326 1
17 330 1
17 356 1
17 368 1
17 393 1
17 400 1
17 413 1
17 484 1
17 487 1
17 515 1
17 531 1
17 536 1
17 558 1
17 565 1
17 591 1
17 628 1
17 629 1
17 630 1
17 659 1
17 743 1
17 756 1
17 765 1
17 778 1
17 788 1
17 810 1
17 827 1
17 853 1
17 854 1
17 856 1
17 861 1
17 873 1
17 890 1
17 915 1
17 922 1
17 928 1
17 950 1
17 972 1
17 1006 1
17 1011 1
17 1043 1
17 1077 1
17 1087 1
17 1091 1
17 1123 1
17 1128 1
17 1143 1
17 1171 1
17 1182 1
17 1201 1
17 1259 1
17 1281 1
17 1282 1
17 1380 1
17 1398 1
17 1516 1
17 1542 1
17 1568 1
17 1593 1
17 1602 1
17 1617 1
17 1648 1
17 1656 1
17 1679 1
17 1687 1
17 1690 1
17 1842 1
17 1856 1
17 1945 1
17 1986 1
17 2040 1
17 2089 1
17 2093 1
17 2173 1
17 2322 1
17 2445 1
17 2495 1
17 2521 1
17 2524 1
17 2576 1
17 2580 1
17 2583 1
17 2618 1
17 2623 1
17 2662 1
17 2753 1
17 2805 1
17 2822 1
17 2866 1
17 2888 1
17 2897 1
17 2950 1
18 2 1
18 8 1
18 12 1
18 15 1
18 19 1
18 22 1
18 25 1
18 30 1
18 32 1
18 34 1
18 35 1
18 40 1
18 46 1
18 50 1
18 57 1
18 63 1
18 71 1
18 72 1
18 74 1
18 75 1
18 89 1
18 96 1
18 113 1
18 118 1
18 134 1
18 137 1
18 138 1
18 143 1
18 152 1
18 163 1
18 168 1
18 170 1
18 173 1
18 180 1
18 199 1
18 203 1
18 210 1
18 222 1
18 255 1
18 274 1
18 284 1
18 295 1
18 301 1
18 304 1
18 307 1
18 315 1
18 332 1
18 337 1
18 339 1
18 364 1
18 372 1
18 382 1
18 383 1
18 386 1
18 391 1
18 407 1
18 443 1
18 456 1
18 463 1
18 485 1
18 495 1
18 498 1
18 504 1
18 512 1
18 532 1
18 541 1
18 552 1
18 553 1
18 568 1
18 572 1
18 582 1
18 592 1
18 631 1
18 646 1
18 667 1
18 689 1
18 695 1
18 726 1
18 738 1
18 768 1
18 789 1
18 799 1
18 801 1
18 805 1
18 887 1
18 902 1
18 914 1
18 931 1
18 933 1
18 943 1
18 966 1
18 982 1
18 987 1
18 1023 1
18 1024 1
18 1034 1
18 1041 1
18 1047 1
18 1114 1
18 1208 1
18 1228 1
18 1230 1
18 1263 1
18 1279 1
18 1293 1
18 1307 1
18 1315 1
18 1352 1
18 1383 1
18 1401 1
18 1428 1
18 1431 1
18 1451 1
18 1464 1
18 1465 1
18 1470 1
18 1475 1
18 1491 1
18 1495 1
18 1506 1
18 1534 1
18 1551 1
18 1603 1
18 1623 1
18 1699 1
18 1743 1
18 1766 1
18 1778 1
18 1787 1
18 1807 1
18 1812 1
18 1815 1
18 1880 1
18 1906 1
18 1912 1
18 1932 1
18 1956 1
18 1971 1
18 1980 1
18 2002 1
18 2028 1
18 2043 1
18 2047 1
18 2083 1
18 2125 1
18 2147 1
18 2165 1
18 2195 1
18 2229 1
18 2284 1
18 2288 1
18 2300 1
18 2302 1
18 2320 1
18 2342 1
18 2399 1
18 2447 1
18 2498 1
18 2558 1
18 2560 1
18 2574 1
18 2611 1
18 2627 1
18 2629 1
18 2632 1
18 2635 1
18 2663 1
18 2710 1
18 2762 1
18 2764 1
18 2799 1
18 2852 1
18 2884 1
18 2899 1
18 2901 1
18 2908 1
18 2923 1
18 2969 1
19 2 1
19 9 1
19 15 1
19 18 1
19 26 1
19 34 1
19 40 1
19 124 1
19 132 1
19 145 1
19 166 1
19 230 1
19 246 1
19 252 1
19 293 1
19 294 1
19 366 1
19 375 1
19 440 1
19 463 1
19 500 1
19 508 1
19 556 1
19 594 1
19 770 1
19 774 1
19 1436 1
19 2030 1
19 2075 1
19 2114 1
19 2326 1
19 2371 1
20 3 1
20 4 1
20 10 1
20 11 1
20 24 1
20 29 1
20 36 1
20 37 1
20 41 1
20 43 1
20 45 1
20 75 1
20 121 1
20 169 1
20 174 1
20 177 1
20 211 1
20 224 1
20 229 1
20 277 1
20 287 1
20 312 1
20 317 1
20 333 1
20 366 1
20 380 1
20 396 1
20 431 1
20 450 1
20 489 1
20 530 1
20 539 1
20 550 1
20 573 1
20 679 1
20 732 1
20 804 1
20 867 1
20 870 1
20 912 1
20 968 1
20 1064 1
20 1093 1
20 1274 1
20 1309 1
20 1425 1
20 1518 1
20 1544 1
20 1584 1
20 1669 1
20 1709 1
20 1753 1
20 1762 1
20 1775 1
20 1781 1
20 1813 1
20 1827 1
20 1846 1
20 1865 1
20 1920 1
20 1921 1
20 2022 1
20 2039 1
20 2060 1
20 2095 1
20 2218 1
20 2267 1
20 2424 1
20 2454 1
20 2656 1
20 2706 1
20 2772 1
20 2813 1
21 1 1
21 3 1
21 9 1
21 10 1
21 27 1
21 28 1
21 68 1
21 76 1
21 85 1
21 99 1
21 107 1
21 108 1
21 111 1
21 114 1
21 128 1
21 131 1
21 135 1
21 139 1
21 146 1
21 155 1
21 157 1
21 212 1
21 215 1
21 228 1
21 234 1
21 263 1
21 276 1
21 290 1
21 330 1
21 347 1
21 359 1
21 361 1
21 372 1
21 394 1
21 420 1
21 427 1
21 441 1
21 521 1
21 544 1
21 560 1
21 668 1
21 722 1
21 739 1
21 840 1
21 886 1
21 1184 1
21 1259 1
21 1310 1
21 1395 1
21 1514 1
21 1585 1
21 1616 1
21 1693 1
21 1766 1
21 1903 1
21 1966 1
21 2106 1
21 2136 1
21 2140 1
21 2266 1
21 2285 1
21 2513 1
21 2730 1
21 2744 1
21 2789 1
21 2919 1
21 2961 1
22 2 1
22 8 1
22 15 1
22 18 1
22 34 1
22 78 1
22 81 1
22 137 1
22 163 1
22 214 1
22 281 1
22 502 1
22 505 1
22 539 1
22 806 1
22 1046 1
22 1544 1
22 1752 1
22 1795 1
22 2383 1
22 2592 1
22 2791 1
23 3 1
23 6 1
23 10 1
23 17 1
23 64 1
23 87 1
23 207 1
23 377 1
23 379 1
23 485 1
23 638 1
23 697 1
23 1393 1
23 1398 1
23 1457 1
23 1570 1
23 2095 1
23 2200 1
23 2591 1
24 4 1
24 7 1
24 9 1
24 20 1
24 41 1
24 43 1
24 233 1
24 241 1
24 636 1
24 733 1
24 1838 1
24 1954 1
24 2060 1
24 2255 1
25 1 1
25 2 1
25 10 1
25 18 1
25 32 1
25 36 1
25 39 1
25 41 1
25 43 1
25 47 1
25 84 1
25 96 1
25 102 1
25 105 1
25 106 1
25 131 1
25 136 1
25 152 1
25 176 1
25 182 1
25 230 1
25 258 1
25 261 1
25 262 1
25 270 1
25 310 1
25 319 1
25 328 1
25 334 1
25 357 1
25 392 1
25 461 1
25 466 1
25 474 1
25 478 1
25 491 1
25 546 1
25 554 1
25 560 1
25 579 1
25 621 1
25 622 1
25 634 1
25 635 1
25 645 1
25 654 1
25 690 1
25 694 1
25 754 1
25 757 1
25 762 1
25 808 1
25 825 1
25 840 1
25 852 1
25 916 1
25 923 1
25 929 1
25 949 1
25 965 1
25 976 1
25 983 1
25 988 1
25 1004 1
25 1026 1
25 1059 1
25 1125 1
25 1126 1
25 1130 1
25 1131 1
25 1141 1
25 1142 1
25 1150 1
25 1156 1
25 1157 1
25 1212 1
25 1223 1
25 1246 1
25 1328 1
25 1337 1
25 1356 1
25 1377 1
25 1402 1
25 1429 1
25 1451 1
25 1468 1
25 1481 1
25 1483 1
25 1528 1
25 1549 1
25 1626 1
25 1641 1
25 1647 1
25 1658 1
25 1670 1
25 1712 1
25 1718 1
25 1725 1
25 1761 1
25 1815 1
25 1879 1
25 1930 1
25 1949 1
25 1966 1
25 1992 1
25 1997 1
25 2025 1
25 2028 1
25 2097 1
25 2098 1
25 2130 1
25 2149 1
25 2170 1
25 2221 1
25 2251 1
25 2257 1
25 2265 1
25 2338 1
25 2436 1
25 2483 1
25 2494 1
25 2517 1
25 2523 1
25 2559 1
25 2566 1
25 2580 1
25 2585 1
25 2704 1
25 2737 1
25 2763 1
25 2792 1
25 2815 1
25 2830 1
25 2833 1
25 2863 1
25 2882 1
25 2894 1
25 2921 1
25 2983 1
25 2991 1
26 1 1
26 13 1
26 14 1
26 19 1
26 59 1
26 83 1
26 86 1
26 154 1
26 206 1
26 216 1
26 235 1
26 256 1
26 270 1
26 376 1
26 403 1
26 500 1
26 545 1
26 550 1
26 577 1
26 759 1
26 774 1
26 884 1
26 1284 1
26 1293 1
26 1517 1
26 1571 1
26 1595 1
26 1736 1
26 1766 1
26 1909 1
26 2128 1
26 2687 1
26 2728 1
26 2734 1
26 2940 1
27 6 1
27 9 1
27 10 1
27 21 1
27 28 1
27 30 1
27 31 1
27 34 1
27 38 1
27 45 1
27 49 1
27 53 1
27 59 1
27 71 1
27 80 1
27 84 1
27 91 1
27 135 1
27 151 1
27 160 1
27 161 1
27 165 1
27 167 1
27 171 1
27 173 1
27 180 1
27 183 1
27 191 1
27 198 1
27 199 1
27 213 1
27 237 1
27 260 1
27 273 1
27 280 1
27 282 1
27 292 1
27 323 1
27 331 1
27 338 1
27 354 1
27 360 1
27 367 1
27 374 1
27 380 1
27 390 1
27 424 1
27 438 1
27 466 1
27 483 1
27 493 1
27 494 1
27 517 1
27 527 1
27 532 1
27 541 1
27 547 1
27 555 1
27 569 1
27 596 1
27 599 1
27 656 1
27 675 1
27 680 1
27 681 1
27 706 1
27 714 1
27 717 1
27 719 1
27 725 1
27 727 1
27 767 1
27 775 1
27 790 1
27 805 1
27 827 1
27 832 1
27 900 1
27 930 1
27 939 1
27 940 1
27 978 1
27 1008 1
27 1017 1
27 1026 1
27 1036 1
27 1043 1
27 1061 1
27 1063 1
27 1071 1
27 1078 1
27 1079 1
27 1094 1
27 1100 1
27 1123 1
27 1156 1
27 1220 1
27 1224 1
27 1284 1
27 1291 1
27 1300 1
27 1324 1
27 1344 1
27 1358 1
27 1391 1
27 1513 1
27 1587 1
27 1597 1
27 1671 1
27 1694 1
27 1707 1
27 1752 1
27 1755 1
27 1759 1
27 1819 1
27 1822 1
27 1873 1
27 1876 1
27 1884 1
27 1953 1
27 1955 1
27 1958 1
27 1968 1
27 2013 1
27 2017 1
27 2024 1
27 2029 1
27 2042 1
27 2049 1
27 2092 1
27 2111 1
27 2208 1
27 2250 1
27 2276 1
27 2299 1
27 2317 1
27 2323 1
27 2377 1
27 2382 1
27 2462 1
27 2471 1
27 2477 1
27 2504 1
27 2521 1
27 2539 1
27 2554 1
27 2603 1
27 2620 1
27 2705 1
27 2743 1
27 2815 1
27 2884 1
28 9 1
28 13 1
28 21 1
28 27 1
28 30 1
28 35 1
28 45 1
28 46 1
28 49 1
28 52 1
28 58 1
28 75 1
28 94 1
28 99 1
28 101 1
28 114 1
28 128 1
28 147 1
28 168 1
28 169 1
28 231 1
28 233 1
28 265 1
28 267 1
28 275 1
28 276 1
28 304 1
28 306 1
28 312 1
28 327 1
28 344 1
28 348 1
28 388 1
28 409 1
28 415 1
28 419 1
28 514 1
28 617 1
28 628 1
28 660 1
28 709 1
28 771 1
28 780 1
28 786 1
28 828 1
28 832 1
28 930 1
28 1086 1
28 1141 1
28 1180 1
28 1207 1
28 1208 1
28 1220 1
28 1250 1
28 1269 1
28 1298 1
28 1346 1
28 1357 1
28 1396 1
28 1465 1
28 1500 1
28 1575 1
28 1684 1
28 1889 1
28 1954 1
28 2071 1
28 2121 1
28 2143 1
28 2147 1
28 2250 1
28 2266 1
28 2344 1
28 2373 1
28 2374 1
28 2504 1
28 2625 1
28 2642 1
28 2652 1
28 2715 1
28 2865 1
28 2919 1
28 2961 1
29 10 1
29 11 1
29 13 1
29 20 1
29 65 1
29 124 1
29 157 1
29 158 1
29 175 1
29 192 1
29 202 1
29 217 1
29 227 1
29 232 1
29 287 1
29 402 1
29 450 1
29 472 1
29 511 1
29 516 1
29 540 1
29 562 1
29 576 1
29 595 1
29 664 1
29 698 1
29 721 1
29 730 1
29 803 1
29 1012 1
29 1140 1
29 1190 1
29 1247 1
29 1301 1
29 1383 1
29 1413 1
29 1485 1
29 1504 1
29 1570 1
29 1711 1
29 1813 1
29 1886 1
29 1962 1
29 2037 1
29 2056 1
29 2063 1
29 2450 1
29 2588 1
29 2607 1
29 2638 1
29 2647 1
29 2682 1
29 2688 1
29 2827 1
29 2920 1
30 5 1
30 18 1
30 27 1
30 28 1
30 40 1
30 49 1
30 57 1
30 147 1
30 159 1
30 299 1
30 321 1
30 341 1
30 363 1
30 374 1
30 429 1
30 494 1
30 523 1
30 589 1
30 641 1
30 642 1
30 651 1
30 850 1
30 1069 1
30 1135 1
30 1280 1
30 1307 1
30 1471 1
30 1541 1
30 1575 1
30 1699 1
30 1708 1
30 1763 1
30 2890 1
30 2938 1
31 3 1
31 10 1
31 17 1
31 27 1
31 37 1
31 38 1
31 61 1
31 97 1
31 149 1
31 191 1
31 202 1
31 319 1
31 381 1
31 398 1
31 606 1
31 750 1
31 1146 1
31 1165 1
31 1278 1
31 1534 1
31 1665 1
31 1907 1
31 2299 1
31 2890 1
31 2917 1
31 2941 1
31 2983 1
32 1 1
32 11 1
32 18 1
32 25 1
32 50 1
32 101 1
32 136 1
32 166 1
32 197 1
32 203 1
32 458 1
32 1549 1
32 2372 1
33 5 1
33 9 1
33 10 1
33 11 1
33 68 1
33 92 1
33 153 1
33 172 1
33 207 1
33 276 1
33 358 1
33 445 1
33 669 1
33 742 1
33 832 1
33 970 1
33 1049 1
33 1394 1
33 1458 1
33 1481 1
33 1563 1
33 1576 1
33 1615 1
33 1629 1
33 1714 1
33 1724 1
33 1834 1
33 1890 1
33 1904 1
33 2078 1
33 2236 1
33 2267 1
33 2404 1
33 2458 1
33 2478 1
33 2501 1
33 2869 1
33 2922 1
33 2988 1
34 18 1
34 19 1
34 22 1
34 27 1
34 55 1
34 77 1
34 90 1
34 91 1
34 92 1
34 142 1
34 148 1
34 168 1
34 174 1
34 195 1
34 202 1
34 220 1
34 247 1
34 321 1
34 338 1
34 430 1
34 529 1
34 540 1
34 567 1
34 602 1
34 606 1
34 652 1
34 703 1
34 715 1
34 740 1
34 742 1
34 757 1
34 823 1
34 882 1
34 957 1
34 980 1
34 993 1
34 1087 1
34 1161 1
34 1172 1
34 1179 1
34 1317 1
34 1332 1
34 1353 1
34 1384 1
34 1478 1
34 1544 1
34 1557 1
34 1698 1
34 1700 1
34 1767 1
34 1801 1
34 1952 1
34 2015 1
34 2052 1
34 2060 1
34 2549 1
34 2561 1
34 2601 1
34 2678 1
34 2769 1
34 2800 1
34 2810 1
35 10 1
35 13 1
35 18 1
35 28 1
35 51 1
35 57 1
35 63 1
35 86 1
35 170 1
35 179 1
35 272 1
35 302 1
35 318 1
35 340 1
35 342 1
35 383 1
35 475 1
35 707 1
35 748 1
35 783 1
35 822 1
35 828 1
35 843 1
35 867 1
35 892 1
35 951 1
35 1097 1
35 1116 1
35 1121 1
35 1258 1
35 1341 1
35 1410 1
35 1490 1
35 1491 1
35 1582 1
35 1628 1
35 1647 1
35 1844 1
35 1924 1
35 1970 1
35 2043 1
35 2061 1
35 2148 1
35 2278 1
35 2323 1
35 2380 1
35 2703 1
35 2835 1
36 3 1
36 4 1
36 20 1
36 25 1
36 59 1
36 111 1
36 123 1
36 146 1
36 246 1
36 289 1
36 388 1
36 430 1
36 485 1
36 521 1
36 579 1
36 642 1
36 645 1
36 683 1
36 711 1
36 788 1
36 808 1
36 883 1
36 995 1
36 1084 1
36 1088 1
36 1140 1
36 1142 1
36 1274 1
36 1322 1
36 1389 1
36 1424 1
36 1526 1
36 1553 1
36 1625 1
36 1692 1
36 1840 1
36 1990 1
36 2022 1
36 2135 1
36 2235 1
36 2241 1
36 2287 1
36 2356 1
36 2358 1
36 2418 1
36 2469 1
36 2663 1
36 2685 1
36 2708 1
36 2736 1
36 2885 1
36 2940 1
37 1 1
37 3 1
37 20 1
37 31 1
37 64 1
37 74 1
37 82 1
37 90 1
37 100 1
37 185 1
37 708 1
37 750 1
37 959 1
37 1268 1
37 1287 1
37 1305 1
37 1357 1
37 1584 1
37 1767 1
37 2087 1
37 2160 1
37 2178 1
37 2181 1
37 2460 1
37 2475 1
37 2526 1
37 2552 1
37 2603 1
37 2953 1
38 7 1
38 12 1
38 27 1
38 31 1
38 84 1
38 89 1
38 158 1
38 171 1
38 507 1
38 533 1
38 713 1
38 1171 1
38 1552 1
38 1764 1
38 1875 1
38 2576 1
39 2 1
39 4 1
39 9 1
39 25 1
39 51 1
39 64 1
39 84 1
39 104 1
39 106 1
39 118 1
39 134 1
39 144 1
39 185 1
39 201 1
39 225 1
39 271 1
39 324 1
39 373 1
39 431 1
39 443 1
39 495 1
39 501 1
39 587 1
39 605 1
39 623 1
39 860 1
39 895 1
39 1065 1
39 1386 1
39 1460 1
39 1618 1
39 1893 1
39 2000 1
39 2048 1
39 2113 1
39 2418 1
39 2668 1
39 2680 1
40 12 1
40 18 1
40 19 1
40 30 1
40 100 1
40 153 1
40 248 1
40 322 1
40 463 1
40 2768 1
41 7 1
41 20 1
41 24 1
41 25 1
41 152 1
41 249 1
41 254 1
41 277 1
41 362 1
41 409 1
41 529 1
41 661 1
41 696 1
41 701 1
41 718 1
41 829 1
41 842 1
41 879 1
41 937 1
41 968 1
41 1236 1
41 1246 1
41 1345 1
41 1427 1
41 1478 1
41 1481 1
41 1758 1
41 1851 1
41 1996 1
41 2035 1
41 2295 1
41 2436 1
41 2489 1
41 2506 1
41 2594 1
41 2628 1
41 2679 1
41 2741 1
42 3 1
42 5 1
42 16 1
42 17 1
42 67 1
42 156 1
42 181 1
42 368 1
42 528 1
42 684 1
42 753 1
42 777 1
42 791 1
42 848 1
42 1005 1
42 1236 1
42 1242 1
42 1415 1
42 1468 1
42 1821 1
42 2289 1
42 2385 1
42 2484 1
42 2650 1
42 2737 1
42 2824 1
42 2916 1
43 1 1
43 20 1
43 24 1
43 25 1
43 258 1
43 391 1
43 451 1
43 456 1
43 478 1
43 535 1
43 767 1
43 840 1
43 887 1
43 1190 1
43 1468 1
43 1793 1
43 1813 1
43 2833 1
44 5 1
44 6 1
44 11 1
44 14 1
44 72 1
44 79 1
44 83 1
44 119 1
44 140 1
44 162 1
44 283 1
44 471 1
44 602 1
44 640 1
44 688 1
44 689 1
44 751 1
44 818 1
44 935 1
44 1066 1
44 1102 1
44 1197 1
44 1329 1
44 1340 1
44 1593 1
44 1649 1
44 1722 1
44 1736 1
44 2069 1
44 2172 1
44 2355 1
44 2510 1
44 2631 1
44 2648 1
44 2684 1
44 2899 1
44 2915 1
45 13 1
45 20 1
45 27 1
45 28 1
45 63 1
45 75 1
45 127 1
45 1222 1
45 1227 1
45 1229 1
45 1350 1
45 1396 1
45 1614 1
45 2537 1
45 2797 1
46 4 1
46 14 1
46 18 1
46 28 1
46 199 1
46 730 1
46 1042 1
46 1291 1
46 1926 1
46 2003 1
47 2 1
47 9 1
47 16 1
47 25 1
47 48 1
47 52 1
47 56 1
47 96 1
47 122 1
47 130 1
47 187 1
47 201 1
47 233 1
47 247 1
47 260 1
47 354 1
47 454 1
47 604 1
47 724 1
47 833 1
47 910 1
47 923 1
47 1027 1
47 1294 1
47 1342 1
47 1704 1
47 1797 1
47 1984 1
47 2217 1
47 2391 1
47 2520 1
47 2670 1
47 2689 1
48 9 1
48 13 1
48 16 1
48 47 1
48 155 1
48 286 1
48 441 1
48 603 1
48 853 1
48 949 1
48 2376 1
48 2707 1
48 2918 1
49 9 1
49 27 1
49 28 1
49 30 1
49 52 1
49 58 1
49 215 1
49 280 1
49 308 1
49 371 1
49 395 1
49 426 1
49 438 1
49 559 1
49 627 1
49 829 1
49 847 1
49 921 1
49 1065 1
49 1317 1
49 1414 1
49 2453 1
49 2485 1
49 2712 1
49 2965 1
50 11 1
50 17 1
50 18 1
50 32 1
50 66 1
50 73 1
50 79 1
50 103 1
50 113 1
50 120 1
50 125 1
50 127 1
50 144 1
50 164 1
50 165 1
50 166 1
50 205 1
50 225 1
50 226 1
50 253 1
50 325 1
50 336 1
50 390 1
50 397 1
50 413 1
50 433 1
50 437 1
50 490 1
50 542 1
50 562 1
50 607 1
50 650 1
50 733 1
50 768 1
50 794 1
50 799 1
50 816 1
50 836 1
50 849 1
50 854 1
50 908 1
50 941 1
50 961 1
50 969 1
50 1039 1
50 1104 1
50 1212 1
50 1251 1
50 1304 1
50 1366 1
50 1404 1
50 1449 1
50 1470 1
50 1546 1
50 1592 1
50 1690 1
50 1872 1
50 1948 1
50 1950 1
50 2163 1
50 2169 1
50 2214 1
50 2509 1
50 2530 1
50 2676 1
50 2779 1
50 2868 1
50 2902 1
50 2973 1
50 2983 1
50 2997 1
51 6 1
51 17 1
51 35 1
51 39 1
51 116 1
51 134 1
51 149 1
51 293 1
51 432 1
51 580 1
51 1231 1
51 1502 1
51 1531 1
51 2113 1
51 2185 1
51 2573 1
51 2634 1
51 2874 1
51 2970 1
52 6 1
52 28 1
52 47 1
52 49 1
52 58 1
52 59 1
52 93 1
52 238 1
52 265 1
52 289 1
52 431 1
52 446 1
52 537 1
52 595 1
52 695 1
52 709 1
52 829 1
52 910 1
52 1019 1
52 1154 1
52 1231 1
52 1401 1
52 1636 1
52 1721 1
52 1888 1
52 1963 1
52 1984 1
52 2285 1
52 2374 1
52 2433 1
52 2442 1
52 2500 1
52 2601 1
52 2676 1
52 2689 1
52 2694 1
52 2844 1
52 2924 1
52 2930 1
53 3 1
53 5 1
53 16 1
53 27 1
53 95 1
53 112 1
53 128 1
53 527 1
53 682 1
53 799 1
53 865 1
53 907 1
53 1008 1
53 1022 1
53 1181 1
53 1319 1
53 1689 1
53 1947 1
53 2879 1
54 1 1
54 3 1
54 16 1
54 17 1
54 60 1
54 74 1
54 82 1
54 124 1
54 150 1
54 221 1
54 242 1
54 248 1
54 378 1
54 385 1
54 411 1
54 515 1
54 608 1
54 720 1
54 984 1
54 1062 1
54 1147 1
54 1515 1
54 1711 1
54 1828 1
54 2183 1
54 2305 1
54 2781 1
54 2813 1
54 2866 1
54 2882 1
55 1 1
55 9 1
55 16 1
55 34 1
55 109 1
55 123 1
55 131 1
55 219 1
55 266 1
55 436 1
55 506 1
55 702 1
55 773 1
55 1161 1
55 1304 1
55 1384 1
55 1540 1
55 1566 1
55 1592 1
55 1682 1
55 2347 1
55 2471 1
55 2873 1
56 2 1
56 8 1
56 13 1
56 47 1
56 222 1
56 255 1
56 454 1
57 9 1
57 18 1
57 30 1
57 35 1
57 65 1
57 70 1
57 78 1
57 86 1
57 106 1
57 195 1
57 204 1
57 217 1
57 258 1
57 272 1
57 295 1
57 315 1
57 345 1
57 388 1
57 518 1
57 526 1
57 566 1
57 581 1
57 600 1
57 706 1
57 707 1
57 752 1
57 828 1
57 868 1
57 897 1
57 934 1
57 952 1
57 1130 1
57 1249 1
57 1477 1
57 1484 1
57 1499 1
57 1523 1
57 1525 1
57 1561 1
57 1569 1
57 1594 1
57 1697 1
57 1763 1
57 1789 1
57 1932 1
57 2020 1
57 2047 1
57 2257 1
57 2308 1
57 2381 1
57 2517 1
57 2540 1
57 2577 1
57 2657 1
57 2900 1
58 1 1
58 28 1
58 49 1
58 52 1
58 61 1
58 312 1
58 371 1
58 537 1
58 690 1
58 704 1
58 923 1
58 940 1
58 1300 1
58 1318 1
58 1378 1
58 1395 1
58 1420 1
58 1429 1
58 1477 1
58 1608 1
58 1738 1
58 2001 1
58 2442 1
58 2630 1
58 2722 1
58 2907 1
58 2936 1
58 3000 1
59 26 1
59 27 1
59 36 1
59 52 1
59 93 1
59 165 1
59 190 1
59 328 1
59 555 1
59 650 1
59 1379 1
59 1840 1
59 2546 1
59 2889 1
60 4 1
60 6 1
60 9 1
60 54 1
60 95 1
60 129 1
60 150 1
60 164 1
60 169 1
60 184 1
60 241 1
60 244 1
60 281 1
60 385 1
60 389 1
60 428 1
60 448 1
60 486 1
60 608 1
60 617 1
60 705 1
60 729 1
60 738 1
60 777 1
60 801 1
60 811 1
60 856 1
60 903 1
60 962 1
60 974 1
60 1001 1
60 1041 1
60 1276 1
60 1277 1
60 1437 1
60 1506 1
60 1543 1
60 1584 1
60 1687 1
60 1696 1
60 1715 1
60 1757 1
60 1792 1
60 1872 1
60 1894 1
60 1895 1
60 1905 1
60 1958 1
60 1959 1
60 2109 1
60 2227 1
60 2252 1
60 2262 1
60 2448 1
60 2528 1
60 2648 1
61 1 1
61 5 1
61 31 1
61 58 1
61 62 1
61 97 1
61 100 1
61 200 1
61 238 1
61 239 1
61 398 1
61 418 1
61 460 1
61 537 1
61 770 1
61 939 1
61 1040 1
61 1331 1
61 2001 1
61 2056 1
61 2321 1
61 2557 1
61 2740 1
62 1 1
62 10 1
62 16 1
62 61 1
62 66 1
62 97 1
62 160 1
62 186 1
62 239 1
62 460 1
62 514 1
62 720 1
62 859 1
62 986 1
62 1284 1
62 1331 1
62 1386 1
62 1493 1
62 1618 1
62 1760 1
62 1794 1
62 2335 1
62 2428 1
62 2709 1
62 2751 1
63 13 1
63 18 1
63 35 1
63 45 1
63 74 1
63 382 1
63 689 1
63 874 1
63 1426 1
63 1470 1
63 1977 1
63 2969 1
64 6 1
64 23 1
64 37 1
64 39 1
64 178 1
64 236 1
64 269 1
64 356 1
64 380 1
64 426 1
64 460 1
64 970 1
64 1393 1
64 1570 1
65 9 1
65 10 1
65 29 1
65 57 1
65 70 1
65 189 1
65 412 1
65 542 1
65 752 1
65 862 1
65 911 1
65 927 1
65 1055 1
65 1173 1
65 1201 1
65 1301 1
65 1315 1
65 1368 1
65 1599 1
65 1652 1
65 1728 1
65 1747 1
65 1972 1
65 2142 1
65 2493 1
65 2640 1
65 2824 1
65 2993 1
66 1 1
66 16 1
66 50 1
66 62 1
66 73 1
66 89 1
66 95 1
66 109 1
66 155 1
66 177 1
66 229 1
66 237 1
66 375 1
66 544 1
66 623 1
66 768 1
66 947 1
66 1036 1
66 1090 1
66 1219 1
66 1308 1
66 1737 1
66 1826 1
66 2415 1
66 2420 1
66 2845 1
67 5 1
67 16 1
67 17 1
67 42 1
67 183 1
67 194 1
67 225 1
67 227 1
67 296 1
67 368 1
67 487 1
67 594 1
67 672 1
67 698 1
67 822 1
67 971 1
67 1005 1
67 1049 1
67 1051 1
67 1206 1
67 1364 1
67 1400 1
67 1513 1
67 1762 1
67 1841 1
67 1865 1
67 2447 1
67 2742 1
67 2879 1
68 1 1
68 2 1
68 21 1
68 33 1
68 69 1
68 94 1
68 105 1
68 153 1
68 219 1
68 223 1
68 231 1
68 236 1
68 348 1
68 488 1
68 520 1
68 708 1
68 777 1
68 972 1
68 1025 1
68 1217 1
68 1259 1
68 1276 1
68 1324 1
68 1394 1
68 1678 1
68 1688 1
68 1745 1
68 1992 1
68 1996 1
68 2174 1
68 2297 1
68 2473 1
68 2489 1
68 2620 1
68 2647 1
68 2707 1
68 2785 1
68 2842 1
68 2867 1
68 2976 1
69 6 1
69 9 1
69 10 1
69 68 1
69 113 1
69 326 1
69 346 1
69 348 1
69 365 1
69 372 1
69 390 1
69 589 1
69 641 1
69 673 1
69 737 1
69 773 1
69 1021 1
69 1107 1
69 1135 1
69 1238 1
69 1288 1
69 1356 1
69 1369 1
69 1709 1
69 1829 1
69 1860 1
69 2027 1
69 2082 1
69 2205 1
69 2263 1
69 2438 1
69 2447 1
69 2964 1
70 9 1
70 10 1
70 57 1
70 65 1
70 295 1
70 410 1
70 474 1
70 714 1
70 2047 1
70 2212 1
70 2577 1
71 3 1
71 5 1
71 18 1
71 27 1
71 91 1
71 142 1
71 178 1
71 273 1
71 333 1
71 370 1
71 489 1
71 620 1
71 659 1
71 979 1
71 1060 1
71 1074 1
71 1076 1
71 1217 1
71 1397 1
71 1538 1
71 1574 1
71 1818 1
71 1917 1
71 2171 1
71 2648 1
71 2720 1
72 1 1
72 5 1
72 18 1
72 44 1
72 948 1
72 2300 1
73 1 1
73 17 1
73 50 1
73 66 1
73 80 1
73 89 1
73 95 1
73 109 1
73 117 1
73 125 1
73 161 1
73 197 1
73 231 1
73 314 1
73 340 1
73 519 1
73 544 1
73 548 1
73 624 1
73 724 1
73 747 1
73 826 1
73 854 1
73 863 1
73 979 1
73 1003 1
73 1016 1
73 1176 1
73 1219 1
73 1449 1
73 1470 1
73 1545 1
73 1557 1
73 1569 1
73 1845 1
73 1917 1
73 1964 1
73 2076 1
73 2152 1
73 2216 1
73 2225 1
73 2518 1
73 2572 1
73 2822 1
73 2870 1
73 2907 1
73 2948 1
74 18 1
74 37 1
74 54 1
74 63 1
74 90 1
74 100 1
74 126 1
74 129 1
74 251 1
74 316 1
74 329 1
74 386 1
74 442 1
74 482 1
74 499 1
74 516 1
74 612 1
74 638 1
74 664 1
74 666 1
74 688 1
74 722 1
74 769 1
74 785 1
74 793 1
74 813 1
74 865 1
74 922 1
74 997 1
74 1017 1
74 1053 1
74 1062 1
74 1073 1
74 1080 1
74 1145 1
74 1147 1
74 1258 1
74 1464 1
74 1484 1
74 1487 1
74 1509 1
74 1642 1
74 1780 1
74 1877 1
74 1881 1
74 1900 1
74 1923 1
74 1929 1
74 2045 1
74 2109 1
74 2188 1
74 2189 1
74 2312 1
74 2467 1
74 2507 1
74 2548 1
75 18 1
75 20 1
75 28 1
75 45 1
75 94 1
75 115 1
75 137 1
75 300 1
75 301 1
75 313 1
75 317 1
75 348 1
75 393 1
75 443 1
75 561 1
75 587 1
75 660 1
75 824 1
75 892 1
75 938 1
75 1123 1
75 1164 1
75 1166 1
75 1208 1
75 1229 1
75 1435 1
75 1448 1
75 1475 1
75 1501 1
75 1744 1
75 1824 1
75 2004 1
75 2114 1
75 2121 1
75 2164 1
75 2192 1
75 2207 1
75 2228 1
75 2441 1
75 2492 1
75 2539 1
75 2692 1
76 1 1
76 2 1
76 3 1
76 21 1
76 115 1
76 139 1
76 188 1
76 204 1
76 245 1
76 250 1
76 291 1
76 325 1
76 361 1
76 387 1
76 429 1
76 473 1
76 622 1
76 634 1
76 662 1
76 693 1
76 726 1
76 734 1
76 769 1
76 950 1
76 978 1
76 1105 1
76 1117 1
76 1360 1
76 1547 1
76 1788 1
76 1984 1
76 2070 1
76 2192 1
76 2233 1
76 2249 1
76 2505 1
76 2693 1
76 2735 1
77 1 1
77 13 1
77 17 1
77 34 1
77 86 1
77 102 1
77 132 1
77 157 1
77 166 1
77 201 1
77 272 1
77 281 1
77 299 1
77 347 1
77 353 1
77 452 1
77 497 1
77 503 1
77 583 1
77 598 1
77 613 1
77 700 1
77 739 1
77 811 1
77 820 1
77 853 1
77 880 1
77 895 1
77 949 1
77 955 1
77 1029 1
77 1168 1
77 1317 1
77 1373 1
77 1375 1
77 1434 1
77 1447 1
77 1507 1
77 1598 1
77 1779 1
77 1804 1
77 1882 1
77 1951 1
77 1985 1
77 2503 1
77 2813 1
78 7 1
78 15 1
78 22 1
78 57 1
78 137 1
78 157 1
78 423 1
78 504 1
78 737 1
78 1488 1
78 1789 1
78 1795 1
78 1942 1
78 2497 1
78 2725 1
79 14 1
79 17 1
79 44 1
79 50 1
79 144 1
79 162 1
79 209 1
79 425 1
79 566 1
79 598 1
79 782 1
79 1340 1
79 1402 1
79 1408 1
79 1754 1
79 2497 1
79 2617 1
80 1 1
80 11 1
80 27 1
80 73 1
80 98 1
80 101 1
80 119 1
80 133 1
80 160 1
80 236 1
80 457 1
80 519 1
80 626 1
80 677 1
80 775 1
80 1054 1
80 1242 1
80 1262 1
80 1423 1
80 1596 1
80 1752 1
80 2254 1
80 2261 1
80 2437 1
80 2642 1
81 1 1
81 2 1
81 13 1
81 22 1
81 126 1
81 127 1
81 214 1
81 274 1
81 837 1
81 844 1
81 1355 1
81 1483 1
81 1548 1
81 1961 1
81 2179 1
81 2333 1
81 2568 1
82 1 1
82 3 1
82 37 1
82 54 1
82 135 1
82 324 1
82 425 1
82 479 1
82 608 1
82 666 1
82 691 1
82 708 1
82 716 1
82 722 1
82 837 1
82 929 1
82 984 1
82 1010 1
82 1096 1
82 1148 1
82 1430 1
82 1837 1
82 1994 1
82 2182 1
82 2213 1
82 2550 1
83 3 1
83 14 1
83 26 1
83 44 1
83 150 1
83 302 1
83 351 1
83 399 1
83 403 1
83 414 1
83 582 1
83 648 1
83 688 1
83 712 1
83 1070 1
83 1074 1
83 1155 1
83 1234 1
83 1433 1
83 1517 1
83 1600 1
83 1655 1
83 1811 1
83 1835 1
83 2170 1
83 2491 1
83 2728 1
83 2744 1
83 2819 1
83 2912 1
83 2949 1
84 25 1
84 27 1
84 38 1
84 39 1
84 118 1
84 424 1
84 431 1
84 507 1
84 857 1
84 1010 1
84 1065 1
84 1125 1
84 1294 1
84 1382 1
84 1414 1
84 1553 1
84 1820 1
84 1952 1
84 2431 1
84 2629 1
84 2927 1
85 3 1
85 9 1
85 21 1
85 147 1
85 279 1
85 309 1
85 637 1
85 661 1
85 1108 1
85 1151 1
85 1233 1
85 1396 1
85 1447 1
85 1450 1
85 1524 1
85 1659 1
85 1774 1
85 2454 1
85 2588 1
85 2744 1
86 26 1
86 35 1
86 57 1
86 77 1
86 254 1
86 256 1
86 268 1
86 403 1
86 435 1
86 497 1
86 525 1
86 545 1
86 674 1
86 736 1
86 888 1
86 1595 1
86 1737 1
86 2067 1
86 2339 1
86 2743 1
87 2 1
87 7 1
87 17 1
87 23 1
87 404 1
87 423 1
87 712 1
87 1748 1
87 2054 1
87 2400 1
88 2 1
88 4 1
88 9 1
88 11 1
88 126 1
88 129 1
88 182 1
88 369 1
88 477 1
88 514 1
88 779 1
88 2066 1
88 2314 1
89 18 1
89 38 1
89 66 1
89 73 1
89 102 1
89 273 1
89 315 1
89 560 1
89 658 1
89 706 1
89 731 1
89 824 1
89 945 1
89 1083 1
89 1169 1
89 1270 1
89 1326 1
89 1573 1
89 2220 1
89 2253 1
89 2343 1
89 2442 1
89 2461 1
89 2654 1
90 3 1
90 34 1
90 37 1
90 74 1
90 110 1
90 119 1
90 148 1
90 247 1
90 290 1
90 316 1
90 378 1
90 394 1
90 449 1
90 573 1
90 582 1
90 618 1
90 715 1
90 980 1
90 1002 1
90 1367 1
90 1515 1
90 2191 1
90 2424 1
90 2645 1
90 2759 1
90 2799 1
91 1 1
91 27 1
91 34 1
91 71 1
91 116 1
91 123 1
91 142 1
91 151 1
91 273 1
91 280 1
91 321 1
91 418 1
91 498 1
91 605 1
91 616 1
91 620 1
91 1025 1
91 1042 1
91 1043 1
91 1187 1
91 1210 1
91 1224 1
91 1317 1
91 1411 1
91 1452 1
91 1453 1
91 1567 1
91 1588 1
91 1629 1
91 1674 1
91 1760 1
91 1773 1
91 1820 1
91 1834 1
91 1910 1
91 1924 1
91 1931 1
91 1970 1
91 1972 1
91 2124 1
91 2176 1
91 2204 1
91 2236 1
91 2538 1
91 2541 1
91 2587 1
91 2723 1
91 2876 1
92 9 1
92 11 1
92 33 1
92 34 1
92 112 1
92 120 1
92 122 1
92 133 1
92 207 1
92 210 1
92 222 1
92 223 1
92 239 1
92 300 1
92 315 1
92 323 1
92 420 1
92 490 1
92 602 1
92 652 1
92 653 1
92 677 1
92 742 1
92 816 1
92 876 1
92 897 1
92 1072 1
92 1175 1
92 1228 1
92 1500 1
92 1502 1
92 1655 1
92 1770 1
92 1854 1
92 2205 1
92 2598 1
92 2639 1
92 2703 1
92 2739 1
92 2867 1
93 2 1
93 16 1
93 52 1
93 59 1
93 230 1
93 352 1
93 360 1
93 519 1
93 619 1
93 926 1
93 1289 1
93 2131 1
93 2386 1
93 2391 1
93 2452 1
93 2474 1
94 11 1
94 28 1
94 68 1
94 75 1
94 104 1
94 221 1
94 233 1
94 260 1
94 271 1
94 301 1
94 373 1
94 444 1
94 453 1
94 477 1
94 528 1
94 554 1
94 584 1
94 678 1
94 835 1
94 876 1
94 900 1
94 980 1
94 1371 1
94 1552 1
94 1624 1
94 1696 1
94 1712 1
94 2034 1
94 2707 1
94 2840 1
94 2842 1
94 2913 1
95 53 1
95 60 1
95 66 1
95 73 1
95 180 1
95 216 1
95 747 1
95 864 1
95 913 1
95 1557 1
95 1943 1
95 2048 1
95 2368 1
95 2431 1
95 2518 1
95 2845 1
96 1 1
96 18 1
96 25 1
96 47 1
96 319 1
96 639 1
96 1059 1
96 1703 1
96 1725 1
97 11 1
97 31 1
97 61 1
97 62 1
97 154 1
97 418 1
97 446 1
97 712 1
97 859 1
97 1221 1
97 1278 1
97 1331 1
97 1493 1
97 1844 1
97 2021 1
97 2129 1
97 2204 1
97 2252 1
97 2270 1
97 2508 1
97 2740 1
97 2934 1
97 2941 1
97 2999 1
98 3 1
98 9 1
98 15 1
98 80 1
98 136 1
98 263 1
98 405 1
98 424 1
98 448 1
98 457 1
98 572 1
98 724 1
98 1121 1
98 1150 1
98 1322 1
98 1423 1
98 1539 1
98 1682 1
98 1870 1
98 1986 1
98 2328 1
98 2384 1
98 2408 1
98 2466 1
98 2624 1
98 2776 1
99 9 1
99 10 1
99 21 1
99 28 1
99 107 1
99 330 1
99 336 1
99 344 1
99 779 1
99 836 1
99 1040 1
99 1091 1
99 1310 1
99 1567 1
99 1805 1
99 2860 1
100 37 1
100 40 1
100 61 1
100 74 1
100 138 1
100 260 1
100 522 1
100 688 1
100 1190 1
100 1663 1
100 2050 1
100 2160 1
100 2189 1
101 12 1
101 28 1
101 32 1
101 80 1
101 103 1
101 221 1
101 267 1
101 475 1
101 1007 1
101 1034 1
101 1232 1
101 1534 1
101 2399 1
101 2770 1
102 9 1
102 25 1
102 77 1
102 89 1
102 125 1
102 139 1
102 141 1
102 176 1
102 215 1
102 303 1
102 405 1
102 438 1
102 613 1
102 627 1
102 711 1
102 713 1
102 824 1
102 1326 1
102 2221 1
102 2526 1
102 2535 1
102 2846 1
103 5 1
103 12 1
103 50 1
103 101 1
103 120 1
103 123 1
103 164 1
103 221 1
103 244 1
103 478 1
103 549 1
103 594 1
103 625 1
103 796 1
103 998 1
103 1104 1
103 1180 1
103 1390 1
103 1626 1
103 2144 1
103 2470 1
104 2 1
104 16 1
104 39 1
104 94 1
104 110 1
104 255 1
104 271 1
104 373 1
104 379 1
104 699 1
104 901 1
104 951 1
104 1185 1
104 1195 1
104 1273 1
104 1456 1
105 9 1
105 16 1
105 25 1
105 68 1
105 176 1
105 520 1
105 552 1
105 579 1
105 654 1
105 766 1
105 1070 1
105 1610 1
105 1627 1
105 1745 1
105 1913 1
105 1992 1
105 2280 1
105 2389 1
105 2569 1
105 2616 1
105 2675 1
105 2749 1
106 3 1
106 25 1
106 39 1
106 57 1
106 132 1
106 138 1
106 198 1
106 245 1
106 262 1
106 295 1
106 314 1
106 385 1
106 518 1
106 707 1
106 788 1
106 841 1
106 1177 1
106 1273 1
106 1594 1
106 1668 1
106 1717 1
106 1898 1
106 2070 1
106 2257 1
106 2304 1
106 2547 1
106 2550 1
106 2645 1
106 2774 1
106 2783 1
106 2898 1
107 1 1
107 2 1
107 21 1
107 99 1
107 108 1
107 192 1
107 197 1
107 353 1
107 625 1
107 700 1
107 794 1
107 975 1
107 1040 1
107 1172 1
107 1236 1
107 1464 1
107 1921 1
107 2051 1
107 2129 1
107 2579 1
107 2582 1
107 2887 1
107 2916 1
108 2 1
108 9 1
108 21 1
108 107 1
108 168 1
108 187 1
108 192 1
108 196 1
108 203 1
108 205 1
108 283 1
108 341 1
108 361 1
108 412 1
108 422 1
108 459 1
108 531 1
108 544 1
108 560 1
108 601 1
108 624 1
108 667 1
108 728 1
108 732 1
108 746 1
108 786 1
108 794 1
108 836 1
108 869 1
108 891 1
108 1011 1
108 1075 1
108 1334 1
108 1445 1
108 1459 1
108 1474 1
108 1562 1
108 1571 1
108 1585 1
108 1608 1
108 1664 1
108 1849 1
108 1867 1
108 1950 1
108 1971 1
108 2137 1
108 2202 1
108 2228 1
108 2236 1
108 2394 1
108 2578 1
108 2615 1
108 2635 1
108 2768 1
108 2980 1
109 1 1
109 55 1
109 66 1
109 73 1
109 309 1
109 992 1
109 1087 1
109 1161 1
109 1845 1
109 1901 1
109 1985 1
109 2200 1
109 2592 1
109 2845 1
110 8 1
110 13 1
110 90 1
110 104 1
110 148 1
110 316 1
110 509 1
110 867 1
110 997 1
110 1195 1
110 1273 1
110 1346 1
110 1609 1
110 2537 1
110 2864 1
110 2949 1
111 3 1
111 14 1
111 21 1
111 36 1
111 198 1
111 952 1
111 1002 1
111 1669 1
111 1884 1
112 9 1
112 11 1
112 53 1
112 92 1
112 259 1
112 329 1
112 364 1
112 462 1
112 652 1
112 1410 1
112 1948 1
112 2978 1
113 17 1
113 18 1
113 50 1
113 69 1
113 163 1
113 256 1
113 326 1
113 337 1
113 346 1
113 437 1
113 480 1
113 546 1
113 578 1
113 591 1
113 630 1
113 773 1
113 890 1
113 983 1
113 989 1
113 1096 1
113 1158 1
113 1212 1
113 1315 1
113 1599 1
113 1630 1
113 1648 1
113 1873 1
113 1932 1
113 1965 1
113 2074 1
113 2238 1
113 2388 1
113 2560 1
113 2686 1
113 2693 1
113 2710 1
113 2723 1
113 2941 1
114 2 1
114 6 1
114 21 1
114 28 1
114 161 1
114 208 1
114 211 1
114 306 1
114 422 1
114 549 1
114 647 1
114 668 1
114 881 1
114 893 1
114 1472 1
114 1587 1
114 1619 1
114 1830 1
114 1889 1
114 1970 1
114 2004 1
114 2099 1
114 2358 1
114 2495 1
114 2715 1
114 2993 1
115 2 1
115 6 1
115 75 1
115 76 1
115 425 1
115 797 1
115 1261 1
115 1391 1
115 2166 1
115 2751 1
115 2856 1
116 3 1
116 14 1
116 51 1
116 91 1
116 121 1
116 134 1
116 151 1
116 352 1
116 445 1
116 482 1
116 522 1
116 536 1
116 566 1
116 607 1
116 694 1
116 731 1
116 781 1
116 934 1
116 1025 1
116 1126 1
116 1306 1
116 1669 1
116 1786 1
116 2004 1
116 2150 1
116 2662 1
117 1 1
117 4 1
117 16 1
117 73 1
117 314 1
117 342 1
117 682 1
117 965 1
117 1325 1
117 1409 1
117 1460 1
117 1594 1
117 1777 1
117 1855 1
117 2681 1
117 2870 1
117 2875 1
118 2 1
118 18 1
118 39 1
118 84 1
118 170 1
118 297 1
118 345 1
118 477 1
118 530 1
118 590 1
118 600 1
118 835 1
118 838 1
118 924 1
118 1461 1
118 1465 1
118 1605 1
118 1799 1
118 1922 1
118 1980 1
118 2044 1
118 2248 1
118 2595 1
118 2652 1
118 2951 1
119 11 1
119 44 1
119 80 1
119 90 1
119 686 1
119 724 1
119 935 1
119 1015 1
119 1515 1
119 1736 1
119 1938 1
120 11 1
120 50 1
120 92 1
120 103 1
120 459 1
120 768 1
120 1390 1
121 5 1
121 11 1
121 20 1
121 116 1
121 229 1
121 264 1
121 317 1
121 455 1
121 753 1
121 869 1
121 1051 1
121 1336 1
121 1368 1
121 1689 1
121 2014 1
121 2093 1
121 2218 1
121 2844 1
122 9 1
122 14 1
122 47 1
122 92 1
122 319 1
122 653 1
122 1392 1
122 1438 1
122 2412 1
123 36 1
123 55 1
123 91 1
123 103 1
123 289 1
123 391 1
123 460 1
123 468 1
123 591 1
123 676 1
123 702 1
123 711 1
123 1025 1
123 1147 1
123 1194 1
123 1233 1
123 1453 1
123 1482 1
123 1692 1
123 1873 1
123 1897 1
123 1998 1
123 2204 1
123 2246 1
123 2350 1
123 2608 1
123 2777 1
124 15 1
124 19 1
124 29 1
124 54 1
124 411 1
124 446 1
124 1095 1
124 1886 1
124 2334 1
125 12 1
125 50 1
125 73 1
125 102 1
125 275 1
125 283 1
125 412 1
125 498 1
125 650 1
125 960 1
125 1428 1
125 1518 1
125 1537 1
125 1621 1
125 2203 1
125 2267 1
125 2346 1
125 2459 1
125 2509 1
125 2526 1
125 2774 1
125 2880 1
125 2995 1
126 2 1
126 74 1
126 81 1
126 88 1
126 182 1
126 188 1
126 251 1
126 414 1
126 1080 1
126 1397 1
126 1829 1
126 2410 1
127 13 1
127 45 1
127 50 1
127 81 1
127 212 1
127 804 1
127 815 1
127 2006 1
127 2163 1
127 2539 1
128 3 1
128 21 1
128 28 1
128 53 1
128 290 1
128 305 1
128 902 1
128 1560 1
128 1843 1
128 2276 1
128 2733 1
129 9 1
129 60 1
129 74 1
129 88 1
129 164 1
129 282 1
129 340 1
129 410 1
129 441 1
129 529 1
129 612 1
129 737 1
129 847 1
129 938 1
129 964 1
129 967 1
129 1041 1
129 1120 1
129 1145 1
129 1157 1
129 1264 1
129 1287 1
129 1345 1
129 1423 1
129 1480 1
129 1506 1
129 1510 1
129 1642 1
129 1670 1
129 1783 1
129 2040 1
129 2041 1
129 2109 1
129 2145 1
129 2168 1
129 2189 1
129 2226 1
129 2282 1
129 2303 1
129 2343 1
129 2582 1
129 2795 1
129 2805 1
130 2 1
130 3 1
130 9 1
130 47 1
130 133 1
130 201 1
130 261 1
130 331 1
130 354 1
130 382 1
130 419 1
130 890 1
130 953 1
130 967 1
130 979 1
130 985 1
130 1067 1
130 1106 1
130 1152 1
130 1205 1
130 1339 1
130 1507 1
130 1755 1
130 1852 1
130 1859 1
130 1889 1
130 2488 1
130 2536 1
130 2556 1
130 2590 1
130 2610 1
130 2692 1
130 2782 1
130 2787 1
130 2825 1
131 9 1
131 21 1
131 25 1
131 55 1
131 152 1
131 184 1
131 306 1
131 473 1
131 702 1
131 734 1
131 831 1
131 1063 1
131 1071 1
131 1124 1
131 1135 1
131 1257 1
131 1435 1
131 1661 1
131 1729 1
131 1801 1
131 1964 1
131 2024 1
131 2219 1
131 2433 1
131 2830 1
131 2895 1
132 1 1
132 19 1
132 77 1
132 106 1
132 245 1
132 246 1
132 423 1
132 2130 1
132 2680 1
133 11 1
133 80 1
133 92 1
133 130 1
133 381 1
133 382 1
133 419 1
133 466 1
133 653 1
133 677 1
133 869 1
133 923 1
133 953 1
133 1633 1
133 1727 1
133 2555 1
133 2599 1
133 2821 1
133 2897 1
134 18 1
134 39 1
134 51 1
134 116 1
134 173 1
134 401 1
134 522 1
134 590 1
134 859 1
134 1077 1
134 2175 1
135 1 1
135 21 1
135 27 1
135 82 1
135 213 1
135 234 1
135 332 1
135 699 1
135 933 1
135 994 1
135 1333 1
135 2330 1
135 2773 1
135 2877 1
136 10 1
136 25 1
136 32 1
136 98 1
136 146 1
136 176 1
136 355 1
136 458 1
136 883 1
136 1131 1
136 1237 1
136 1377 1
136 1426 1
136 1521 1
136 2161 1
136 2298 1
136 2771 1
137 18 1
137 22 1
137 75 1
137 78 1
137 154 1
137 158 1
137 199 1
137 274 1
137 310 1
137 311 1
137 339 1
137 341 1
137 430 1
137 502 1
137 513 1
137 531 1
137 534 1
137 574 1
137 577 1
137 641 1
137 956 1
137 1442 1
137 1455 1
137 1531 1
137 1549 1
137 1577 1
137 1589 1
137 1613 1
137 1745 1
137 1770 1
137 1912 1
137 2049 1
137 2079 1
137 2101 1
137 2154 1
137 2214 1
137 2337 1
137 2433 1
137 2508 1
137 2565 1
137 2658 1
137 2661 1
137 2692 1
137 2696 1
137 2885 1
137 2956 1
138 3 1
138 18 1
138 100 1
138 106 1
138 155 1
138 177 1
138 212 1
138 297 1
138 336 1
138 351 1
138 370 1
138 371 1
138 377 1
138 386 1
138 609 1
138 635 1
138 700 1
138 723 1
138 756 1
138 771 1
138 819 1
138 948 1
138 978 1
138 1060 1
138 1160 1
138 1286 1
138 1324 1
138 1420 1
138 1443 1
138 1444 1
138 1480 1
138 1583 1
138 1586 1
138 1643 1
138 1656 1
138 1862 1
138 1877 1
138 1878 1
138 1899 1
138 2057 1
138 2113 1
138 2126 1
138 2238 1
138 2272 1
138 2278 1
138 2284 1
138 2363 1
138 2380 1
138 2446 1
138 2578 1
138 2582 1
138 2599 1
138 2677 1
138 2979 1
139 9 1
139 21 1
139 76 1
139 102 1
139 141 1
139 215 1
139 303 1
139 309 1
139 595 1
139 622 1
139 681 1
139 715 1
139 1482 1
139 1671 1
139 1700 1
139 1852 1
139 1920 1
139 2027 1
139 2080 1
139 2262 1
139 2368 1
139 2490 1
139 2535 1
139 2636 1
139 2933 1
139 2979 1
140 3 1
140 11 1
140 16 1
140 44 1
140 141 1
140 162 1
140 218 1
140 465 1
140 657 1
140 772 1
140 874 1
140 915 1
140 973 1
140 1014 1
140 1081 1
140 1139 1
140 1674 1
140 2276 1
140 2355 1
140 2733 1
140 2887 1
140 2937 1
141 9 1
141 102 1
141 139 1
141 140 1
141 143 1
141 210 1
141 574 1
141 632 1
141 719 1
141 855 1
141 874 1
141 999 1
141 1240 1
141 1252 1
141 1269 1
141 1296 1
141 1861 1
141 1892 1
141 2429 1
141 2490 1
141 2976 1
142 9 1
142 34 1
142 71 1
142 91 1
142 187 1
142 464 1
142 703 1
142 835 1
142 898 1
142 1384 1
142 1467 1
142 1554 1
142 1823 1
142 1918 1
142 2204 1
142 2532 1
142 2985 1
143 9 1
143 12 1
143 18 1
143 141 1
143 383 1
143 467 1
143 766 1
143 911 1
144 11 1
144 39 1
144 50 1
144 79 1
144 248 1
144 302 1
144 414 1
144 437 1
144 798 1
144 1193 1
145 1 1
145 11 1
145 14 1
145 19 1
145 291 1
145 324 1
145 433 1
145 447 1
145 775 1
145 1265 1
145 1375 1
145 2016 1
145 2077 1
145 2124 1
145 2371 1
145 2563 1
145 2702 1
145 2722 1
145 2805 1
146 10 1
146 21 1
146 36 1
146 136 1
146 186 1
146 521 1
146 883 1
146 1311 1
146 1448 1
146 1495 1
146 2011 1
146 2235 1
146 2356 1
147 9 1
147 28 1
147 30 1
147 85 1
147 338 1
147 523 1
147 593 1
147 679 1
147 771 1
147 1046 1
147 1079 1
147 1220 1
147 1247 1
147 1328 1
147 1417 1
147 1430 1
147 1450 1
147 1471 1
147 1512 1
147 1583 1
147 1638 1
147 1704 1
147 1769 1
147 1776 1
147 1803 1
147 1919 1
147 2230 1
147 2374 1
147 2625 1
147 2770 1
147 2807 1
148 3 1
148 34 1
148 90 1
148 110 1
148 545 1
148 583 1
148 1247 1
148 2439 1
149 1 1
149 17 1
149 31 1
149 51 1
149 175 1
149 254 1
149 384 1
149 408 1
149 417 1
149 432 1
149 543 1
149 912 1
149 1082 1
149 1110 1
149 1244 1
149 1292 1
149 1519 1
149 1816 1
149 1969 1
149 2094 1
149 2185 1
149 2354 1
149 2476 1
150 9 1
150 54 1
150 60 1
150 83 1
150 307 1
150 351 1
150 399 1
150 430 1
150 468 1
150 570 1
150 1237 1
150 1373 1
150 1781 1
150 2491 1
151 9 1
151 27 1
151 91 1
151 116 1
151 167 1
151 321 1
151 738 1
151 812 1
151 898 1
151 1106 1
151 1452 1
151 1894 1
151 2079 1
151 2795 1
152 18 1
152 25 1
152 41 1
152 131 1
152 184 1
152 270 1
152 282 1
152 292 1
152 503 1
152 587 1
152 621 1
152 645 1
152 1120 1
152 1199 1
152 1402 1
152 1815 1
152 2124 1
152 2251 1
152 2746 1
153 5 1
153 33 1
153 40 1
153 68 1
153 171 1
153 276 1
153 322 1
153 584 1
153 762 1
153 862 1
153 932 1
153 958 1
153 1298 1
153 1324 1
153 1458 1
153 1476 1
153 1623 1
153 1685 1
153 1791 1
153 1877 1
153 1890 1
153 2054 1
153 2071 1
153 2149 1
153 2620 1
153 2799 1
153 2881 1
154 17 1
154 26 1
154 97 1
154 137 1
154 216 1
154 257 1
154 427 1
154 937 1
154 1221 1
154 1404 1
154 1427 1
154 1977 1
154 2021 1
154 2129 1
154 2179 1
154 2496 1
155 21 1
155 48 1
155 66 1
155 138 1
155 286 1
155 380 1
155 441 1
155 763 1
155 1015 1
155 1119 1
155 1581 1
155 1809 1
155 2602 1
156 5 1
156 12 1
156 14 1
156 42 1
156 218 1
156 231 1
156 245 1
156 294 1
156 613 1
156 735 1
156 782 1
156 878 1
156 1005 1
156 1230 1
156 1241 1
156 1401 1
156 1794 1
156 2227 1
156 2517 1
156 2851 1
156 2874 1
157 21 1
157 29 1
157 77 1
157 78 1
157 203 1
157 228 1
157 447 1
157 509 1
157 1419 1
157 1558 1
157 1828 1
157 1846 1
157 2052 1
157 2098 1
157 2134 1
157 2338 1
157 2870 1
158 10 1
158 29 1
158 38 1
158 137 1
158 232 1
158 342 1
158 381 1
158 402 1
158 476 1
158 491 1
158 509 1
158 553 1
158 563 1
158 969 1
158 1149 1
158 1577 1
158 1589 1
158 1639 1
158 1689 1
158 1745 1
158 2076 1
158 2166 1
158 2331 1
158 2858 1
159 2 1
159 5 1
159 9 1
159 30 1
159 850 1
159 2307 1
160 2 1
160 27 1
160 62 1
160 80 1
160 719 1
160 1900 1
160 2613 1
161 2 1
161 27 1
161 73 1
161 114 1
161 182 1
161 208 1
161 211 1
161 216 1
161 251 1
161 257 1
161 314 1
161 384 1
161 479 1
161 490 1
161 649 1
161 657 1
161 721 1
161 735 1
161 865 1
161 899 1
161 1048 1
161 1271 1
161 1323 1
161 1551 1
161 1590 1
161 1785 1
161 2108 1
161 2264 1
161 2268 1
161 2421 1
161 2859 1
161 2879 1
161 2981 1
162 5 1
162 44 1
162 79 1
162 140 1
162 209 1
162 248 1
162 349 1
162 524 1
162 772 1
162 776 1
162 1139 1
162 1255 1
162 1339 1
162 1340 1
162 1682 1
162 1868 1
162 2035 1
162 2102 1
162 2138 1
162 2301 1
162 2381 1
162 2406 1
162 2853 1
163 11 1
163 18 1
163 22 1
163 113 1
163 179 1
163 242 1
163 271 1
163 326 1
163 335 1
163 416 1
163 442 1
163 480 1
163 487 1
163 789 1
163 977 1
163 1098 1
163 1128 1
163 1240 1
163 1308 1
163 1343 1
163 2116 1
163 2135 1
163 2232 1
163 2489 1
163 2714 1
163 2755 1
164 50 1
164 60 1
164 103 1
164 129 1
164 179 1
164 320 1
164 464 1
164 492 1
164 612 1
164 881 1
164 908 1
164 995 1
164 1120 1
164 1211 1
164 1457 1
164 1650 1
164 2009 1
164 2303 1
164 2626 1
164 2826 1
164 2887 1
165 1 1
165 27 1
165 50 1
165 59 1
165 179 1
165 410 1
165 469 1
165 663 1
165 793 1
165 903 1
165 992 1
165 1052 1
165 1210 1
165 1265 1
165 1729 1
165 1767 1
165 1913 1
165 2175 1
166 19 1
166 32 1
166 50 1
166 77 1
166 206 1
166 263 1
166 858 1
166 992 1
166 2187 1
167 9 1
167 10 1
167 27 1
167 151 1
167 611 1
167 1036 1
167 1314 1
167 1626 1
167 2839 1
168 18 1
168 28 1
168 34 1
168 108 1
168 1180 1
169 13 1
169 20 1
169 28 1
169 60 1
169 359 1
169 404 1
169 539 1
169 564 1
169 670 1
169 776 1
169 903 1
169 927 1
169 1674 1
169 1747 1
169 1765 1
169 1811 1
169 2407 1
170 10 1
170 18 1
170 35 1
170 118 1
170 612 1
170 1180 1
170 1246 1
170 1465 1
170 2061 1
170 2230 1
170 2259 1
171 5 1
171 27 1
171 38 1
171 153 1
171 191 1
171 230 1
171 243 1
171 323 1
171 541 1
171 999 1
171 1129 1
171 1442 1
171 1476 1
171 1529 1
171 1653 1
171 1746 1
171 1791 1
171 1809 1
171 1904 1
171 1922 1
171 1988 1
171 2235 1
171 2544 1
171 2647 1
171 2681 1
171 2691 1
171 2693 1
171 2726 1
171 2889 1
171 2893 1
172 6 1
172 9 1
172 13 1
172 33 1
172 242 1
172 445 1
172 648 1
172 692 1
172 984 1
172 1207 1
172 1260 1
172 2119 1
173 17 1
173 18 1
173 27 1
173 134 1
173 206 1
173 401 1
173 833 1
173 1201 1
173 1578 1
173 1801 1
173 1957 1
174 2 1
174 16 1
174 20 1
174 34 1
174 288 1
174 316 1
174 420 1
174 551 1
174 1244 1
174 1350 1
174 1471 1
175 1 1
175 17 1
175 29 1
175 149 1
175 250 1
175 387 1
175 402 1
175 417 1
175 778 1
175 933 1
175 1016 1
175 1196 1
175 1412 1
175 1456 1
175 1896 1
175 2247 1
175 2672 1
176 25 1
176 102 1
176 105 1
176 136 1
176 365 1
176 404 1
176 621 1
176 757 1
176 858 1
176 2140 1
176 2224 1
176 2525 1
176 2616 1
176 2793 1
177 4 1
177 20 1
177 66 1
177 138 1
177 246 1
177 2380 1
177 2420 1
177 2849 1
178 3 1
178 17 1
178 64 1
178 71 1
178 269 1
178 272 1
178 280 1
178 356 1
178 413 1
178 956 1
178 1214 1
178 1354 1
178 1583 1
178 1617 1
178 1843 1
178 1856 1
178 1897 1
178 1972 1
178 2107 1
178 2378 1
178 2662 1
179 35 1
179 163 1
179 164 1
179 165 1
179 252 1
179 320 1
179 469 1
179 629 1
179 647 1
179 974 1
179 1210 1
179 1359 1
179 1365 1
179 1665 1
179 1669 1
180 9 1
180 18 1
180 27 1
180 95 1
180 452 1
180 472 1
180 538 1
180 592 1
180 615 1
180 649 1
180 736 1
180 795 1
180 1289 1
180 2309 1
180 2337 1
180 2387 1
180 2866 1
180 2996 1
181 11 1
181 12 1
181 17 1
181 42 1
181 487 1
181 626 1
181 1005 1
181 1234 1
182 25 1
182 88 1
182 126 1
182 161 1
182 211 1
182 490 1
182 721 1
182 932 1
182 983 1
182 1012 1
182 1590 1
182 1644 1
182 1967 1
183 7 1
183 10 1
183 27 1
183 67 1
183 185 1
183 218 1
183 841 1
183 1305 1
183 1620 1
183 1702 1
184 9 1
184 60 1
184 131 1
184 152 1
184 240 1
184 311 1
184 962 1
184 1120 1
184 2654 1
185 7 1
185 37 1
185 39 1
185 183 1
185 278 1
185 1305 1
185 2068 1
186 10 1
186 11 1
186 62 1
186 146 1
186 210 1
186 217 1
186 337 1
186 439 1
186 505 1
186 526 1
186 658 1
186 691 1
186 809 1
186 887 1
186 969 1
186 986 1
186 1020 1
186 1028 1
186 1093 1
186 1134 1
186 1153 1
186 1296 1
186 1361 1
186 1407 1
186 1546 1
186 1559 1
186 1606 1
186 2063 1
186 2430 1
186 2571 1
186 2752 1
186 2914 1
186 2965 1
187 9 1
187 47 1
187 108 1
187 142 1
187 301 1
187 464 1
187 493 1
187 667 1
187 746 1
187 1316 1
187 1351 1
187 1701 1
187 1706 1
187 1982 1
187 2025 1
187 2541 1
187 2709 1
187 2882 1
188 2 1
188 9 1
188 76 1
188 126 1
188 194 1
188 204 1
188 254 1
188 267 1
188 293 1
188 296 1
188 327 1
188 546 1
188 655 1
188 745 1
188 749 1
188 765 1
188 871 1
188 1132 1
188 1156 1
188 1181 1
188 1309 1
188 1463 1
188 1614 1
188 1653 1
188 1805 1
188 2473 1
189 1 1
189 3 1
189 9 1
189 65 1
189 275 1
189 588 1
189 597 1
189 652 1
189 654 1
189 821 1
189 842 1
189 1053 1
189 1550 1
189 1552 1
189 1654 1
189 1678 1
189 1720 1
189 1957 1
189 2194 1
189 2199 1
189 2651 1
189 2745 1
190 1 1
190 2 1
190 3 1
190 59 1
190 392 1
190 493 1
190 604 1
190 639 1
190 658 1
190 706 1
190 1185 1
190 1631 1
190 1787 1
191 17 1
191 27 1
191 31 1
191 171 1
191 257 1
191 268 1
191 381 1
191 558 1
191 565 1
191 581 1
191 650 1
191 659 1
191 1124 1
191 1186 1
191 2023 1
191 2030 1
191 2382 1
192 14 1
192 29 1
192 107 1
192 108 1
192 196 1
192 284 1
192 294 1
192 305 1
192 426 1
192 495 1
192 1585 1
192 2444 1
192 2501 1
192 2878 1
193 2 1
193 6 1
193 9 1
193 13 1
193 218 1
193 288 1
193 1058 1
193 1113 1
193 1431 1
193 1681 1
193 2112 1
193 2402 1
193 2612 1
193 2750 1
194 2 1
194 9 1
194 67 1
194 188 1
194 228 1
194 244 1
194 268 1
194 296 1
194 298 1
194 300 1
194 344 1
194 442 1
194 615 1
194 651 1
194 671 1
194 731 1
194 792 1
194 851 1
194 921 1
194 960 1
194 996 1
194 1044 1
194 1067 1
194 1115 1
194 1151 1
194 1181 1
194 1449 1
194 1731 1
194 1778 1
194 1827 1
194 1895 1
194 1991 1
194 2223 1
194 2310 1
194 2440 1
194 2672 1
194 2868 1
194 2932 1
194 2939 1
195 1 1
195 13 1
195 34 1
195 57 1
195 220 1
195 250 1
195 457 1
195 547 1
195 665 1
195 685 1
195 846 1
195 1000 1
195 1001 1
195 1034 1
195 1153 1
195 1166 1
195 1297 1
195 1533 1
195 1611 1
195 1649 1
195 1719 1
195 1952 1
196 6 1
196 17 1
196 108 1
196 192 1
196 252 1
196 284 1
196 294 1
196 305 1
196 549 1
196 786 1
196 1108 1
196 1160 1
196 2178 1
196 2468 1
197 1 1
197 32 1
197 73 1
197 107 1
197 249 1
197 290 1
197 451 1
197 484 1
197 534 1
197 826 1
197 878 1
197 1018 1
197 1174 1
197 1178 1
197 1557 1
197 1717 1
197 1891 1
197 2511 1
197 2579 1
197 2928 1
198 1 1
198 27 1
198 106 1
198 111 1
198 235 1
198 417 1
198 678 1
198 1177 1
198 1611 1
198 1884 1
198 2445 1
199 18 1
199 27 1
199 46 1
199 137 1
199 310 1
199 311 1
199 339 1
199 574 1
199 583 1
199 1919 1
199 1950 1
199 2025 1
200 1 1
200 5 1
200 13 1
200 61 1
200 235 1
200 831 1
200 1045 1
200 2844 1
200 2887 1
201 39 1
201 47 1
201 77 1
201 130 1
201 454 1
201 508 1
201 779 1
201 895 1
202 2 1
202 29 1
202 31 1
202 34 1
202 475 1
202 543 1
202 567 1
202 576 1
202 606 1
202 655 1
202 683 1
202 740 1
202 745 1
202 747 1
202 798 1
202 882 1
202 894 1
202 1149 1
202 1163 1
202 1332 1
202 2177 1
202 2684 1
202 2694 1
202 2963 1
202 2996 1
203 18 1
203 32 1
203 108 1
203 157 1
203 228 1
203 232 1
203 252 1
203 512 1
203 730 1
203 822 1
203 1362 1
203 1558 1
203 1566 1
203 1828 1
203 2031 1
203 2089 1
203 2154 1
203 2195 1
203 2222 1
203 2604 1
203 2848 1
204 13 1
204 57 1
204 76 1
204 188 1
204 325 1
204 340 1
204 693 1
204 707 1
204 924 1
204 1038 1
204 2602 1
204 2909 1
205 11 1
205 14 1
205 50 1
205 108 1
205 240 1
205 328 1
205 551 1
205 558 1
205 728 1
205 1914 1
206 16 1
206 26 1
206 166 1
206 173 1
206 209 1
206 234 1
206 286 1
206 550 1
206 781 1
206 833 1
206 916 1
206 938 1
206 1052 1
206 1255 1
206 1371 1
206 1517 1
206 1612 1
206 1647 1
206 1721 1
206 1884 1
206 1957 1
206 2400 1
206 2748 1
207 17 1
207 23 1
207 33 1
207 92 1
207 377 1
207 1629 1
207 1646 1
207 2141 1
207 2384 1
207 2478 1
208 2 1
208 6 1
208 114 1
208 161 1
208 306 1
208 668 1
208 784 1
208 2117 1
209 5 1
209 79 1
209 162 1
209 206 1
209 269 1
209 776 1
209 782 1
209 1255 1
209 1302 1
209 1522 1
209 1830 1
209 1886 1
209 2032 1
209 2215 1
210 18 1
210 92 1
210 141 1
210 186 1
210 480 1
210 986 1
210 1559 1
210 2147 1
210 2639 1
210 2933 1
211 20 1
211 114 1
211 161 1
211 182 1
211 229 1
211 251 1
211 367 1
211 479 1
211 610 1
211 686 1
211 740 1
211 845 1
211 1019 1
211 1048 1
211 1145 1
211 1193 1
211 1271 1
211 1510 1
211 1590 1
211 1666 1
211 2157 1
211 2186 1
211 2439 1
211 2595 1
211 2871 1
212 13 1
212 21 1
212 127 1
212 138 1
212 236 1
212 297 1
212 341 1
212 434 1
212 477 1
212 518 1
212 606 1
212 815 1
212 918 1
212 1138 1
212 1163 1
212 1240 1
212 1286 1
212 1580 1
212 1903 1
212 2009 1
212 2843 1
212 2902 1
212 2984 1
213 6 1
213 11 1
213 27 1
213 135 1
213 317 1
213 332 1
213 517 1
213 543 1
213 699 1
213 1272 1
213 1295 1
213 1333 1
213 2167 1
214 2 1
214 13 1
214 22 1
214 81 1
214 350 1
214 505 1
214 588 1
214 1048 1
214 1122 1
214 1562 1
214 2000 1
214 2733 1
215 21 1
215 49 1
215 102 1
215 139 1
215 536 1
215 622 1
215 627 1
215 2622 1
216 26 1
216 95 1
216 154 1
216 161 1
217 9 1
217 29 1
217 57 1
217 186 1
217 232 1
217 308 1
217 499 1
217 526 1
217 969 1
217 1524 1
217 2063 1
217 2177 1
218 140 1
218 156 1
218 183 1
218 193 1
218 841 1
218 1014 1
218 2921 1
219 1 1
219 7 1
219 55 1
219 68 1
219 436 1
219 488 1
219 810 1
219 1750 1
219 2137 1
219 2898 1
220 1 1
220 13 1
220 34 1
220 195 1
220 365 1
220 451 1
220 665 1
220 2872 1
221 54 1
221 94 1
221 101 1
221 103 1
221 802 1
221 1059 1
221 1244 1
221 1374 1
221 1651 1
221 1712 1
221 1955 1
221 2036 1
221 2085 1
221 2522 1
222 13 1
222 18 1
222 56 1
222 92 1
222 255 1
222 379 1
222 408 1
222 488 1
222 963 1
222 966 1
222 1706 1
223 11 1
223 14 1
223 68 1
223 92 1
223 318 1
223 510 1
223 662 1
223 686 1
223 1106 1
223 1522 1
223 2174 1
224 10 1
224 11 1
224 12 1
224 20 1
224 530 1
224 637 1
224 817 1
224 946 1
224 961 1
224 1263 1
224 1666 1
224 2348 1
224 2471 1
224 2668 1
224 2789 1
225 1 1
225 39 1
225 50 1
225 67 1
225 226 1
225 227 1
225 365 1
225 501 1
225 524 1
225 654 1
225 925 1
225 942 1
225 1196 1
225 1762 1
225 1869 1
225 1883 1
225 1911 1
225 2229 1
225 2596 1
225 2680 1
225 2718 1
225 2783 1
225 2850 1
225 2935 1
226 2 1
226 13 1
226 50 1
226 225 1
226 253 1
226 285 1
226 453 1
226 542 1
226 562 1
226 711 1
226 925 1
226 1101 1
226 1267 1
226 1540 1
226 1633 1
226 1768 1
226 1950 1
226 2051 1
226 2075 1
226 2092 1
226 2101 1
226 2112 1
226 2390 1
226 2443 1
226 2543 1
226 2629 1
226 2698 1
226 2843 1
227 1 1
227 29 1
227 67 1
227 225 1
227 266 1
227 363 1
227 387 1
227 511 1
227 748 1
227 925 1
227 1014 1
227 1364 1
227 1556 1
227 2020 1
227 2085 1
227 2514 1
227 2533 1
227 2869 1
228 21 1
228 157 1
228 194 1
228 203 1
228 265 1
228 320 1
228 1449 1
228 1558 1
228 1991 1
228 2157 1
228 2197 1
229 20 1
229 66 1
229 121 1
229 211 1
229 435 1
229 450 1
229 553 1
229 623 1
229 820 1
229 845 1
229 1023 1
229 1051 1
229 1219 1
229 1510 1
229 1817 1
229 2099 1
229 2325 1
230 19 1
230 25 1
230 93 1
230 171 1
230 352 1
230 366 1
230 513 1
230 642 1
230 1426 1
230 1436 1
230 2184 1
230 2263 1
230 2889 1
231 28 1
231 68 1
231 73 1
231 156 1
231 1688 1
231 1781 1
232 29 1
232 158 1
232 203 1
232 217 1
232 394 1
232 887 1
232 2711 1
233 24 1
233 28 1
233 47 1
233 94 1
233 554 1
233 584 1
233 1207 1
233 1374 1
233 1552 1
233 1740 1
233 1868 1
233 1869 1
233 1954 1
233 2188 1
233 2241 1
233 2546 1
233 2748 1
233 2863 1
234 12 1
234 21 1
234 135 1
234 206 1
234 406 1
234 1114 1
234 2010 1
234 2513 1
234 2721 1
235 1 1
235 26 1
235 198 1
235 200 1
235 793 1
235 1177 1
235 1304 1
235 1563 1
235 1660 1
235 2316 1
235 2522 1
235 2896 1
236 64 1
236 68 1
236 80 1
236 212 1
236 434 1
236 1307 1
236 1699 1
236 1980 1
237 9 1
237 27 1
237 66 1
237 360 1
237 421 1
237 428 1
237 552 1
237 634 1
237 644 1
237 673 1
237 727 1
237 948 1
237 1073 1
237 1078 1
237 1182 1
237 1241 1
237 1459 1
237 1650 1
237 1930 1
237 2186 1
237 2219 1
237 2227 1
238 5 1
238 6 1
238 52 1
238 61 1
238 318 1
238 1116 1
238 1602 1
238 2855 1
239 3 1
239 61 1
239 62 1
239 92 1
239 801 1
239 834 1
240 13 1
240 16 1
240 184 1
240 205 1
241 4 1
241 9 1
241 24 1
241 60 1
241 389 1
241 395 1
241 465 1
241 735 1
241 1004 1
241 1838 1
241 1842 1
242 9 1
242 54 1
242 163 1
242 172 1
242 286 1
242 481 1
242 2232 1
242 2261 1
242 2796 1
243 3 1
243 5 1
243 12 1
243 171 1
243 1805 1
243 2475 1
243 2793 1
244 2 1
244 60 1
244 103 1
244 194 1
244 313 1
244 998 1
244 1535 1
244 1847 1
244 1905 1
244 2868 1
245 76 1
245 106 1
245 132 1
245 156 1
245 324 1
245 476 1
245 878 1
245 1360 1
245 2537 1
245 2584 1
245 2717 1
245 2795 1
246 19 1
246 36 1
246 132 1
246 177 1
246 408 1
246 1761 1
246 2121 1
246 2131 1
247 3 1
247 34 1
247 47 1
247 90 1
247 394 1
248 40 1
248 54 1
248 144 1
248 162 1
249 1 1
249 7 1
249 41 1
249 197 1
249 483 1
249 696 1
249 751 1
249 839 1
249 879 1
249 971 1
249 1000 1
249 1521 1
249 2035 1
249 2644 1
249 2760 1
250 2 1
250 76 1
250 175 1
250 195 1
250 291 1
250 298 1
250 308 1
250 387 1
250 396 1
250 411 1
250 472 1
250 619 1
250 850 1
250 871 1
250 879 1
250 924 1
250 942 1
250 1037 1
250 1050 1
250 1056 1
250 1115 1
250 1297 1
250 1651 1
250 1748 1
250 2214 1
250 2222 1
250 2233 1
250 2307 1
250 2427 1
250 2611 1
250 2720 1
251 74 1
251 126 1
251 161 1
251 211 1
251 364 1
251 479 1
251 839 1
251 1206 1
251 1276 1
251 1283 1
251 1519 1
251 1694 1
251 1785 1
251 2039 1
251 2409 1
251 2678 1
252 19 1
252 179 1
252 196 1
252 203 1
252 307 1
252 320 1
252 508 1
252 512 1
252 629 1
252 997 1
252 1149 1
252 1359 1
252 1362 1
252 1541 1
252 2059 1
252 2139 1
252 2178 1
252 2318 1
252 2393 1
252 2476 1
252 2481 1
252 2706 1
252 2841 1
253 2 1
253 13 1
253 50 1
253 226 1
253 261 1
253 285 1
253 350 1
253 389 1
253 447 1
253 486 1
253 549 1
253 585 1
253 626 1
253 934 1
253 1335 1
253 1507 1
253 1646 1
253 1742 1
253 2379 1
253 2831 1
253 2973 1
254 41 1
254 86 1
254 149 1
254 188 1
254 267 1
254 327 1
254 334 1
254 392 1
254 470 1
254 529 1
254 546 1
254 557 1
254 575 1
254 648 1
254 1024 1
254 1132 1
254 1229 1
254 1287 1
254 1427 1
254 1503 1
254 1771 1
254 2159 1
254 2415 1
254 2494 1
254 2806 1
254 2917 1
254 2932 1
255 18 1
255 56 1
255 104 1
255 222 1
255 1013 1
256 5 1
256 26 1
256 86 1
256 113 1
256 259 1
256 268 1
256 288 1
256 581 1
256 630 1
256 701 1
256 1089 1
256 1211 1
256 1489 1
256 1517 1
256 1757 1
256 1943 1
256 2074 1
256 2096 1
256 2699 1
257 17 1
257 154 1
257 161 1
257 191 1
257 284 1
257 322 1
257 427 1
257 749 1
257 876 1
257 993 1
257 1035 1
257 1112 1
257 1144 1
257 1384 1
257 1572 1
257 1648 1
257 1880 1
257 1977 1
257 2283 1
257 2456 1
257 2496 1
257 2621 1
257 2666 1
258 2 1
258 25 1
258 43 1
258 57 1
258 468 1
258 478 1
258 636 1
258 1214 1
258 1266 1
258 1349 1
258 1499 1
258 1619 1
258 1825 1
258 2043 1
258 2559 1
259 1 1
259 13 1
259 112 1
259 256 1
259 265 1
259 288 1
259 329 1
259 462 1
259 945 1
259 1270 1
259 1413 1
259 1573 1
259 2103 1
259 2990 1
260 27 1
260 47 1
260 94 1
260 100 1
260 449 1
260 454 1
260 900 1
260 1190 1
260 1529 1
260 1726 1
260 2193 1
260 2487 1
260 2980 1
261 9 1
261 25 1
261 130 1
261 253 1
261 331 1
261 343 1
261 644 1
261 761 1
261 918 1
261 1082 1
261 1157 1
261 1175 1
261 1387 1
261 1697 1
261 1784 1
261 2651 1
261 2701 1
261 2810 1
261 2942 1
261 2972 1
262 11 1
262 12 1
262 25 1
262 106 1
262 357 1
262 467 1
262 632 1
262 825 1
262 841 1
262 981 1
262 1045 1
262 1130 1
262 1288 1
262 1422 1
262 1893 1
262 1906 1
262 2152 1
262 2292 1
262 2436 1
262 2479 1
262 2512 1
262 2584 1
262 2819 1
263 16 1
263 21 1
263 98 1
263 166 1
263 992 1
263 1817 1
263 2062 1
263 2099 1
264 5 1
264 10 1
264 11 1
264 121 1
264 310 1
264 503 1
264 690 1
264 1178 1
264 1927 1
264 2050 1
264 2198 1
265 28 1
265 52 1
265 228 1
265 259 1
265 595 1
265 596 1
265 638 1
265 671 1
265 1210 1
265 1348 1
265 1693 1
265 2157 1
265 2365 1
265 2865 1
265 2924 1
266 1 1
266 17 1
266 55 1
266 227 1
266 353 1
266 363 1
266 453 1
266 506 1
266 576 1
266 810 1
266 1057 1
266 1226 1
266 1293 1
266 1987 1
266 2027 1
266 2279 1
267 28 1
267 101 1
267 188 1
267 254 1
267 309 1
267 327 1
267 358 1
267 433 1
267 518 1
267 559 1
267 655 1
267 790 1
267 792 1
267 904 1
267 1939 1
267 1947 1
267 2241 1
267 2385 1
267 2541 1
267 2770 1
268 86 1
268 191 1
268 194 1
268 256 1
268 581 1
268 674 1
268 1124 1
268 1485 1
268 1743 1
268 2359 1
268 2820 1
268 2823 1
269 5 1
269 64 1
269 178 1
269 209 1
269 496 1
269 511 1
269 732 1
269 1096 1
269 1100 1
269 1302 1
269 1717 1
269 1911 1
269 2586 1
269 2664 1
270 1 1
270 25 1
270 26 1
270 152 1
270 330 1
270 376 1
270 444 1
270 449 1
270 554 1
270 834 1
270 852 1
270 1055 1
270 1595 1
271 39 1
271 94 1
271 104 1
271 163 1
271 416 1
271 678 1
271 860 1
271 1099 1
271 1239 1
271 1240 1
271 1406 1
271 1413 1
271 1453 1
271 2551 1
272 35 1
272 57 1
272 77 1
272 178 1
272 1038 1
272 1214 1
273 27 1
273 71 1
273 89 1
273 91 1
273 605 1
273 1083 1
273 1123 1
273 1330 1
273 1538 1
273 1841 1
273 2397 1
273 2422 1
274 12 1
274 18 1
274 81 1
274 137 1
274 311 1
274 383 1
274 495 1
274 555 1
274 820 1
274 844 1
274 1280 1
274 1281 1
274 1467 1
274 1741 1
274 1908 1
274 2174 1
274 2333 1
274 2353 1
274 2695 1
275 2 1
275 28 1
275 125 1
275 189 1
275 588 1
275 1053 1
275 1058 1
275 1191 1
275 1348 1
275 2088 1
275 2459 1
275 2952 1
276 21 1
276 28 1
276 33 1
276 153 1
276 279 1
276 322 1
276 517 1
276 584 1
276 611 1
276 762 1
276 763 1
276 898 1
276 1031 1
276 1279 1
276 1791 1
276 1967 1
276 2231 1
276 2266 1
276 2394 1
276 2711 1
276 2809 1
276 2826 1
277 4 1
277 17 1
277 20 1
277 41 1
277 417 1
277 661 1
277 687 1
277 1201 1
277 1652 1
277 1920 1
277 2753 1
278 2 1
278 9 1
278 13 1
278 185 1
278 298 1
278 299 1
278 590 1
278 894 1
278 896 1
278 954 1
278 1067 1
278 1303 1
278 1381 1
278 1944 1
278 2019 1
278 2223 1
278 2292 1
278 2545 1
279 1 1
279 3 1
279 85 1
279 276 1
279 703 1
279 1659 1
279 1848 1
279 2826 1
280 27 1
280 49 1
280 91 1
280 178 1
280 1361 1
280 1972 1
281 4 1
281 22 1
281 60 1
281 77 1
281 396 1
281 415 1
281 909 1
281 980 1
281 1068 1
281 1069 1
281 1168 1
281 1300 1
281 1476 1
281 1744 1
281 1763 1
281 1918 1
281 1951 1
281 2567 1
281 2570 1
281 2791 1
281 2968 1
282 16 1
282 27 1
282 129 1
282 152 1
282 292 1
282 355 1
282 374 1
282 397 1
282 408 1
282 440 1
282 508 1
282 532 1
282 535 1
282 548 1
282 563 1
282 572 1
282 787 1
282 964 1
282 1021 1
282 1035 1
282 1077 1
282 1262 1
282 1345 1
282 1590 1
282 1663 1
282 1756 1
282 1840 1
282 1857 1
282 2058 1
282 2091 1
282 2467 1
282 2758 1
283 2 1
283 44 1
283 108 1
283 125 1
283 647 1
283 689 1
283 797 1
283 1248 1
283 1537 1
283 1680 1
283 1723 1
283 1956 1
283 2677 1
284 18 1
284 192 1
284 196 1
284 257 1
284 305 1
284 376 1
284 907 1
284 1112 1
284 1153 1
284 1351 1
284 1362 1
284 1743 1
284 1887 1
285 1 1
285 2 1
285 226 1
285 253 1
285 334 1
285 1370 1
285 1578 1
286 48 1
286 155 1
286 206 1
286 242 1
286 318 1
286 338 1
286 695 1
286 763 1
286 853 1
286 1015 1
286 1225 1
286 1422 1
286 2213 1
286 2231 1
286 2530 1
286 2814 1
286 2918 1
287 9 1
287 13 1
287 20 1
287 29 1
287 473 1
287 540 1
287 734 1
287 1048 1
287 1117 1
287 1329 1
287 1762 1
287 1883 1
287 1920 1
288 174 1
288 193 1
288 256 1
288 259 1
288 1202 1
289 36 1
289 52 1
289 123 1
289 725 1
289 1031 1
289 1181 1
289 1507 1
289 1885 1
289 2482 1
289 2609 1
290 21 1
290 90 1
290 128 1
290 197 1
290 497 1
290 568 1
290 593 1
290 909 1
290 1305 1
290 1778 1
290 2285 1
290 2369 1
290 2417 1
290 2975 1
291 2 1
291 76 1
291 145 1
291 250 1
291 410 1
291 752 1
291 757 1
291 856 1
291 878 1
291 1322 1
291 1424 1
291 1721 1
291 1771 1
291 2325 1
291 2450 1
291 2779 1
292 1 1
292 27 1
292 152 1
292 282 1
292 656 1
292 1043 1
292 1840 1
292 1921 1
292 2042 1
292 2477 1
292 2522 1
292 2772 1
293 17 1
293 19 1
293 51 1
293 188 1
293 888 1
293 1436 1
293 1496 1
293 1764 1
293 1901 1
293 2296 1
294 19 1
294 156 1
294 192 1
294 196 1
294 500 1
294 2878 1
295 18 1
295 57 1
295 70 1
295 106 1
295 1930 1
295 2047 1
296 9 1
296 67 1
296 188 1
296 194 1
296 300 1
296 996 1
296 1044 1
297 2 1
297 118 1
297 138 1
297 212 1
297 336 1
297 372 1
297 556 1
297 610 1
297 807 1
297 888 1
297 1174 1
297 1286 1
297 1444 1
297 1580 1
297 1586 1
297 2248 1
297 2370 1
297 2384 1
297 2503 1
297 2531 1
297 2605 1
297 2652 1
297 2966 1
298 2 1
298 194 1
298 250 1
298 278 1
298 355 1
298 615 1
298 646 1
298 676 1
298 692 1
298 787 1
298 1010 1
298 1085 1
298 1155 1
298 1198 1
298 1343 1
298 1651 1
298 2019 1
298 2524 1
298 2674 1
298 2807 1
298 2825 1
298 2949 1
299 1 1
299 30 1
299 77 1
299 278 1
299 339 1
299 917 1
299 1381 1
299 2583 1
299 2938 1
300 75 1
300 92 1
300 194 1
300 296 1
300 568 1
300 660 1
300 817 1
300 960 1
300 1088 1
300 1164 1
300 1171 1
300 1327 1
300 1472 1
300 1706 1
300 1936 1
300 2148 1
300 2194 1
300 2248 1
301 18 1
301 75 1
301 94 1
301 187 1
301 824 1
301 943 1
302 10 1
302 35 1
302 83 1
302 144 1
302 359 1
302 399 1
302 633 1
302 1090 1
302 1235 1
302 1879 1
302 2104 1
303 9 1
303 17 1
303 102 1
303 139 1
304 7 1
304 9 1
304 18 1
304 28 1
304 870 1
304 2154 1
304 2374 1
304 2891 1
305 128 1
305 192 1
305 196 1
305 284 1
305 376 1
305 907 1
305 1108 1
305 1132 1
305 1398 1
305 1743 1
305 1843 1
305 2381 1
306 28 1
306 114 1
306 131 1
306 208 1
306 628 1
306 647 1
306 843 1
306 893 1
306 1292 1
306 1503 1
306 1730 1
306 2493 1
307 10 1
307 18 1
307 150 1
307 252 1
307 498 1
307 1101 1
307 1321 1
307 2116 1
307 2425 1
307 2829 1
307 2998 1
308 9 1
308 49 1
308 217 1
308 250 1
308 802 1
308 871 1
308 1198 1
308 1372 1
308 1486 1
308 1556 1
308 1620 1
308 1971 1
308 2014 1
308 2044 1
308 2063 1
308 2360 1
308 2415 1
308 2731 1
308 2793 1
309 85 1
309 109 1
309 139 1
309 267 1
309 637 1
309 1319 1
309 1689 1
310 25 1
310 137 1
310 199 1
310 264 1
310 741 1
310 815 1
310 956 1
310 1854 1
310 2025 1
310 2098 1
310 2144 1
310 2414 1
310 2921 1
310 2981 1
311 137 1
311 184 1
311 199 1
311 274 1
311 502 1
311 899 1
311 1385 1
311 2695 1
312 17 1
312 20 1
312 28 1
312 58 1
312 537 1
312 675 1
312 912 1
312 1039 1
312 1986 1
312 2036 1
313 9 1
313 16 1
313 75 1
313 244 1
313 406 1
313 435 1
313 578 1
313 614 1
313 643 1
313 2164 1
313 2317 1
314 73 1
314 106 1
314 117 1
314 161 1
314 342 1
314 804 1
314 1185 1
314 1409 1
314 1935 1
314 2072 1
314 2456 1
314 2515 1
314 2518 1
314 2572 1
314 2653 1
314 2989 1
315 18 1
315 57 1
315 89 1
315 92 1
315 589 1
315 653 1
315 981 1
315 1228 1
315 1502 1
315 1569 1
315 1586 1
315 1898 1
315 1915 1
315 1987 1
315 2224 1
315 2680 1
315 2703 1
316 74 1
316 90 1
316 110 1
316 174 1
317 20 1
317 75 1
317 121 1
317 213 1
317 393 1
317 455 1
317 687 1
317 938 1
318 35 1
318 223 1
318 238 1
318 286 1
318 469 1
318 823 1
318 1081 1
318 1116 1
318 1704 1
318 1934 1
318 2197 1
319 25 1
319 31 1
319 96 1
319 122 1
319 1438 1
319 1810 1
319 2006 1
319 2600 1
320 164 1
320 179 1
320 228 1
320 252 1
320 469 1
321 30 1
321 34 1
321 91 1
321 151 1
321 753 1
321 812 1
321 1187 1
321 1235 1
321 1714 1
321 1910 1
321 2538 1
321 2727 1
321 2974 1
322 40 1
322 153 1
322 257 1
322 276 1
322 520 1
322 534 1
322 862 1
322 981 1
322 1215 1
322 1419 1
322 1532 1
322 1548 1
322 1623 1
322 2194 1
322 2345 1
322 2407 1
322 2421 1
322 2666 1
322 2765 1
323 11 1
323 27 1
323 92 1
323 171 1
323 681 1
323 828 1
323 896 1
323 1006 1
323 1216 1
323 1406 1
323 2742 1
324 39 1
324 82 1
324 145 1
324 245 1
324 356 1
324 414 1
324 433 1
324 471 1
324 503 1
324 525 1
324 626 1
324 666 1
324 720 1
324 775 1
324 1176 1
324 1710 1
324 1806 1
324 1929 1
324 1994 1
324 2016 1
324 2153 1
324 2810 1
324 2883 1
325 1 1
325 50 1
325 76 1
325 204 1
325 397 1
325 1004 1
325 1109 1
325 1142 1
325 1690 1
325 2268 1
325 2270 1
326 17 1
326 69 1
326 113 1
326 163 1
326 515 1
326 663 1
326 845 1
326 873 1
326 1045 1
326 2008 1
327 28 1
327 188 1
327 254 1
327 267 1
327 511 1
327 648 1
327 709 1
327 1463 1
328 11 1
328 25 1
328 59 1
328 205 1
328 461 1
328 1069 1
328 1479 1
328 1943 1
329 5 1
329 74 1
329 112 1
329 259 1
329 512 1
329 813 1
329 1007 1
329 1227 1
329 1866 1
329 2960 1
329 2978 1
330 17 1
330 21 1
330 99 1
330 270 1
330 370 1
330 1192 1
330 1525 1
330 1567 1
330 1616 1
330 1855 1
330 1875 1
330 2106 1
330 2831 1
331 2 1
331 27 1
331 130 1
331 261 1
331 343 1
331 466 1
331 500 1
331 812 1
331 1071 1
331 1079 1
331 1385 1
331 1534 1
331 1547 1
331 1710 1
331 1788 1
331 1860 1
331 1864 1
331 1889 1
331 2020 1
331 2162 1
331 2357 1
331 2386 1
331 2399 1
331 2510 1
331 2701 1
331 2948 1
332 1 1
332 18 1
332 135 1
332 213 1
332 943 1
332 1253 1
332 1441 1
332 2167 1
332 2620 1
332 2771 1
333 1 1
333 16 1
333 20 1
333 71 1
333 603 1
333 1218 1
334 13 1
334 25 1
334 254 1
334 285 1
334 1483 1
334 2732 1
335 3 1
335 11 1
335 12 1
335 163 1
335 398 1
335 759 1
335 764 1
335 1098 1
335 1250 1
335 1275 1
335 1946 1
335 2543 1
335 2811 1
335 2865 1
336 50 1
336 99 1
336 138 1
336 297 1
336 421 1
336 556 1
336 807 1
336 1097 1
336 1444 1
336 1899 1
336 1900 1
336 2034 1
336 2697 1
337 11 1
337 18 1
337 113 1
337 186 1
337 559 1
337 1606 1
337 2074 1
337 2571 1
337 2978 1
338 27 1
338 34 1
338 147 1
338 286 1
338 369 1
338 569 1
338 697 1
338 800 1
338 823 1
338 1073 1
338 1133 1
338 1610 1
338 2312 1
338 2905 1
339 18 1
339 137 1
339 199 1
339 299 1
339 502 1
339 649 1
339 982 1
339 2319 1
339 2476 1
339 2880 1
340 35 1
340 73 1
340 129 1
340 204 1
340 406 1
340 2805 1
341 30 1
341 108 1
341 137 1
341 212 1
341 461 1
341 912 1
341 1455 1
341 1985 1
341 2064 1
341 2614 1
342 35 1
342 117 1
342 158 1
342 314 1
342 509 1
342 563 1
342 631 1
342 1007 1
342 1370 1
342 1730 1
342 1749 1
342 2858 1
342 2937 1
343 4 1
343 11 1
343 261 1
343 331 1
343 470 1
343 516 1
343 821 1
343 2607 1
343 2651 1
344 11 1
344 28 1
344 99 1
344 194 1
344 519 1
344 1874 1
345 10 1
345 11 1
345 57 1
345 118 1
345 388 1
345 600 1
345 838 1
345 1009 1
345 1075 1
345 1460 1
345 1477 1
345 2405 1
345 2524 1
345 2946 1
346 1 1
346 2 1
346 69 1
346 113 1
346 375 1
346 420 1
346 434 1
346 458 1
346 480 1
346 575 1
346 577 1
346 578 1
346 614 1
346 674 1
346 744 1
346 758 1
346 760 1
346 800 1
346 846 1
346 880 1
346 926 1
346 977 1
346 1137 1
346 1354 1
346 1355 1
346 1375 1
346 1599 1
346 1853 1
346 2064 1
346 2201 1
346 2829 1
346 2836 1
346 2896 1
347 6 1
347 10 1
347 21 1
347 77 1
347 452 1
347 1654 1
347 2530 1
347 2999 1
348 28 1
348 68 1
348 69 1
348 75 1
348 393 1
348 484 1
348 709 1
348 1688 1
348 1793 1
348 2419 1
349 2 1
349 5 1
349 16 1
349 162 1
349 384 1
349 524 1
349 539 1
349 1000 1
350 2 1
350 13 1
350 214 1
350 253 1
350 1436 1
351 1 1
351 83 1
351 138 1
351 150 1
351 468 1
351 609 1
351 2180 1
351 2209 1
352 16 1
352 93 1
352 116 1
352 230 1
352 619 1
352 1786 1
352 2261 1
353 1 1
353 77 1
353 107 1
353 266 1
353 975 1
353 1007 1
353 1310 1
353 1405 1
353 1684 1
353 1765 1
353 1851 1
353 1882 1
353 1942 1
353 1968 1
353 1983 1
353 2035 1
353 2499 1
353 2632 1
353 2998 1
354 13 1
354 27 1
354 47 1
354 130 1
354 842 1
354 2017 1
354 2133 1
355 14 1
355 136 1
355 282 1
355 298 1
355 397 1
355 440 1
355 646 1
355 692 1
355 882 1
355 964 1
355 965 1
355 1002 1
355 1146 1
355 1256 1
355 1505 1
355 1727 1
355 2145 1
355 2242 1
355 2289 1
356 17 1
356 64 1
356 178 1
356 324 1
356 471 1
356 699 1
356 951 1
356 1111 1
356 1176 1
356 1734 1
356 2378 1
356 2395 1
356 2700 1
356 2837 1
357 9 1
357 12 1
357 25 1
357 262 1
357 547 1
357 2286 1
358 10 1
358 11 1
358 33 1
358 267 1
358 405 1
358 596 1
358 616 1
358 680 1
358 720 1
358 904 1
358 1049 1
358 1167 1
358 2640 1
358 2823 1
359 13 1
359 21 1
359 169 1
359 302 1
359 426 1
359 670 1
360 9 1
360 27 1
360 93 1
360 237 1
361 11 1
361 21 1
361 76 1
361 108 1
361 403 1
361 613 1
361 1849 1
361 2212 1
361 2763 1
362 10 1
362 11 1
362 15 1
362 41 1
362 402 1
362 409 1
362 434 1
362 937 1
362 955 1
362 1062 1
362 1404 1
362 1612 1
362 1963 1
362 2156 1
362 2159 1
362 2295 1
362 2453 1
362 2671 1
362 2800 1
363 1 1
363 30 1
363 227 1
363 266 1
363 453 1
363 506 1
363 741 1
363 749 1
363 2482 1
364 5 1
364 18 1
364 112 1
364 251 1
364 391 1
364 461 1
364 586 1
364 1191 1
364 1371 1
364 1526 1
364 1538 1
364 1622 1
364 1747 1
364 1810 1
364 1852 1
364 1948 1
364 2146 1
364 2286 1
364 2435 1
364 2525 1
364 2697 1
364 2698 1
365 69 1
365 176 1
365 220 1
365 225 1
365 501 1
365 568 1
365 1014 1
365 1356 1
365 1369 1
365 2153 1
365 2275 1
366 1 1
366 19 1
366 20 1
366 230 1
366 576 1
366 609 1
366 1088 1
366 2184 1
367 1 1
367 9 1
367 27 1
367 211 1
367 375 1
367 571 1
367 1023 1
367 2270 1
367 2377 1
368 14 1
368 17 1
368 42 1
368 67 1
368 489 1
368 680 1
368 780 1
368 1336 1
368 2197 1
369 2 1
369 3 1
369 88 1
369 338 1
369 1028 1
369 1092 1
369 1165 1
369 2314 1
369 2375 1
369 2410 1
369 2767 1
369 2967 1
370 5 1
370 71 1
370 138 1
370 330 1
370 849 1
370 851 1
370 959 1
370 1060 1
370 1616 1
370 2669 1
370 2831 1
371 9 1
371 49 1
371 58 1
371 138 1
371 464 1
371 1378 1
371 2446 1
372 18 1
372 21 1
372 69 1
372 297 1
372 807 1
372 931 1
372 954 1
372 1681 1
372 2447 1
372 2655 1
373 2 1
373 39 1
373 94 1
373 104 1
373 586 1
373 663 1
373 926 1
373 1009 1
373 1185 1
373 1487 1
374 14 1
374 27 1
374 30 1
374 282 1
374 494 1
374 915 1
374 1346 1
374 1757 1
374 2100 1
374 2777 1
375 19 1
375 66 1
375 346 1
375 367 1
375 628 1
376 26 1
376 270 1
376 284 1
376 305 1
376 1108 1
377 3 1
377 23 1
377 138 1
377 207 1
377 534 1
377 697 1
377 2200 1
377 2891 1
378 3 1
378 9 1
378 54 1
378 90 1
378 492 1
378 573 1
378 717 1
378 2396 1
379 2 1
379 23 1
379 104 1
379 222 1
379 485 1
379 599 1
379 638 1
379 723 1
379 943 1
379 1103 1
379 1222 1
379 1261 1
379 1298 1
379 1323 1
379 2061 1
379 2352 1
379 2761 1
380 20 1
380 27 1
380 64 1
380 155 1
380 970 1
381 31 1
381 133 1
381 158 1
381 191 1
381 563 1
381 830 1
381 1659 1
381 1957 1
381 2023 1
381 2780 1
382 18 1
382 63 1
382 130 1
382 133 1
382 897 1
382 1107 1
382 2293 1
382 2923 1
383 18 1
383 35 1
383 143 1
383 274 1
384 2 1
384 149 1
384 161 1
384 349 1
385 9 1
385 54 1
385 60 1
385 106 1
385 428 1
385 561 1
385 974 1
385 1050 1
385 1338 1
385 1511 1
386 15 1
386 18 1
386 74 1
386 138 1
386 499 1
386 516 1
386 527 1
386 610 1
386 635 1
386 660 1
386 795 1
386 813 1
386 819 1
386 822 1
386 1047 1
386 1066 1
386 1093 1
386 1320 1
386 1687 1
386 1751 1
386 1896 1
386 1960 1
386 2120 1
386 2271 1
386 2289 1
386 2413 1
386 2451 1
386 2650 1
386 2655 1
386 2677 1
386 2784 1
386 2997 1
387 76 1
387 175 1
387 227 1
387 250 1
387 396 1
387 1070 1
387 1097 1
387 1692 1
387 2085 1
388 28 1
388 36 1
388 57 1
388 345 1
388 419 1
388 633 1
388 838 1
388 1090 1
388 2330 1
389 9 1
389 60 1
389 241 1
389 253 1
389 395 1
389 486 1
389 1410 1
389 1714 1
389 2719 1
390 9 1
390 27 1
390 50 1
390 69 1
390 557 1
390 569 1
390 643 1
390 767 1
390 1022 1
390 1318 1
390 1649 1
391 18 1
391 43 1
391 123 1
391 364 1
391 444 1
391 1622 1
391 2028 1
391 2083 1
391 2966 1
392 2 1
392 25 1
392 190 1
392 254 1
392 1528 1
393 17 1
393 75 1
393 317 1
393 348 1
393 873 1
393 1011 1
393 1993 1
393 2144 1
393 2325 1
394 21 1
394 90 1
394 232 1
394 247 1
394 845 1
394 2080 1
394 2136 1
394 2387 1
395 3 1
395 49 1
395 241 1
395 389 1
395 684 1
395 2096 1
395 2589 1
396 20 1
396 250 1
396 281 1
396 387 1
396 415 1
396 482 1
396 1847 1
396 2472 1
396 2513 1
396 2619 1
396 2802 1
397 50 1
397 282 1
397 325 1
397 355 1
397 432 1
397 440 1
397 535 1
397 1003 1
397 1061 1
397 1140 1
397 1505 1
397 1962 1
397 2376 1
397 2803 1
398 12 1
398 31 1
398 61 1
398 335 1
398 1835 1
399 14 1
399 83 1
399 150 1
399 302 1
399 1235 1
399 1341 1
399 1383 1
399 1807 1
399 2491 1
400 2 1
400 3 1
400 9 1
400 17 1
400 597 1
400 861 1
400 1093 1
400 1266 1
401 3 1
401 6 1
401 134 1
401 173 1
401 603 1
401 667 1
401 739 1
401 740 1
401 1092 1
401 1170 1
401 1863 1
401 2427 1
401 2986 1
402 29 1
402 158 1
402 175 1
402 362 1
402 1030 1
402 1196 1
402 1247 1
402 1265 1
402 1615 1
402 1996 1
402 2538 1
402 2790 1
402 2974 1
403 26 1
403 83 1
403 86 1
403 361 1
403 435 1
403 439 1
403 657 1
403 814 1
403 883 1
403 888 1
403 972 1
403 1495 1
403 1592 1
403 2053 1
403 2687 1
403 2885 1
404 11 1
404 87 1
404 169 1
404 176 1
404 459 1
404 670 1
404 684 1
404 815 1
404 913 1
404 1538 1
404 1747 1
404 2054 1
404 2260 1
404 2441 1
404 2793 1
405 14 1
405 98 1
405 102 1
405 358 1
405 538 1
405 1245 1
405 1710 1
405 1796 1
406 2 1
406 234 1
406 313 1
406 340 1
406 421 1
406 531 1
406 860 1
406 967 1
406 1085 1
406 1114 1
406 1783 1
406 1801 1
406 2122 1
406 2551 1
406 2886 1
407 2 1
407 5 1
407 9 1
407 18 1
407 657 1
407 755 1
407 1102 1
407 2001 1
407 2127 1
408 149 1
408 222 1
408 246 1
408 282 1
408 664 1
409 1 1
409 28 1
409 41 1
409 362 1
409 644 1
409 994 1
409 1473 1
410 70 1
410 129 1
410 165 1
410 291 1
410 737 1
410 759 1
410 793 1
410 833 1
410 875 1
410 884 1
410 1418 1
410 1441 1
410 1660 1
410 1665 1
410 1667 1
410 1974 1
410 2256 1
410 2420 1
410 2575 1
410 2761 1
410 2959 1
410 2987 1
411 15 1
411 54 1
411 124 1
411 250 1
411 942 1
411 1050 1
411 1105 1
411 2024 1
411 2741 1
412 10 1
412 65 1
412 108 1
412 125 1
412 714 1
412 760 1
412 927 1
412 1113 1
412 1432 1
412 1518 1
412 2411 1
413 17 1
413 50 1
413 178 1
413 565 1
413 607 1
413 886 1
413 1390 1
413 1856 1
413 2151 1
413 2614 1
413 2920 1
413 2950 1
414 83 1
414 126 1
414 144 1
414 324 1
414 510 1
414 1067 1
414 1162 1
414 2398 1
414 2727 1
415 13 1
415 28 1
415 281 1
415 396 1
415 1168 1
415 1183 1
415 2619 1
416 6 1
416 8 1
416 163 1
416 271 1
416 442 1
416 977 1
416 2232 1
416 2925 1
417 149 1
417 175 1
417 198 1
417 277 1
417 1029 1
417 1118 1
417 1292 1
417 1394 1
417 1542 1
417 1775 1
417 1816 1
417 1843 1
417 1869 1
417 2192 1
417 2351 1
417 2445 1
417 2455 1
417 2587 1
418 13 1
418 61 1
418 91 1
418 97 1
418 446 1
418 872 1
418 939 1
418 996 1
418 1508 1
418 2557 1
418 2922 1
419 28 1
419 130 1
419 133 1
419 388 1
419 507 1
419 840 1
419 1110 1
419 2790 1
419 2957 1
420 21 1
420 92 1
420 174 1
420 346 1
420 716 1
420 1532 1
420 2583 1
421 2 1
421 237 1
421 336 1
421 406 1
422 1 1
422 9 1
422 108 1
422 114 1
422 1100 1
422 1422 1
422 2515 1
423 7 1
423 78 1
423 87 1
423 132 1
423 1438 1
423 2400 1
424 2 1
424 27 1
424 84 1
424 98 1
424 507 1
424 589 1
424 743 1
424 2115 1
425 9 1
425 79 1
425 82 1
425 115 1
425 429 1
425 708 1
425 905 1
425 1344 1
425 1466 1
425 1836 1
425 1955 1
425 2413 1
425 2550 1
425 2872 1
426 49 1
426 64 1
426 192 1
426 359 1
426 800 1
426 941 1
426 1195 1
427 1 1
427 21 1
427 154 1
427 257 1
427 445 1
427 515 1
427 765 1
427 795 1
427 937 1
427 1188 1
427 1215 1
427 1293 1
427 1554 1
427 1595 1
427 1645 1
427 1653 1
427 1709 1
427 1836 1
427 1965 1
427 1999 1
427 2906 1
427 2952 1
428 9 1
428 60 1
428 237 1
428 385 1
428 561 1
428 615 1
428 617 1
428 1380 1
428 1408 1
428 1488 1
428 2563 1
428 2754 1
428 2993 1
429 11 1
429 30 1
429 76 1
429 425 1
429 778 1
429 971 1
429 1204 1
429 1344 1
429 1412 1
429 1486 1
429 1753 1
429 2094 1
429 2297 1
429 2816 1
430 34 1
430 36 1
430 137 1
430 150 1
430 443 1
430 513 1
430 631 1
430 1455 1
430 1899 1
430 2166 1
430 2190 1
430 2411 1
430 2695 1
430 2697 1
431 20 1
431 39 1
431 52 1
431 84 1
431 489 1
431 623 1
431 726 1
431 1266 1
431 1407 1
431 1735 1
431 2424 1
431 2472 1
431 2510 1
431 2553 1
432 9 1
432 51 1
432 149 1
432 397 1
432 857 1
432 928 1
432 1804 1
432 2457 1
433 50 1
433 145 1
433 267 1
433 324 1
433 550 1
433 947 1
433 2034 1
433 2241 1
434 212 1
434 236 1
434 346 1
434 362 1
434 455 1
434 718 1
434 1430 1
434 1612 1
434 1764 1
434 2295 1
434 2671 1
435 86 1
435 229 1
435 313 1
435 403 1
435 820 1
435 1383 1
435 1677 1
436 1 1
436 7 1
436 55 1
436 219 1
436 488 1
436 523 1
436 770 1
436 1118 1
436 1161 1
436 1299 1
436 1574 1
436 1750 1
436 1796 1
436 2207 1
436 2979 1
437 3 1
437 50 1
437 113 1
437 144 1
437 919 1
437 1022 1
437 1158 1
437 2037 1
437 2674 1
438 11 1
438 27 1
438 49 1
438 102 1
438 857 1
438 917 1
438 978 1
438 1879 1
438 1953 1
438 2107 1
438 2409 1
438 2457 1
439 2 1
439 5 1
439 186 1
439 403 1
440 19 1
440 282 1
440 355 1
440 397 1
440 463 1
440 548 1
440 2091 1
440 2255 1
440 2385 1
440 2838 1
441 21 1
441 48 1
441 129 1
441 155 1
441 1389 1
441 2136 1
441 2653 1
441 2707 1
442 74 1
442 163 1
442 194 1
442 416 1
442 851 1
442 916 1
442 921 1
442 1050 1
442 1099 1
442 1290 1
442 1415 1
442 1421 1
442 2045 1
442 2324 1
442 2658 1
442 2661 1
443 18 1
443 39 1
443 75 1
443 430 1
443 541 1
443 587 1
443 723 1
443 838 1
443 1114 1
443 1291 1
443 1768 1
443 1803 1
443 2135 1
443 2788 1
444 9 1
444 94 1
444 270 1
444 391 1
444 556 1
444 681 1
444 1173 1
444 1175 1
444 2289 1
445 33 1
445 116 1
445 172 1
445 427 1
445 742 1
445 825 1
445 891 1
445 1081 1
445 1215 1
445 2012 1
445 2318 1
445 2481 1
445 2570 1
446 52 1
446 97 1
446 124 1
446 418 1
446 571 1
446 1019 1
446 1508 1
446 1697 1
446 1716 1
446 1821 1
447 13 1
447 145 1
447 157 1
447 253 1
447 1723 1
447 1742 1
447 2636 1
448 9 1
448 13 1
448 60 1
448 98 1
448 639 1
448 957 1
448 1440 1
448 1447 1
448 1539 1
448 1597 1
448 1625 1
448 1715 1
448 1888 1
448 2306 1
448 2408 1
449 8 1
449 90 1
449 260 1
449 270 1
449 1529 1
449 2193 1
449 2729 1
450 10 1
450 20 1
450 29 1
450 229 1
450 746 1
450 790 1
450 1075 1
450 1122 1
450 1878 1
450 1989 1
450 2079 1
450 2116 1
450 2377 1
451 1 1
451 43 1
451 197 1
451 220 1
451 484 1
451 705 1
451 710 1
451 813 1
451 855 1
451 1018 1
451 1251 1
451 1321 1
451 1560 1
451 1802 1
451 1981 1
451 2511 1
451 2834 1
451 2926 1
451 2991 1
452 6 1
452 77 1
452 180 1
452 347 1
452 472 1
452 601 1
452 1312 1
452 2210 1
453 94 1
453 226 1
453 266 1
453 363 1
453 506 1
453 528 1
453 749 1
453 835 1
453 1057 1
453 1116 1
453 1226 1
453 1236 1
453 1566 1
453 1633 1
453 1661 1
453 1683 1
453 1874 1
453 2311 1
453 2475 1
454 47 1
454 56 1
454 201 1
454 260 1
454 895 1
454 900 1
454 1188 1
454 1748 1
454 1961 1
454 2528 1
455 5 1
455 121 1
455 317 1
455 434 1
455 2139 1
455 2207 1
456 1 1
456 3 1
456 18 1
456 43 1
456 805 1
456 818 1
456 1627 1
456 2432 1
456 2569 1
457 15 1
457 80 1
457 98 1
457 195 1
457 547 1
457 665 1
457 685 1
457 1054 1
457 1081 1
457 1242 1
457 1288 1
457 1461 1
457 1574 1
457 2140 1
457 2332 1
457 2349 1
457 2559 1
458 3 1
458 32 1
458 136 1
458 346 1
458 639 1
458 2521 1
459 16 1
459 108 1
459 120 1
459 404 1
459 624 1
459 2548 1
459 2578 1
460 61 1
460 62 1
460 64 1
460 123 1
460 1482 1
460 1897 1
460 2140 1
460 2321 1
460 2397 1
460 2995 1
461 25 1
461 328 1
461 341 1
461 364 1
461 825 1
461 976 1
461 1622 1
461 1672 1
462 2 1
462 15 1
462 112 1
462 259 1
462 834 1
462 1713 1
462 2682 1
463 18 1
463 19 1
463 40 1
463 440 1
463 548 1
463 774 1
463 1209 1
463 1841 1
463 2838 1
464 142 1
464 164 1
464 187 1
464 371 1
464 1269 1
464 1501 1
464 2446 1
465 2 1
465 11 1
465 140 1
465 241 1
465 877 1
465 1225 1
465 1530 1
465 1624 1
465 1724 1
465 1726 1
465 1925 1
465 2237 1
465 2673 1
465 2692 1
466 25 1
466 27 1
466 133 1
466 331 1
466 494 1
466 656 1
466 1079 1
466 1854 1
467 8 1
467 14 1
467 143 1
467 262 1
467 783 1
467 1095 1
467 1523 1
467 2540 1
467 2552 1
468 123 1
468 150 1
468 258 1
468 351 1
468 591 1
468 764 1
468 988 1
468 1349 1
468 1425 1
468 1442 1
468 1871 1
468 2155 1
468 2350 1
468 2529 1
468 2908 1
468 2951 1
469 165 1
469 179 1
469 318 1
469 320 1
469 1265 1
469 1637 1
470 1 1
470 13 1
470 254 1
470 343 1
470 1645 1
471 1 1
471 44 1
471 324 1
471 356 1
471 525 1
471 2016 1
471 2700 1
472 29 1
472 180 1
472 250 1
472 452 1
472 538 1
472 716 1
472 905 1
472 1313 1
472 1808 1
473 9 1
473 76 1
473 131 1
473 287 1
473 734 1
473 1117 1
473 1882 1
474 2 1
474 7 1
474 25 1
474 70 1
474 1249 1
474 1990 1
474 2176 1
475 12 1
475 35 1
475 101 1
475 202 1
475 911 1
475 1311 1
475 1313 1
475 1806 1
475 2423 1
475 2746 1
475 2862 1
476 1 1
476 10 1
476 158 1
476 245 1
476 491 1
476 504 1
476 625 1
476 758 1
476 955 1
476 1138 1
476 1252 1
476 1462 1
476 1550 1
476 1999 1
476 2166 1
476 2331 1
476 2767 1
476 2776 1
476 2958 1
477 88 1
477 94 1
477 118 1
477 212 1
477 958 1
477 2429 1
477 2918 1
478 25 1
478 43 1
478 103 1
478 258 1
478 780 1
478 787 1
478 945 1
478 1349 1
478 1390 1
478 2608 1
478 2833 1
479 82 1
479 161 1
479 211 1
479 251 1
479 510 1
479 721 1
479 899 1
479 1026 1
479 1193 1
479 1862 1
479 2186 1
480 113 1
480 163 1
480 210 1
480 346 1
480 1782 1
481 1 1
481 2 1
481 9 1
481 242 1
481 492 1
481 752 1
481 906 1
481 931 1
481 1049 1
481 1122 1
481 1200 1
481 1378 1
481 1845 1
481 2834 1
482 1 1
482 74 1
482 116 1
482 396 1
482 761 1
482 917 1
482 944 1
482 1218 1
482 1622 1
482 1847 1
482 2088 1
482 2232 1
483 1 1
483 13 1
483 27 1
483 249 1
483 791 1
483 994 1
483 1352 1
483 1433 1
483 1473 1
483 1596 1
483 2041 1
483 2566 1
483 2756 1
484 17 1
484 197 1
484 348 1
484 451 1
485 18 1
485 23 1
485 36 1
485 379 1
485 696 1
485 723 1
485 1322 1
485 1364 1
485 1425 1
485 2397 1
485 2602 1
486 11 1
486 60 1
486 253 1
486 389 1
486 801 1
486 987 1
486 1107 1
486 1170 1
486 1189 1
486 1615 1
486 1705 1
486 2021 1
486 2133 1
486 2343 1
486 2463 1
487 17 1
487 67 1
487 163 1
487 181 1
487 669 1
487 672 1
487 1336 1
487 2272 1
488 68 1
488 219 1
488 222 1
488 436 1
489 20 1
489 71 1
489 368 1
489 431 1
489 780 1
489 1533 1
489 2339 1
489 2424 1
490 50 1
490 92 1
490 161 1
490 182 1
490 602 1
490 2910 1
491 1 1
491 25 1
491 158 1
491 476 1
491 504 1
491 530 1
491 627 1
491 1274 1
491 1548 1
491 1670 1
491 1863 1
491 2122 1
492 9 1
492 164 1
492 378 1
492 481 1
493 6 1
493 27 1
493 187 1
493 190 1
493 1749 1
493 1798 1
493 2126 1
494 27 1
494 30 1
494 374 1
494 466 1
494 976 1
494 1346 1
494 1641 1
494 1671 1
494 1672 1
495 18 1
495 39 1
495 192 1
495 274 1
495 1428 1
496 5 1
496 6 1
496 12 1
496 269 1
496 1119 1
497 9 1
497 77 1
497 86 1
497 290 1
497 700 1
497 889 1
497 1482 1
497 1565 1
497 1661 1
497 2057 1
497 2069 1
497 2191 1
497 2254 1
497 2339 1
497 2439 1
497 2901 1
498 18 1
498 91 1
498 125 1
498 307 1
498 572 1
498 616 1
498 889 1
498 954 1
498 1174 1
498 1358 1
498 1530 1
498 1724 1
498 1734 1
498 2293 1
498 2346 1
498 2430 1
498 2998 1
499 9 1
499 74 1
499 217 1
499 386 1
499 580 1
499 756 1
499 816 1
499 1712 1
499 1795 1
499 2206 1
499 2745 1
500 19 1
500 26 1
500 294 1
500 331 1
500 1125 1
500 1152 1
500 2128 1
501 1 1
501 39 1
501 225 1
501 365 1
501 1138 1
501 2050 1
501 2873 1
502 22 1
502 137 1
502 311 1
502 339 1
502 513 1
502 956 1
502 1579 1
502 1613 1
502 1998 1
502 2190 1
502 2319 1
503 77 1
503 152 1
503 264 1
503 324 1
504 18 1
504 78 1
504 476 1
504 491 1
504 966 1
504 1263 1
505 2 1
505 22 1
505 186 1
505 214 1
505 588 1
505 986 1
505 993 1
505 1365 1
505 1381 1
505 1559 1
505 2107 1
505 2383 1
505 2542 1
506 55 1
506 266 1
506 363 1
506 453 1
506 551 1
506 811 1
506 1497 1
506 1566 1
506 1811 1
506 2252 1
506 2643 1
506 2653 1
507 38 1
507 84 1
507 419 1
507 424 1
507 1171 1
507 1489 1
507 2115 1
507 2766 1
507 2797 1
508 19 1
508 201 1
508 252 1
508 282 1
508 1149 1
508 1167 1
508 1267 1
508 1376 1
508 1768 1
508 1907 1
508 2469 1
509 110 1
509 157 1
509 158 1
509 342 1
509 631 1
509 1370 1
509 1744 1
509 1846 1
509 2141 1
510 14 1
510 223 1
510 414 1
510 479 1
510 2015 1
511 29 1
511 227 1
511 269 1
511 327 1
511 892 1
511 1203 1
511 1740 1
511 2533 1
512 18 1
512 203 1
512 252 1
512 329 1
513 137 1
513 230 1
513 430 1
513 502 1
513 538 1
513 641 1
513 750 1
513 936 1
513 947 1
513 1146 1
513 1253 1
513 1273 1
513 1388 1
513 1439 1
513 1489 1
513 1531 1
513 1579 1
513 1634 1
513 1739 1
513 1874 1
513 1912 1
513 2017 1
513 2132 1
513 2190 1
513 2854 1
513 2884 1
514 11 1
514 28 1
514 62 1
514 88 1
514 754 1
514 827 1
514 880 1
514 1284 1
514 1337 1
514 2005 1
514 2154 1
514 2193 1
514 2265 1
515 17 1
515 54 1
515 326 1
515 427 1
515 765 1
515 861 1
515 952 1
515 983 1
515 1281 1
515 1397 1
515 1542 1
515 2181 1
515 2245 1
515 2514 1
515 2562 1
515 2657 1
515 2896 1
515 2951 1
516 29 1
516 74 1
516 343 1
516 386 1
516 664 1
516 819 1
516 995 1
516 1047 1
516 1839 1
516 1961 1
516 2413 1
516 2607 1
516 2667 1
516 2677 1
516 2872 1
517 10 1
517 27 1
517 213 1
517 276 1
517 866 1
517 885 1
517 896 1
517 1094 1
517 1327 1
517 1604 1
517 1686 1
517 1902 1
517 1948 1
517 2809 1
517 2824 1
518 57 1
518 106 1
518 212 1
518 267 1
518 792 1
518 1569 1
519 73 1
519 80 1
519 93 1
519 344 1
520 9 1
520 68 1
520 105 1
520 322 1
520 1532 1
520 2036 1
520 2407 1
520 2616 1
520 2765 1
521 9 1
521 21 1
521 36 1
521 146 1
521 722 1
521 875 1
521 927 1
521 1033 1
521 1184 1
521 1311 1
521 1418 1
521 1812 1
521 2356 1
521 2412 1
521 2519 1
521 2549 1
521 2646 1
521 2840 1
521 2990 1
522 12 1
522 100 1
522 116 1
522 134 1
522 575 1
522 796 1
522 817 1
522 944 1
522 1368 1
522 1580 1
522 2160 1
522 2348 1
522 2369 1
522 2568 1
523 7 1
523 30 1
523 147 1
523 436 1
523 571 1
523 642 1
523 770 1
523 1118 1
523 1133 1
523 1164 1
523 1213 1
523 1510 1
523 2784 1
523 2812 1
523 2909 1
524 5 1
524 162 1
524 225 1
524 349 1
524 889 1
524 2327 1
524 2751 1
525 1 1
525 86 1
525 324 1
525 471 1
525 1225 1
525 1497 1
526 9 1
526 57 1
526 186 1
526 217 1
526 1361 1
526 2335 1
526 2752 1
527 3 1
527 27 1
527 53 1
527 386 1
527 610 1
527 635 1
527 733 1
527 805 1
527 959 1
527 1597 1
527 1833 1
527 2487 1
527 2892 1
528 11 1
528 42 1
528 94 1
528 453 1
528 557 1
528 848 1
528 1415 1
529 34 1
529 41 1
529 129 1
529 254 1
529 785 1
529 847 1
529 988 1
529 1017 1
529 1478 1
529 1480 1
529 2081 1
529 2497 1
529 2782 1
529 2813 1
530 20 1
530 118 1
530 224 1
530 491 1
530 961 1
530 1222 1
530 1274 1
530 1679 1
530 2202 1
530 2208 1
531 17 1
531 108 1
531 137 1
531 406 1
531 2873 1
532 11 1
532 18 1
532 27 1
532 282 1
532 533 1
532 704 1
532 787 1
532 909 1
532 1021 1
532 1469 1
532 1679 1
532 2369 1
532 2649 1
532 2905 1
533 11 1
533 12 1
533 38 1
533 532 1
533 585 1
533 858 1
533 1068 1
533 1137 1
533 2649 1
533 2717 1
534 137 1
534 197 1
534 322 1
534 377 1
534 952 1
534 1119 1
534 1419 1
534 2407 1
534 2508 1
534 2765 1
534 2893 1
535 1 1
535 43 1
535 282 1
535 397 1
535 543 1
535 733 1
535 1061 1
535 2010 1
536 7 1
536 17 1
536 116 1
536 215 1
536 781 1
536 804 1
536 861 1
536 1013 1
536 2015 1
536 2612 1
537 52 1
537 58 1
537 61 1
537 312 1
537 704 1
537 1154 1
538 180 1
538 405 1
538 472 1
538 513 1
538 750 1
538 834 1
538 905 1
538 1579 1
538 2110 1
538 2132 1
538 2237 1
538 2337 1
538 2489 1
538 2954 1
539 20 1
539 22 1
539 169 1
539 349 1
539 670 1
539 691 1
539 806 1
539 1112 1
539 1309 1
539 1603 1
539 1652 1
539 1680 1
539 1735 1
539 2144 1
539 2823 1
540 9 1
540 29 1
540 34 1
540 287 1
540 580 1
540 620 1
540 1074 1
540 1109 1
540 1527 1
540 2104 1
540 2511 1
540 2561 1
540 2633 1
540 2861 1
541 18 1
541 27 1
541 171 1
541 443 1
541 592 1
541 1082 1
541 1988 1
541 2158 1
542 9 1
542 50 1
542 65 1
542 226 1
542 1316 1
542 1367 1
543 149 1
543 202 1
543 213 1
543 535 1
543 736 1
543 867 1
543 1333 1
543 1474 1
543 1564 1
543 2275 1
544 21 1
544 66 1
544 73 1
544 108 1
544 598 1
544 728 1
544 854 1
544 1013 1
544 1184 1
544 1308 1
544 2094 1
544 2773 1
544 2874 1
545 3 1
545 26 1
545 86 1
545 148 1
545 682 1
545 846 1
545 991 1
545 1564 1
545 1737 1
545 2290 1
546 25 1
546 113 1
546 188 1
546 254 1
547 27 1
547 195 1
547 357 1
547 457 1
547 693 1
547 1028 1
547 1054 1
547 1204 1
547 1533 1
547 1786 1
547 1968 1
547 2086 1
547 2349 1
547 2842 1
548 73 1
548 282 1
548 440 1
548 463 1
548 736 1
548 1209 1
548 1581 1
549 103 1
549 114 1
549 196 1
549 253 1
549 2821 1
550 20 1
550 26 1
550 206 1
550 433 1
550 1167 1
550 1341 1
550 1481 1
550 2168 1
551 1 1
551 174 1
551 205 1
551 506 1
551 598 1
552 9 1
552 18 1
552 105 1
552 237 1
552 1202 1
552 1239 1
552 1650 1
552 2264 1
552 2483 1
553 2 1
553 18 1
553 158 1
553 229 1
553 1023 1
553 1063 1
553 2607 1
554 25 1
554 94 1
554 233 1
554 270 1
554 579 1
554 1347 1
554 2840 1
555 8 1
555 27 1
555 59 1
555 274 1
555 727 1
555 950 1
555 1078 1
555 1280 1
555 1281 1
555 1379 1
555 1433 1
555 1437 1
555 1871 1
555 2269 1
555 2333 1
555 2960 1
556 19 1
556 297 1
556 336 1
556 444 1
556 594 1
556 710 1
556 957 1
556 1001 1
557 3 1
557 254 1
557 390 1
557 528 1
557 2415 1
558 9 1
558 17 1
558 191 1
558 205 1
558 565 1
558 611 1
558 982 1
558 1251 1
558 1898 1
558 1914 1
558 2030 1
558 2108 1
558 2516 1
559 11 1
559 49 1
559 267 1
559 337 1
559 564 1
559 837 1
559 847 1
559 1094 1
559 1514 1
560 21 1
560 25 1
560 89 1
560 108 1
560 731 1
560 1076 1
561 9 1
561 75 1
561 385 1
561 428 1
561 570 1
561 1237 1
561 1338 1
561 1790 1
561 1867 1
561 1909 1
561 2185 1
561 2634 1
562 14 1
562 29 1
562 50 1
562 226 1
562 1056 1
562 1366 1
562 1504 1
562 1983 1
562 2450 1
563 158 1
563 282 1
563 342 1
563 381 1
563 958 1
563 1035 1
563 1220 1
563 2193 1
563 2245 1
563 2937 1
564 10 1
564 11 1
564 169 1
564 559 1
564 766 1
565 17 1
565 191 1
565 413 1
565 558 1
565 607 1
565 1257 1
565 1388 1
565 1759 1
565 2516 1
566 13 1
566 57 1
566 79 1
566 116 1
566 1126 1
566 2372 1
567 5 1
567 14 1
567 34 1
567 202 1
567 745 1
568 18 1
568 290 1
568 300 1
568 365 1
568 966 1
568 1797 1
569 10 1
569 27 1
569 338 1
569 390 1
569 636 1
569 643 1
569 725 1
569 884 1
569 913 1
569 1078 1
569 1228 1
569 1318 1
569 1545 1
569 1876 1
569 2637 1
569 2665 1
569 2904 1
570 9 1
570 10 1
570 150 1
570 561 1
570 803 1
570 1104 1
570 1498 1
570 1866 1
570 2258 1
570 2317 1
571 12 1
571 367 1
571 446 1
571 523 1
571 655 1
571 930 1
571 1133 1
571 1307 1
572 18 1
572 98 1
572 282 1
572 498 1
572 1254 1
573 3 1
573 20 1
573 90 1
573 378 1
573 717 1
573 989 1
573 2396 1
574 9 1
574 137 1
574 141 1
574 199 1
574 1380 1
574 2006 1
575 12 1
575 254 1
575 346 1
575 522 1
575 578 1
575 614 1
575 1438 1
575 1882 1
575 2755 1
576 29 1
576 202 1
576 266 1
576 366 1
576 683 1
576 922 1
576 1088 1
576 2290 1
577 5 1
577 26 1
577 137 1
577 346 1
577 744 1
577 846 1
577 880 1
577 1127 1
577 1342 1
577 1908 1
577 2019 1
577 2333 1
578 113 1
578 313 1
578 346 1
578 575 1
578 614 1
578 630 1
578 662 1
578 979 1
578 1169 1
578 1520 1
578 1673 1
578 2090 1
579 25 1
579 36 1
579 105 1
579 554 1
579 1347 1
579 1610 1
579 1692 1
579 1992 1
579 2265 1
580 9 1
580 51 1
580 499 1
580 540 1
580 609 1
580 2113 1
580 2816 1
581 57 1
581 191 1
581 256 1
581 268 1
581 674 1
581 1990 1
581 2756 1
582 1 1
582 18 1
582 83 1
582 90 1
582 831 1
582 914 1
582 1446 1
582 2318 1
582 2883 1
583 3 1
583 77 1
583 148 1
583 199 1
583 1361 1
584 94 1
584 153 1
584 233 1
584 276 1
584 1685 1
585 3 1
585 5 1
585 253 1
585 533 1
585 619 1
585 778 1
585 858 1
585 902 1
585 1068 1
585 1137 1
585 1306 1
585 1556 1
585 1995 1
585 2143 1
585 2304 1
585 2347 1
585 2610 1
586 6 1
586 11 1
586 364 1
586 373 1
586 669 1
586 1009 1
586 1191 1
586 1555 1
586 2341 1
587 39 1
587 75 1
587 152 1
587 443 1
587 2217 1
588 189 1
588 214 1
588 275 1
588 505 1
588 753 1
588 1121 1
588 1158 1
588 1655 1
588 2425 1
588 2651 1
588 2883 1
589 30 1
589 69 1
589 315 1
589 424 1
589 717 1
589 920 1
589 981 1
589 1199 1
589 1443 1
590 1 1
590 118 1
590 134 1
590 278 1
590 2173 1
590 2371 1
591 17 1
591 113 1
591 123 1
591 468 1
591 773 1
591 1121 1
591 1194 1
591 1442 1
591 2521 1
591 2710 1
592 9 1
592 18 1
592 180 1
592 541 1
592 1729 1
593 3 1
593 9 1
593 147 1
593 290 1
593 906 1
593 1021 1
593 1200 1
593 1417 1
593 1587 1
593 2072 1
594 19 1
594 67 1
594 103 1
594 556 1
594 625 1
594 676 1
594 710 1
594 802 1
594 941 1
594 1400 1
594 1543 1
594 1626 1
594 2084 1
594 2601 1
594 2658 1
594 2996 1
595 29 1
595 52 1
595 139 1
595 265 1
595 668 1
595 673 1
595 784 1
595 803 1
595 1135 1
595 1207 1
595 1298 1
595 1345 1
595 1671 1
595 1708 1
595 1711 1
595 2080 1
595 2387 1
595 2688 1
595 2919 1
595 2984 1
596 10 1
596 27 1
596 265 1
596 358 1
596 2382 1
596 2749 1
597 1 1
597 3 1
597 189 1
597 400 1
597 970 1
597 1208 1
597 1266 1
597 2033 1
597 2757 1
598 77 1
598 79 1
598 544 1
598 551 1
598 1375 1
598 1580 1
599 1 1
599 3 1
599 27 1
599 379 1
599 1008 1
600 10 1
600 57 1
600 118 1
600 345 1
600 1901 1
600 2946 1
601 2 1
601 5 1
601 108 1
601 452 1
601 676 1
601 1165 1
601 1261 1
601 1350 1
601 1372 1
601 1607 1
601 1927 1
601 2210 1
601 2366 1
602 34 1
602 44 1
602 92 1
602 490 1
602 640 1
602 1655 1
602 1719 1
602 2800 1
602 2988 1
603 5 1
603 48 1
603 333 1
603 401 1
603 1218 1
604 2 1
604 5 1
604 47 1
604 190 1
604 894 1
604 1098 1
604 1158 1
604 2013 1
604 2165 1
604 2359 1
604 2908 1
605 7 1
605 39 1
605 91 1
605 273 1
605 2215 1
606 31 1
606 34 1
606 202 1
606 212 1
606 885 1
606 918 1
606 2048 1
607 50 1
607 116 1
607 413 1
607 565 1
607 694 1
607 1257 1
607 1772 1
608 4 1
608 54 1
608 60 1
608 82 1
608 2528 1
609 138 1
609 351 1
609 366 1
609 580 1
609 1335 1
609 1379 1
609 1479 1
609 2327 1
609 2995 1
610 211 1
610 297 1
610 386 1
610 527 1
610 2249 1
611 9 1
611 167 1
611 276 1
611 558 1
611 1223 1
611 1314 1
611 1684 1
611 2361 1
611 2734 1
611 2826 1
611 2839 1
611 2916 1
611 2953 1
612 74 1
612 129 1
612 164 1
612 170 1
612 662 1
612 1371 1
612 1632 1
612 2230 1
612 2364 1
612 2509 1
612 2801 1
612 2812 1
612 2847 1
613 77 1
613 102 1
613 156 1
613 361 1
613 977 1
613 1033 1
613 1091 1
613 2844 1
614 313 1
614 346 1
614 575 1
614 578 1
614 1216 1
614 1635 1
615 180 1
615 194 1
615 298 1
615 428 1
615 649 1
615 868 1
615 1268 1
615 1289 1
615 2754 1
616 10 1
616 91 1
616 358 1
616 498 1
616 832 1
616 1042 1
617 12 1
617 28 1
617 60 1
617 428 1
617 715 1
617 759 1
617 777 1
617 866 1
617 877 1
617 1686 1
617 2162 1
617 2320 1
617 2804 1
618 9 1
618 11 1
618 16 1
618 90 1
618 1170 1
618 1537 1
618 2287 1
618 2341 1
619 93 1
619 250 1
619 352 1
619 585 1
619 871 1
619 2210 1
620 9 1
620 71 1
620 91 1
620 540 1
620 1074 1
620 1820 1
621 2 1
621 25 1
621 152 1
621 176 1
621 968 1
622 25 1
622 76 1
622 139 1
622 215 1
622 645 1
622 671 1
622 797 1
622 885 1
622 1091 1
622 1409 1
622 1561 1
622 1665 1
622 1860 1
622 1894 1
623 39 1
623 66 1
623 229 1
623 431 1
623 1498 1
623 1737 1
623 2472 1
624 2 1
624 73 1
624 108 1
624 459 1
624 1003 1
624 1011 1
625 103 1
625 107 1
625 476 1
625 594 1
625 794 1
625 1945 1
625 2438 1
625 2996 1
626 80 1
626 181 1
626 253 1
626 324 1
626 666 1
626 1646 1
626 2379 1
627 49 1
627 102 1
627 215 1
627 491 1
627 741 1
627 811 1
627 1530 1
627 2622 1
628 17 1
628 28 1
628 306 1
628 375 1
628 945 1
628 1730 1
629 9 1
629 17 1
629 179 1
629 252 1
629 796 1
629 974 1
629 2396 1
629 2851 1
629 2958 1
630 17 1
630 113 1
630 256 1
630 578 1
630 1842 1
630 2388 1
631 18 1
631 342 1
631 430 1
631 509 1
632 12 1
632 13 1
632 141 1
632 262 1
632 872 1
632 958 1
632 1148 1
632 1205 1
632 1892 1
632 2976 1
633 3 1
633 12 1
633 302 1
633 388 1
633 1090 1
633 2832 1
634 9 1
634 25 1
634 76 1
634 237 1
634 769 1
634 808 1
634 1976 1
634 2055 1
634 2127 1
635 25 1
635 138 1
635 386 1
635 527 1
635 1066 1
635 1173 1
635 1411 1
635 1502 1
635 2046 1
635 2444 1
635 2717 1
636 4 1
636 24 1
636 258 1
636 569 1
636 690 1
636 743 1
636 1382 1
636 1619 1
636 2547 1
636 2559 1
637 9 1
637 85 1
637 224 1
637 309 1
637 762 1
637 1082 1
637 1591 1
637 1666 1
637 1708 1
637 2149 1
637 2435 1
638 23 1
638 74 1
638 265 1
638 379 1
639 96 1
639 190 1
639 448 1
639 458 1
639 1787 1
640 6 1
640 11 1
640 44 1
640 602 1
640 818 1
640 1197 1
640 1844 1
640 2355 1
641 30 1
641 69 1
641 137 1
641 513 1
641 677 1
641 830 1
641 850 1
641 877 1
641 1030 1
641 1369 1
641 2693 1
642 30 1
642 36 1
642 230 1
642 523 1
642 716 1
642 2287 1
643 2 1
643 313 1
643 390 1
643 569 1
643 799 1
643 999 1
643 2301 1
643 2322 1
644 9 1
644 237 1
644 261 1
644 409 1
644 2077 1
644 2460 1
645 25 1
645 36 1
645 152 1
645 622 1
645 1409 1
645 1935 1
645 2771 1
645 2863 1
646 14 1
646 18 1
646 298 1
646 355 1
647 114 1
647 179 1
647 283 1
647 306 1
647 1503 1
647 1891 1
647 2340 1
648 83 1
648 172 1
648 254 1
648 327 1
648 2170 1
649 161 1
649 180 1
649 339 1
649 615 1
649 779 1
649 868 1
649 885 1
649 892 1
649 2316 1
649 2367 1
649 2425 1
649 2472 1
650 50 1
650 59 1
650 125 1
650 191 1
650 1285 1
650 1691 1
650 2422 1
650 2577 1
651 2 1
651 12 1
651 30 1
651 194 1
651 1895 1
652 34 1
652 92 1
652 112 1
652 189 1
652 1342 1
652 2058 1
653 92 1
653 122 1
653 133 1
653 315 1
653 1038 1
653 1392 1
654 25 1
654 105 1
654 189 1
654 225 1
654 830 1
654 877 1
654 1032 1
654 1209 1
654 1290 1
654 1550 1
654 1814 1
654 2098 1
655 188 1
655 202 1
655 267 1
655 571 1
655 683 1
655 798 1
655 1029 1
655 1132 1
655 1154 1
655 1162 1
655 1285 1
655 2200 1
655 2398 1
655 2567 1
655 2963 1
656 2 1
656 27 1
656 292 1
656 466 1
657 140 1
657 161 1
657 403 1
657 407 1
657 1224 1
657 1277 1
657 1980 1
657 2126 1
657 2350 1
658 10 1
658 89 1
658 186 1
658 190 1
658 782 1
658 975 1
658 1142 1
658 1169 1
658 1302 1
658 1334 1
658 1388 1
658 1606 1
658 1787 1
658 2184 1
658 2203 1
658 2774 1
658 2808 1
659 1 1
659 17 1
659 71 1
659 191 1
659 1917 1
659 2182 1
659 2495 1
660 28 1
660 75 1
660 300 1
660 386 1
660 823 1
660 1134 1
660 1320 1
660 1716 1
660 2492 1
660 2558 1
661 3 1
661 41 1
661 85 1
661 277 1
661 687 1
661 718 1
661 963 1
661 1033 1
661 1064 1
661 1080 1
661 1233 1
661 1541 1
661 1683 1
661 1835 1
661 2246 1
662 76 1
662 223 1
662 578 1
662 612 1
663 9 1
663 165 1
663 326 1
663 373 1
663 855 1
663 1303 1
663 1468 1
663 1540 1
663 1594 1
663 1640 1
663 2907 1
664 29 1
664 74 1
664 408 1
664 516 1
664 936 1
664 1794 1
664 2413 1
664 2635 1
665 1 1
665 195 1
665 220 1
665 457 1
665 685 1
665 705 1
665 729 1
665 1614 1
665 2332 1
665 2417 1
666 74 1
666 82 1
666 324 1
666 626 1
667 18 1
667 108 1
667 187 1
667 401 1
667 990 1
667 2130 1
667 2955 1
668 21 1
668 114 1
668 208 1
668 595 1
668 784 1
668 803 1
668 1301 1
668 2080 1
668 2117 1
668 2894 1
668 2973 1
669 5 1
669 33 1
669 487 1
669 586 1
669 1008 1
669 2057 1
669 2411 1
670 169 1
670 359 1
670 404 1
670 539 1
670 913 1
670 2233 1
671 9 1
671 194 1
671 265 1
671 622 1
671 772 1
672 1 1
672 5 1
672 67 1
672 487 1
672 1004 1
673 4 1
673 69 1
673 237 1
673 595 1
673 1831 1
673 2205 1
674 86 1
674 268 1
674 346 1
674 581 1
674 800 1
674 814 1
674 1124 1
674 1379 1
674 1799 1
674 2820 1
675 1 1
675 2 1
675 27 1
675 312 1
675 713 1
675 954 1
675 1535 1
675 2405 1
676 123 1
676 298 1
676 594 1
676 601 1
676 727 1
676 901 1
676 1350 1
676 1386 1
676 2073 1
677 80 1
677 92 1
677 133 1
677 641 1
677 843 1
677 1407 1
677 2073 1
677 2434 1
678 4 1
678 94 1
678 198 1
678 271 1
679 1 1
679 9 1
679 20 1
679 147 1
679 1709 1
679 2280 1
680 14 1
680 27 1
680 358 1
680 368 1
680 843 1
680 1319 1
680 2767 1
681 27 1
681 139 1
681 323 1
681 444 1
681 1700 1
682 3 1
682 53 1
682 117 1
682 545 1
682 908 1
682 2437 1
682 2681 1
682 2903 1
683 36 1
683 202 1
683 576 1
683 655 1
683 798 1
683 1285 1
684 3 1
684 42 1
684 395 1
684 404 1
684 1242 1
684 2933 1
685 1 1
685 195 1
685 457 1
685 665 1
685 935 1
685 1054 1
685 1640 1
685 2031 1
685 2421 1
686 11 1
686 119 1
686 211 1
686 223 1
686 1106 1
687 3 1
687 277 1
687 317 1
687 661 1
687 963 1
687 1064 1
688 44 1
688 74 1
688 83 1
688 100 1
689 18 1
689 44 1
689 63 1
689 283 1
689 751 1
689 922 1
689 1416 1
689 1430 1
689 1680 1
689 1979 1
689 2265 1
689 2832 1
690 25 1
690 58 1
690 264 1
690 636 1
690 852 1
690 1325 1
690 1382 1
690 1477 1
690 1560 1
690 1591 1
690 1619 1
690 1771 1
690 1997 1
690 2052 1
690 2575 1
690 2722 1
690 2936 1
691 10 1
691 82 1
691 186 1
691 539 1
691 809 1
691 1020 1
691 1103 1
691 1367 1
692 9 1
692 172 1
692 298 1
692 355 1
692 965 1
692 1002 1
692 1868 1
693 2 1
693 76 1
693 204 1
693 547 1
693 1606 1
694 1 1
694 25 1
694 116 1
694 607 1
694 744 1
694 2142 1
695 5 1
695 18 1
695 52 1
695 286 1
695 713 1
696 5 1
696 41 1
696 249 1
696 485 1
696 839 1
696 1521 1
696 1936 1
696 2390 1
697 3 1
697 23 1
697 338 1
697 377 1
697 2067 1
697 2591 1
698 9 1
698 10 1
698 29 1
698 67 1
698 904 1
698 1940 1
698 2073 1
699 104 1
699 135 1
699 213 1
699 356 1
699 901 1
699 951 1
699 1868 1
699 2242 1
699 2462 1
699 2591 1
700 77 1
700 107 1
700 138 1
700 497 1
700 756 1
700 1129 1
700 1702 1
700 1716 1
700 2363 1
700 2441 1
701 10 1
701 11 1
701 41 1
701 256 1
701 1089 1
701 1448 1
702 9 1
702 55 1
702 123 1
702 131 1
702 1536 1
702 1681 1
702 2895 1
703 1 1
703 34 1
703 142 1
703 279 1
703 1698 1
704 1 1
704 58 1
704 532 1
704 537 1
705 1 1
705 60 1
705 451 1
705 665 1
705 710 1
705 729 1
705 914 1
705 1703 1
705 2313 1
705 2486 1
705 2745 1
706 27 1
706 57 1
706 89 1
706 190 1
707 35 1
707 57 1
707 106 1
707 204 1
707 859 1
707 1252 1
707 1893 1
707 2077 1
707 2253 1
707 2905 1
707 2964 1
708 37 1
708 68 1
708 82 1
708 425 1
708 1083 1
708 1675 1
709 28 1
709 52 1
709 327 1
709 348 1
709 910 1
709 1162 1
709 1392 1
709 1490 1
709 1592 1
709 1628 1
710 451 1
710 556 1
710 594 1
710 705 1
710 802 1
710 914 1
710 1001 1
710 1543 1
710 2308 1
710 2329 1
711 36 1
711 102 1
711 123 1
711 226 1
711 1194 1
711 1471 1
711 1739 1
711 2051 1
711 2854 1
712 2 1
712 83 1
712 87 1
712 97 1
712 1155 1
712 1198 1
712 1263 1
712 1811 1
712 2414 1
713 38 1
713 102 1
713 675 1
713 695 1
713 844 1
714 10 1
714 27 1
714 70 1
714 412 1
714 760 1
714 1097 1
714 1113 1
714 1256 1
714 1432 1
714 1518 1
714 2088 1
714 2224 1
715 34 1
715 90 1
715 139 1
715 617 1
715 1598 1
715 2031 1
715 2191 1
716 82 1
716 420 1
716 472 1
716 642 1
717 27 1
717 378 1
717 573 1
717 589 1
717 920 1
717 989 1
717 1006 1
717 2290 1
718 11 1
718 41 1
718 434 1
718 661 1
718 879 1
718 1399 1
718 2010 1
718 2254 1
719 2 1
719 27 1
719 141 1
719 160 1
719 1085 1
719 1900 1
720 54 1
720 62 1
720 324 1
720 358 1
720 1062 1
720 1138 1
721 29 1
721 161 1
721 182 1
721 479 1
721 1012 1
721 1271 1
721 1940 1
721 2709 1
721 2802 1
722 21 1
722 74 1
722 82 1
722 521 1
722 1205 1
722 1206 1
722 1217 1
722 2084 1
722 2412 1
722 2457 1
723 138 1
723 379 1
723 443 1
723 485 1
723 836 1
723 1027 1
723 1454 1
723 2721 1
723 2788 1
724 47 1
724 73 1
724 98 1
724 119 1
724 826 1
724 1003 1
724 1073 1
724 1089 1
724 2015 1
724 2876 1
725 10 1
725 27 1
725 289 1
725 569 1
725 886 1
725 1030 1
725 1031 1
725 1326 1
725 1363 1
725 2665 1
725 2910 1
725 2943 1
726 1 1
726 18 1
726 76 1
726 431 1
726 1152 1
726 1896 1
726 2438 1
727 27 1
727 237 1
727 555 1
727 676 1
727 950 1
727 1556 1
728 10 1
728 108 1
728 205 1
728 544 1
728 2716 1
729 1 1
729 60 1
729 665 1
729 705 1
729 784 1
729 1306 1
729 1643 1
729 2315 1
729 2975 1
730 14 1
730 29 1
730 46 1
730 203 1
730 814 1
730 990 1
730 1638 1
731 89 1
731 116 1
731 194 1
731 560 1
731 1044 1
731 1169 1
731 1819 1
731 1832 1
731 2211 1
731 2971 1
732 9 1
732 20 1
732 108 1
732 269 1
732 1664 1
733 24 1
733 50 1
733 527 1
733 535 1
733 916 1
733 932 1
733 1452 1
733 1531 1
733 1856 1
733 2432 1
733 2553 1
734 76 1
734 131 1
734 287 1
734 473 1
734 1117 1
734 1964 1
734 2597 1
735 5 1
735 156 1
735 161 1
735 241 1
735 935 1
735 1186 1
735 1975 1
735 2083 1
736 86 1
736 180 1
736 543 1
736 548 1
737 69 1
737 78 1
737 129 1
737 410 1
737 1238 1
737 1713 1
737 2282 1
737 2331 1
737 2420 1
737 2548 1
737 2582 1
738 9 1
738 18 1
738 60 1
738 151 1
738 856 1
738 990 1
738 1042 1
738 1385 1
738 1926 1
738 1969 1
738 2354 1
738 2798 1
739 7 1
739 21 1
739 77 1
739 401 1
740 34 1
740 202 1
740 211 1
740 401 1
740 2601 1
741 13 1
741 310 1
741 363 1
741 627 1
741 1373 1
741 1981 1
741 1988 1
742 33 1
742 34 1
742 92 1
742 445 1
742 1629 1
742 1790 1
742 1854 1
742 2279 1
742 2389 1
742 2458 1
742 2594 1
743 5 1
743 17 1
743 424 1
743 636 1
743 873 1
743 1057 1
743 1472 1
744 7 1
744 346 1
744 577 1
744 694 1
744 758 1
745 2 1
745 188 1
745 202 1
745 567 1
745 1163 1
745 1250 1
745 2358 1
745 2576 1
746 10 1
746 108 1
746 187 1
746 450 1
746 2052 1
746 2296 1
746 2410 1
747 3 1
747 73 1
747 95 1
747 202 1
747 864 1
747 1110 1
747 1296 1
748 5 1
748 10 1
748 35 1
748 227 1
748 792 1
748 863 1
748 1344 1
748 1527 1
748 2256 1
749 188 1
749 257 1
749 363 1
749 453 1
749 1144 1
749 1301 1
750 31 1
750 37 1
750 513 1
750 538 1
750 905 1
750 1038 1
750 1146 1
750 1183 1
750 1466 1
750 1579 1
750 1732 1
750 2564 1
750 2835 1
751 1 1
751 44 1
751 249 1
751 689 1
751 2046 1
751 2423 1
752 57 1
752 65 1
752 291 1
752 481 1
752 1499 1
752 1596 1
752 1721 1
752 2142 1
753 42 1
753 121 1
753 321 1
753 588 1
753 848 1
753 973 1
753 1051 1
753 2093 1
753 2737 1
754 1 1
754 11 1
754 25 1
754 514 1
754 764 1
754 808 1
754 1312 1
754 1337 1
754 1658 1
755 2 1
755 9 1
755 10 1
755 407 1
755 1527 1
755 2001 1
755 2055 1
755 2078 1
756 17 1
756 138 1
756 499 1
756 700 1
756 2463 1
757 25 1
757 34 1
757 176 1
757 291 1
757 995 1
757 2406 1
758 1 1
758 346 1
758 476 1
758 744 1
758 1462 1
758 2120 1
759 26 1
759 335 1
759 410 1
759 617 1
759 1441 1
759 1859 1
759 2987 1
760 2 1
760 346 1
760 412 1
760 714 1
760 1203 1
761 1 1
761 2 1
761 261 1
761 482 1
761 1323 1
761 1784 1
761 2158 1
761 2183 1
762 25 1
762 153 1
762 276 1
762 637 1
762 1141 1
762 1591 1
762 2105 1
762 2149 1
763 5 1
763 155 1
763 276 1
763 286 1
763 2231 1
763 2814 1
764 8 1
764 335 1
764 468 1
764 754 1
764 910 1
764 1885 1
764 2731 1
765 17 1
765 188 1
765 427 1
765 515 1
765 795 1
765 1836 1
765 2562 1
766 6 1
766 105 1
766 143 1
766 564 1
766 806 1
766 1420 1
767 13 1
767 27 1
767 43 1
767 390 1
767 783 1
767 789 1
767 1254 1
768 18 1
768 50 1
768 66 1
768 120 1
769 10 1
769 74 1
769 76 1
769 634 1
769 964 1
769 1083 1
769 1192 1
769 1221 1
769 1780 1
769 1964 1
769 2548 1
770 19 1
770 61 1
770 436 1
770 523 1
770 1360 1
770 1387 1
770 1405 1
770 1630 1
770 1945 1
771 1 1
771 28 1
771 138 1
771 147 1
771 1583 1
771 2284 1
771 2660 1
772 5 1
772 140 1
772 162 1
772 671 1
772 2096 1
772 2982 1
773 55 1
773 69 1
773 113 1
773 591 1
773 1790 1
773 2575 1
774 15 1
774 19 1
774 26 1
774 463 1
774 988 1
774 1909 1
774 1931 1
774 2326 1
774 2525 1
774 2939 1
775 27 1
775 80 1
775 145 1
775 324 1
775 2563 1
776 2 1
776 162 1
776 169 1
776 209 1
777 42 1
777 60 1
777 68 1
777 617 1
777 1802 1
777 2174 1
778 17 1
778 175 1
778 429 1
778 585 1
778 971 1
778 1412 1
778 1728 1
778 2495 1
778 2689 1
779 88 1
779 99 1
779 201 1
779 649 1
780 28 1
780 368 1
780 478 1
780 489 1
780 1398 1
780 1533 1
780 1630 1
780 1804 1
780 2625 1
780 2859 1
781 1 1
781 116 1
781 206 1
781 536 1
781 1139 1
781 1994 1
781 2274 1
782 79 1
782 156 1
782 209 1
782 658 1
782 1230 1
782 1255 1
782 1264 1
782 2184 1
783 13 1
783 35 1
783 467 1
783 767 1
784 208 1
784 595 1
784 668 1
784 729 1
784 2038 1
784 2583 1
785 2 1
785 4 1
785 74 1
785 529 1
785 864 1
785 940 1
785 1017 1
785 1450 1
785 1454 1
785 1478 1
785 1524 1
785 1695 1
785 1705 1
785 1947 1
785 2081 1
785 2100 1
785 2565 1
785 2747 1
785 2777 1
786 11 1
786 28 1
786 108 1
786 196 1
786 2468 1
787 282 1
787 298 1
787 478 1
787 532 1
787 909 1
787 1155 1
787 2674 1
787 2905 1
788 2 1
788 17 1
788 36 1
788 106 1
788 1230 1
788 2663 1
789 5 1
789 18 1
789 163 1
789 767 1
789 1128 1
789 1467 1
789 1611 1
789 2239 1
789 2839 1
790 10 1
790 27 1
790 267 1
790 450 1
790 2225 1
791 3 1
791 14 1
791 42 1
791 483 1
791 1279 1
791 1821 1
792 194 1
792 267 1
792 518 1
792 748 1
792 863 1
793 74 1
793 165 1
793 235 1
793 410 1
793 2522 1
794 50 1
794 107 1
794 108 1
794 625 1
794 812 1
794 985 1
794 1006 1
794 1385 1
794 2363 1
794 2487 1
794 2798 1
794 2822 1
795 180 1
795 386 1
795 427 1
795 765 1
795 827 1
795 1047 1
795 1075 1
795 1505 1
795 1939 1
795 1960 1
795 2448 1
796 9 1
796 103 1
796 522 1
796 629 1
796 1368 1
797 9 1
797 115 1
797 283 1
797 622 1
797 1157 1
798 144 1
798 202 1
798 655 1
798 683 1
799 18 1
799 50 1
799 53 1
799 643 1
800 338 1
800 346 1
800 426 1
800 674 1
800 1794 1
800 2256 1
800 2294 1
801 18 1
801 60 1
801 239 1
801 486 1
801 962 1
801 987 1
801 1107 1
801 1358 1
801 1734 1
801 1918 1
801 2324 1
802 221 1
802 308 1
802 594 1
802 710 1
802 1102 1
802 2084 1
802 2085 1
802 2580 1
803 29 1
803 570 1
803 595 1
803 668 1
803 1140 1
803 2117 1
803 2387 1
804 20 1
804 127 1
804 314 1
804 536 1
804 870 1
804 1071 1
804 1846 1
804 2612 1
804 2730 1
805 18 1
805 27 1
805 456 1
805 527 1
806 3 1
806 22 1
806 539 1
806 766 1
806 893 1
806 1046 1
806 1099 1
806 1187 1
806 1406 1
806 1453 1
806 2338 1
806 2502 1
806 2808 1
807 2 1
807 297 1
807 336 1
807 372 1
808 25 1
808 36 1
808 634 1
808 754 1
808 947 1
808 949 1
808 1514 1
808 2991 1
809 2 1
809 10 1
809 186 1
809 691 1
809 875 1
809 944 1
809 1020 1
809 1103 1
809 1226 1
809 1234 1
809 1243 1
809 1486 1
809 1858 1
809 1995 1
809 2102 1
809 2105 1
809 2360 1
809 2637 1
809 2913 1
809 2957 1
810 1 1
810 17 1
810 219 1
810 266 1
810 1283 1
811 60 1
811 77 1
811 506 1
811 627 1
812 151 1
812 321 1
812 331 1
812 794 1
812 1825 1
812 2009 1
812 2538 1
812 2904 1
812 2999 1
813 74 1
813 329 1
813 386 1
813 451 1
813 1227 1
813 1251 1
813 2271 1
814 14 1
814 403 1
814 674 1
814 730 1
814 2687 1
815 127 1
815 212 1
815 310 1
815 404 1
815 1188 1
815 1839 1
816 9 1
816 50 1
816 92 1
816 499 1
817 12 1
817 224 1
817 300 1
817 522 1
817 1472 1
817 1936 1
817 2515 1
817 2808 1
818 3 1
818 44 1
818 456 1
818 640 1
818 1197 1
818 1260 1
818 1822 1
818 2852 1
819 11 1
819 138 1
819 386 1
819 516 1
819 898 1
819 1143 1
819 1541 1
819 2323 1
819 2667 1
819 2784 1
819 2911 1
820 77 1
820 229 1
820 274 1
820 435 1
821 4 1
821 9 1
821 189 1
821 343 1
821 842 1
821 1316 1
821 1424 1
821 2464 1
822 35 1
822 67 1
822 203 1
822 386 1
822 1206 1
822 1490 1
822 1628 1
823 34 1
823 318 1
823 338 1
823 660 1
823 886 1
823 1508 1
823 1536 1
823 2488 1
824 75 1
824 89 1
824 102 1
824 301 1
825 25 1
825 262 1
825 445 1
825 461 1
825 928 1
825 1288 1
825 2087 1
825 2804 1
826 1 1
826 73 1
826 197 1
826 724 1
826 1016 1
827 17 1
827 27 1
827 514 1
827 795 1
827 2005 1
827 2835 1
827 2934 1
827 2988 1
828 28 1
828 35 1
828 57 1
828 323 1
828 1330 1
828 1582 1
828 2520 1
829 3 1
829 41 1
829 49 1
829 52 1
829 2930 1
830 3 1
830 381 1
830 641 1
830 654 1
830 1030 1
830 1363 1
830 2460 1
831 9 1
831 131 1
831 200 1
831 582 1
831 2895 1
832 27 1
832 28 1
832 33 1
832 616 1
832 2404 1
833 47 1
833 173 1
833 206 1
833 410 1
833 875 1
833 1418 1
833 2217 1
833 2493 1
833 2670 1
834 239 1
834 270 1
834 462 1
834 538 1
834 2237 1
834 2549 1
835 94 1
835 118 1
835 142 1
835 453 1
836 50 1
836 99 1
836 108 1
836 723 1
836 1893 1
836 2169 1
836 2817 1
837 13 1
837 81 1
837 82 1
837 559 1
837 844 1
837 893 1
837 1094 1
837 1571 1
837 1710 1
837 1906 1
837 2978 1
838 118 1
838 345 1
838 388 1
838 443 1
838 1461 1
838 1625 1
838 2306 1
838 2730 1
839 5 1
839 249 1
839 251 1
839 696 1
839 1000 1
839 1101 1
839 1283 1
839 1934 1
839 2176 1
839 2678 1
840 21 1
840 25 1
840 43 1
840 419 1
840 1130 1
840 1966 1
840 2479 1
840 2520 1
841 106 1
841 183 1
841 218 1
841 262 1
841 1076 1
841 1084 1
841 1213 1
841 1906 1
841 2288 1
841 2476 1
841 2512 1
842 41 1
842 189 1
842 354 1
842 821 1
842 925 1
842 1297 1
842 1427 1
842 1511 1
842 1637 1
842 2133 1
842 2506 1
842 2544 1
842 2806 1
843 35 1
843 306 1
843 677 1
843 680 1
843 1244 1
843 2243 1
843 2579 1
843 2758 1
844 81 1
844 274 1
844 713 1
844 837 1
844 1662 1
844 1741 1
844 2131 1
844 2656 1
845 211 1
845 229 1
845 326 1
845 394 1
845 1249 1
845 1800 1
845 1995 1
845 2244 1
846 195 1
846 346 1
846 545 1
846 577 1
846 1782 1
846 2290 1
846 2628 1
847 49 1
847 129 1
847 529 1
847 559 1
847 2189 1
848 16 1
848 42 1
848 528 1
848 753 1
849 1 1
849 5 1
849 50 1
849 370 1
849 2940 1
850 30 1
850 159 1
850 250 1
850 641 1
850 1280 1
850 2307 1
851 12 1
851 194 1
851 370 1
851 442 1
851 1731 1
851 2440 1
851 2974 1
852 3 1
852 25 1
852 270 1
852 690 1
852 1382 1
852 1528 1
852 1657 1
852 1774 1
853 17 1
853 48 1
853 77 1
853 286 1
853 1118 1
853 1516 1
853 1635 1
853 1656 1
853 1819 1
853 2618 1
854 17 1
854 50 1
854 73 1
854 544 1
854 1891 1
854 2340 1
854 2625 1
855 9 1
855 141 1
855 451 1
855 663 1
856 17 1
856 60 1
856 291 1
856 738 1
856 1214 1
857 3 1
857 84 1
857 432 1
857 438 1
857 917 1
857 928 1
857 1282 1
857 1285 1
857 1338 1
857 1353 1
857 1403 1
857 1432 1
857 1500 1
857 1575 1
857 1675 1
857 1707 1
857 1857 1
857 2138 1
857 2220 1
857 2428 1
857 2457 1
857 2606 1
858 166 1
858 176 1
858 533 1
858 585 1
858 1015 1
858 1068 1
858 1431 1
858 1733 1
858 2059 1
858 2294 1
858 2525 1
858 2855 1
859 62 1
859 97 1
859 134 1
859 707 1
860 5 1
860 39 1
860 271 1
860 406 1
860 967 1
860 2348 1
860 2551 1
860 2597 1
861 17 1
861 400 1
861 515 1
861 536 1
861 1542 1
862 10 1
862 65 1
862 153 1
862 322 1
862 906 1
862 1315 1
862 2226 1
862 2725 1
863 5 1
863 73 1
863 748 1
863 792 1
863 1162 1
863 2518 1
864 2 1
864 95 1
864 747 1
864 785 1
864 991 1
865 9 1
865 53 1
865 74 1
865 161 1
865 963 1
865 1147 1
865 1551 1
865 1780 1
865 2002 1
865 2108 1
865 2291 1
865 2302 1
865 2308 1
865 2505 1
865 2560 1
865 2942 1
866 9 1
866 10 1
866 517 1
866 617 1
866 1686 1
866 2020 1
867 20 1
867 35 1
867 110 1
867 543 1
867 1195 1
867 1347 1
867 1827 1
867 2656 1
867 2758 1
868 6 1
868 57 1
868 615 1
868 649 1
868 1499 1
868 1516 1
868 2316 1
868 2367 1
869 11 1
869 108 1
869 121 1
869 133 1
869 881 1
869 1127 1
869 1334 1
869 1445 1
869 1560 1
869 1678 1
869 1732 1
869 2207 1
869 2543 1
869 2952 1
870 9 1
870 20 1
870 304 1
870 804 1
870 991 1
870 2622 1
871 188 1
871 250 1
871 308 1
871 619 1
871 1037 1
872 5 1
872 7 1
872 418 1
872 632 1
872 1319 1
872 1817 1
873 17 1
873 326 1
873 393 1
873 743 1
873 915 1
873 1593 1
873 1722 1
873 1993 1
873 2008 1
873 2081 1
873 2532 1
873 2631 1
873 2915 1
874 13 1
874 63 1
874 140 1
874 141 1
874 1209 1
874 2007 1
874 2124 1
874 2638 1
875 410 1
875 521 1
875 809 1
875 833 1
875 884 1
875 1037 1
875 1234 1
875 1418 1
875 1474 1
875 1723 1
875 2165 1
875 2217 1
875 2519 1
876 9 1
876 92 1
876 94 1
876 257 1
876 1112 1
876 1239 1
876 2274 1
877 465 1
877 617 1
877 641 1
877 654 1
877 2673 1
877 2804 1
878 156 1
878 197 1
878 245 1
878 291 1
878 1216 1
878 1334 1
878 2851 1
879 41 1
879 249 1
879 250 1
879 718 1
880 77 1
880 346 1
880 514 1
880 577 1
880 1888 1
881 11 1
881 114 1
881 164 1
881 869 1
881 1127 1
881 1678 1
881 1708 1
881 1928 1
881 1944 1
881 2061 1
882 9 1
882 34 1
882 202 1
882 355 1
882 1582 1
882 1639 1
883 36 1
883 136 1
883 146 1
883 403 1
883 1495 1
883 2011 1
883 2449 1
883 2885 1
883 2930 1
884 26 1
884 410 1
884 569 1
884 875 1
884 1115 1
884 1474 1
884 1564 1
884 1753 1
884 1940 1
884 2151 1
884 2732 1
884 2734 1
884 2904 1
885 517 1
885 606 1
885 622 1
885 649 1
885 1086 1
885 1167 1
885 1325 1
885 1348 1
885 1498 1
885 2367 1
886 21 1
886 413 1
886 725 1
886 823 1
886 2910 1
886 2923 1
887 18 1
887 43 1
887 186 1
887 232 1
888 86 1
888 293 1
888 297 1
888 403 1
888 1444 1
888 1562 1
888 2502 1
889 9 1
889 497 1
889 498 1
889 524 1
889 1720 1
889 2346 1
889 2615 1
890 2 1
890 17 1
890 113 1
890 130 1
890 1232 1
890 1537 1
890 2388 1
890 2555 1
890 2686 1
891 9 1
891 11 1
891 108 1
891 445 1
891 1258 1
891 1412 1
891 1492 1
891 1982 1
891 2570 1
891 2615 1
891 2778 1
892 35 1
892 75 1
892 511 1
892 649 1
892 1166 1
893 114 1
893 306 1
893 806 1
893 837 1
893 1959 1
894 2 1
894 202 1
894 278 1
894 604 1
894 1381 1
894 1866 1
894 2694 1
895 39 1
895 77 1
895 201 1
895 454 1
895 2588 1
896 11 1
896 278 1
896 323 1
896 517 1
896 1327 1
896 1902 1
896 2824 1
897 10 1
897 57 1
897 92 1
897 382 1
897 1194 1
897 1508 1
897 1750 1
897 2076 1
897 2293 1
897 2787 1
898 142 1
898 151 1
898 276 1
898 819 1
898 1031 1
898 1143 1
898 1182 1
898 1776 1
898 1967 1
898 2291 1
898 2911 1
899 14 1
899 161 1
899 311 1
899 479 1
899 1785 1
899 2859 1
900 27 1
900 94 1
900 260 1
900 454 1
901 2 1
901 104 1
901 676 1
901 699 1
901 921 1
901 1289 1
902 3 1
902 18 1
902 128 1
902 585 1
902 1774 1
902 1786 1
902 2802 1
903 10 1
903 60 1
903 165 1
903 169 1
903 2925 1
904 10 1
904 267 1
904 358 1
904 698 1
905 425 1
905 472 1
905 538 1
905 750 1
905 1183 1
905 1313 1
905 1466 1
905 1732 1
905 1960 1
905 2835 1
905 2891 1
906 3 1
906 481 1
906 593 1
906 862 1
906 931 1
906 1200 1
906 1366 1
906 1729 1
906 1845 1
906 2072 1
906 2226 1
907 9 1
907 53 1
907 284 1
907 305 1
908 10 1
908 50 1
908 164 1
908 682 1
908 1761 1
908 2626 1
909 281 1
909 290 1
909 532 1
909 787 1
909 1679 1
909 1778 1
909 1795 1
909 1809 1
909 1871 1
909 2369 1
909 2463 1
909 2665 1
910 47 1
910 52 1
910 709 1
910 764 1
910 1027 1
910 1045 1
910 1777 1
911 12 1
911 65 1
911 143 1
911 475 1
911 1055 1
911 1433 1
911 2909 1
912 20 1
912 149 1
912 312 1
912 341 1
912 968 1
913 95 1
913 404 1
913 569 1
913 670 1
913 1318 1
913 1608 1
913 1698 1
913 1973 1
914 18 1
914 582 1
914 705 1
914 710 1
914 2486 1
914 2969 1
915 17 1
915 140 1
915 374 1
915 873 1
916 25 1
916 206 1
916 442 1
916 733 1
916 2360 1
917 299 1
917 438 1
917 482 1
917 857 1
917 944 1
917 1203 1
917 1732 1
917 1879 1
917 2392 1
917 2419 1
918 9 1
918 212 1
918 261 1
918 606 1
918 1355 1
918 1387 1
918 1405 1
918 2146 1
918 2201 1
918 2810 1
918 2836 1
919 1 1
919 2 1
919 3 1
919 437 1
919 1631 1
919 2268 1
920 2 1
920 6 1
920 589 1
920 717 1
921 49 1
921 194 1
921 442 1
921 901 1
921 1415 1
921 1827 1
921 1998 1
921 2965 1
922 17 1
922 74 1
922 576 1
922 689 1
922 1282 1
922 1416 1
922 1520 1
922 1623 1
922 1755 1
922 1912 1
922 1979 1
922 2310 1
922 2398 1
922 2418 1
922 2588 1
922 2931 1
923 25 1
923 47 1
923 58 1
923 133 1
923 1256 1
923 1704 1
923 2257 1
924 3 1
924 118 1
924 204 1
924 250 1
924 1037 1
924 1421 1
924 2502 1
924 2980 1
925 225 1
925 226 1
925 227 1
925 842 1
925 942 1
925 1657 1
925 2092 1
925 2506 1
925 2718 1
925 2924 1
926 2 1
926 93 1
926 346 1
926 373 1
926 1646 1
926 1965 1
926 2150 1
926 2474 1
927 65 1
927 169 1
927 412 1
927 521 1
927 1241 1
928 17 1
928 432 1
928 825 1
928 857 1
928 1707 1
928 2614 1
929 5 1
929 9 1
929 25 1
929 82 1
929 1223 1
929 1389 1
929 1469 1
929 1773 1
930 12 1
930 27 1
930 28 1
930 571 1
930 2715 1
930 2763 1
931 18 1
931 372 1
931 481 1
931 906 1
931 1378 1
931 2012 1
931 2392 1
932 5 1
932 153 1
932 182 1
932 733 1
932 1632 1
932 1761 1
932 1975 1
932 2250 1
932 2344 1
933 11 1
933 18 1
933 135 1
933 175 1
933 1475 1
933 1751 1
933 2330 1
933 2683 1
933 2877 1
934 3 1
934 57 1
934 116 1
934 253 1
934 1525 1
934 1561 1
934 2368 1
935 44 1
935 119 1
935 685 1
935 735 1
935 985 1
935 1066 1
935 1186 1
936 1 1
936 3 1
936 513 1
936 664 1
936 1989 1
936 2132 1
936 2190 1
936 2635 1
937 41 1
937 154 1
937 362 1
937 427 1
937 1404 1
937 1612 1
937 2906 1
938 75 1
938 129 1
938 206 1
938 317 1
938 2492 1
939 13 1
939 27 1
939 61 1
939 418 1
939 1178 1
939 1676 1
940 4 1
940 27 1
940 58 1
940 785 1
940 1621 1
940 1695 1
940 2323 1
940 2936 1
940 3000 1
941 9 1
941 50 1
941 426 1
941 594 1
941 2658 1
941 2661 1
941 2837 1
942 225 1
942 250 1
942 411 1
942 925 1
942 2741 1
943 18 1
943 301 1
943 332 1
943 379 1
943 1173 1
943 1188 1
943 1677 1
943 2390 1
943 2581 1
944 482 1
944 522 1
944 809 1
944 917 1
945 89 1
945 259 1
945 478 1
945 628 1
945 1270 1
945 1573 1
945 2220 1
945 2587 1
945 2985 1
946 10 1
946 11 1
946 12 1
946 224 1
946 1143 1
946 1199 1
946 1303 1
946 1357 1
946 2711 1
947 66 1
947 433 1
947 513 1
947 808 1
947 953 1
947 1238 1
947 1253 1
947 1292 1
947 1439 1
947 2132 1
947 2811 1
948 16 1
948 72 1
948 138 1
948 237 1
948 1024 1
948 1309 1
948 2437 1
949 25 1
949 48 1
949 77 1
949 808 1
949 2196 1
949 2272 1
950 17 1
950 76 1
950 555 1
950 727 1
950 2192 1
951 35 1
951 104 1
951 356 1
951 699 1
952 57 1
952 111 1
952 515 1
952 534 1
952 2245 1
953 11 1
953 130 1
953 133 1
953 947 1
953 985 1
953 1238 1
953 1248 1
953 1446 1
953 2153 1
953 2342 1
953 2557 1
953 2590 1
954 278 1
954 372 1
954 498 1
954 675 1
954 1174 1
954 1640 1
954 2545 1
954 2998 1
955 2 1
955 77 1
955 362 1
955 476 1
955 1129 1
955 1279 1
955 1434 1
955 1494 1
955 1545 1
955 2393 1
955 2402 1
955 2448 1
955 2750 1
956 137 1
956 178 1
956 310 1
956 502 1
956 1455 1
956 1613 1
957 13 1
957 34 1
957 448 1
957 556 1
957 1122 1
958 153 1
958 477 1
958 563 1
958 632 1
959 3 1
959 37 1
959 370 1
959 527 1
959 1833 1
959 2581 1
960 5 1
960 125 1
960 194 1
960 300 1
960 2440 1
961 2 1
961 50 1
961 224 1
961 530 1
961 2202 1
961 2208 1
962 2 1
962 60 1
962 184 1
962 801 1
962 1035 1
962 1734 1
962 2242 1
963 222 1
963 661 1
963 687 1
963 865 1
963 1064 1
963 2679 1
964 129 1
964 282 1
964 355 1
964 769 1
964 1480 1
964 2041 1
964 2994 1
965 25 1
965 117 1
965 355 1
965 692 1
965 1325 1
966 18 1
966 222 1
966 504 1
966 568 1
967 129 1
967 130 1
967 406 1
967 860 1
967 1152 1
967 1276 1
967 2551 1
968 20 1
968 41 1
968 621 1
968 912 1
969 50 1
969 158 1
969 186 1
969 217 1
969 1134 1
969 1496 1
969 1546 1
969 1644 1
969 2177 1
969 2914 1
970 33 1
970 64 1
970 380 1
970 597 1
970 1012 1
970 1032 1
970 1105 1
970 1857 1
970 1933 1
970 2017 1
970 2759 1
971 67 1
971 249 1
971 429 1
971 778 1
971 1204 1
971 2000 1
971 2077 1
971 2706 1
972 13 1
972 17 1
972 68 1
972 403 1
972 998 1
972 1084 1
972 1259 1
972 1887 1
972 2007 1
972 2053 1
972 2790 1
973 1 1
973 10 1
973 140 1
973 753 1
973 1408 1
973 2726 1
974 60 1
974 179 1
974 385 1
974 629 1
974 1041 1
975 1 1
975 107 1
975 353 1
975 658 1
975 1172 1
975 1373 1
975 1464 1
975 1753 1
975 1878 1
975 2460 1
976 11 1
976 25 1
976 461 1
976 494 1
976 1131 1
976 1446 1
976 2028 1
976 2260 1
976 2523 1
977 163 1
977 346 1
977 416 1
977 613 1
977 1033 1
978 27 1
978 76 1
978 138 1
978 438 1
978 1110 1
978 1647 1
978 1953 1
978 2298 1
978 2332 1
978 2747 1
979 71 1
979 73 1
979 130 1
979 578 1
979 1574 1
980 34 1
980 90 1
980 94 1
980 281 1
980 2561 1
981 262 1
981 315 1
981 322 1
981 589 1
981 1211 1
981 1816 1
982 7 1
982 18 1
982 339 1
982 558 1
982 1369 1
982 2049 1
982 2585 1
983 25 1
983 113 1
983 182 1
983 515 1
984 6 1
984 54 1
984 82 1
984 172 1
985 130 1
985 794 1
985 935 1
985 953 1
985 1098 1
985 1377 1
985 1718 1
985 1949 1
985 2013 1
985 2342 1
985 2554 1
985 2888 1
985 2892 1
985 2895 1
986 62 1
986 186 1
986 210 1
986 505 1
986 993 1
986 1559 1
986 1572 1
986 1676 1
986 1711 1
986 2282 1
986 2383 1
986 2769 1
987 2 1
987 18 1
987 486 1
987 801 1
987 2329 1
987 2903 1
987 2977 1
988 25 1
988 468 1
988 529 1
988 774 1
988 1377 1
988 1578 1
988 2097 1
989 13 1
989 113 1
989 573 1
989 717 1
989 1923 1
990 9 1
990 667 1
990 730 1
990 738 1
990 1938 1
990 2118 1
991 11 1
991 545 1
991 864 1
991 870 1
991 1363 1
991 1645 1
991 2012 1
991 2318 1
992 109 1
992 165 1
992 166 1
992 263 1
992 1024 1
992 1052 1
993 34 1
993 257 1
993 505 1
993 986 1
993 1572 1
993 1599 1
993 2542 1
993 2769 1
994 1 1
994 135 1
994 409 1
994 483 1
994 1473 1
994 1563 1
994 1837 1
994 2742 1
994 2792 1
995 36 1
995 164 1
995 516 1
995 757 1
995 1065 1
995 1268 1
995 1414 1
995 1457 1
995 1800 1
995 1961 1
995 2406 1
995 2669 1
996 9 1
996 194 1
996 296 1
996 418 1
996 1991 1
996 2343 1
997 5 1
997 74 1
997 110 1
997 252 1
997 1018 1
997 1072 1
997 1609 1
997 2059 1
997 2464 1
997 2633 1
998 16 1
998 103 1
998 244 1
998 972 1
998 1104 1
998 2683 1
998 2790 1
999 1 1
999 141 1
999 171 1
999 643 1
999 1129 1
999 1904 1
1000 195 1
1000 249 1
1000 349 1
1000 839 1
1000 2094 1
1001 60 1
1001 195 1
1001 556 1
1001 710 1
1001 1153 1
1001 1942 1
1001 2528 1
1001 2920 1
1002 90 1
1002 111 1
1002 355 1
1002 692 1
1002 1127 1
1002 1439 1
1002 1636 1
1002 1963 1
1002 2095 1
1002 2191 1
1003 73 1
1003 397 1
1003 624 1
1003 724 1
1003 1061 1
1003 1782 1
1003 2044 1
1003 2724 1
1004 25 1
1004 241 1
1004 325 1
1004 672 1
1004 1838 1
1004 1881 1
1005 42 1
1005 67 1
1005 156 1
1005 181 1
1006 17 1
1006 323 1
1006 717 1
1006 794 1
1006 1040 1
1007 101 1
1007 329 1
1007 342 1
1007 353 1
1008 27 1
1008 53 1
1008 599 1
1008 669 1
1008 1512 1
1008 1759 1
1008 2714 1
1009 9 1
1009 345 1
1009 373 1
1009 586 1
1009 1076 1
1009 1487 1
1009 1509 1
1010 9 1
1010 82 1
1010 84 1
1010 298 1
1010 1125 1
1010 1604 1
1010 1864 1
1010 2298 1
1010 2623 1
1010 2837 1
1010 2857 1
1011 17 1
1011 108 1
1011 393 1
1011 624 1
1011 1975 1
1012 29 1
1012 182 1
1012 721 1
1012 970 1
1012 1032 1
1013 8 1
1013 255 1
1013 536 1
1013 544 1
1014 140 1
1014 218 1
1014 227 1
1014 365 1
1015 119 1
1015 155 1
1015 286 1
1015 858 1
1015 1215 1
1015 2432 1
1016 1 1
1016 73 1
1016 175 1
1016 826 1
1016 2781 1
1016 2827 1
1017 27 1
1017 74 1
1017 529 1
1017 785 1
1017 1145 1
1017 1308 1
1017 1451 1
1017 2081 1
1017 2168 1
1017 2405 1
1017 2670 1
1017 2828 1
1018 5 1
1018 197 1
1018 451 1
1018 997 1
1018 1052 1
1018 1072 1
1018 1979 1
1018 2567 1
1018 2791 1
1019 9 1
1019 52 1
1019 211 1
1019 446 1
1019 1697 1
1020 2 1
1020 186 1
1020 691 1
1020 809 1
1020 2913 1
1021 69 1
1021 282 1
1021 532 1
1021 593 1
1021 1587 1
1021 1756 1
1021 1860 1
1021 2064 1
1022 2 1
1022 53 1
1022 390 1
1022 437 1
1022 2674 1
1023 18 1
1023 229 1
1023 367 1
1023 553 1
1023 1880 1
1024 18 1
1024 254 1
1024 948 1
1024 992 1
1024 1551 1
1024 2494 1
1025 68 1
1025 91 1
1025 116 1
1025 123 1
1025 1820 1
1026 2 1
1026 25 1
1026 27 1
1026 479 1
1026 1156 1
1026 1332 1
1026 1853 1
1026 2882 1
1027 11 1
1027 47 1
1027 723 1
1027 910 1
1027 1601 1
1027 1763 1
1028 10 1
1028 186 1
1028 369 1
1028 547 1
1028 2375 1
1028 2430 1
1028 2752 1
1029 3 1
1029 77 1
1029 417 1
1029 655 1
1029 1087 1
1029 1154 1
1029 1339 1
1030 402 1
1030 641 1
1030 725 1
1030 830 1
1030 1363 1
1031 276 1
1031 289 1
1031 725 1
1031 898 1
1031 2609 1
1032 2 1
1032 654 1
1032 970 1
1032 1012 1
1032 2187 1
1033 521 1
1033 613 1
1033 661 1
1033 977 1
1033 1144 1
1033 1233 1
1033 2246 1
1033 2929 1
1034 1 1
1034 18 1
1034 101 1
1034 195 1
1034 1223 1
1034 1232 1
1034 2606 1
1035 257 1
1035 282 1
1035 563 1
1035 962 1
1035 1144 1
1036 10 1
1036 27 1
1036 66 1
1036 167 1
1036 1977 1
1037 250 1
1037 871 1
1037 875 1
1037 924 1
1037 1039 1
1037 1222 1
1037 2233 1
1038 204 1
1038 272 1
1038 653 1
1038 750 1
1038 1267 1
1038 2602 1
1039 5 1
1039 50 1
1039 312 1
1039 1037 1
1040 61 1
1040 99 1
1040 107 1
1040 1006 1
1041 18 1
1041 60 1
1041 129 1
1041 974 1
1041 2101 1
1041 2145 1
1041 2508 1
1042 46 1
1042 91 1
1042 616 1
1042 738 1
1042 1926 1
1042 2003 1
1043 17 1
1043 27 1
1043 91 1
1043 292 1
1043 1204 1
1043 1224 1
1043 1354 1
1043 1921 1
1043 2065 1
1043 2623 1
1043 2705 1
1043 2772 1
1043 2862 1
1044 1 1
1044 194 1
1044 296 1
1044 731 1
1044 2117 1
1045 200 1
1045 262 1
1045 326 1
1045 910 1
1045 1141 1
1045 1312 1
1045 2452 1
1045 2911 1
1046 9 1
1046 22 1
1046 147 1
1046 806 1
1046 2787 1
1047 18 1
1047 386 1
1047 516 1
1047 795 1
1047 2448 1
1048 161 1
1048 211 1
1048 214 1
1048 287 1
1048 1245 1
1049 33 1
1049 67 1
1049 358 1
1049 481 1
1049 1513 1
1049 1904 1
1049 2404 1
1049 2640 1
1050 250 1
1050 385 1
1050 411 1
1050 442 1
1050 1290 1
1050 1421 1
1050 1814 1
1050 2275 1
1050 2610 1
1050 2644 1
1050 2992 1
1051 67 1
1051 121 1
1051 229 1
1051 753 1
1051 1506 1
1051 1718 1
1051 1910 1
1051 1931 1
1051 2218 1
1051 2523 1
1052 165 1
1052 206 1
1052 992 1
1052 1018 1
1052 1072 1
1052 1351 1
1052 1523 1
1052 2960 1
1052 2972 1
1053 2 1
1053 74 1
1053 189 1
1053 275 1
1053 1191 1
1053 1302 1
1054 80 1
1054 457 1
1054 547 1
1054 685 1
1054 2349 1
1055 5 1
1055 65 1
1055 270 1
1055 911 1
1056 2 1
1056 14 1
1056 250 1
1056 562 1
1056 1366 1
1056 1618 1
1057 2 1
1057 266 1
1057 453 1
1057 743 1
1057 1213 1
1057 2912 1
1058 2 1
1058 9 1
1058 193 1
1058 275 1
1059 4 1
1059 25 1
1059 96 1
1059 221 1
1059 1544 1
1059 1725 1
1059 1733 1
1060 5 1
1060 71 1
1060 138 1
1060 370 1
1060 1070 1
1060 1818 1
1061 27 1
1061 397 1
1061 535 1
1061 1003 1
1061 1063 1
1062 54 1
1062 74 1
1062 362 1
1062 720 1
1062 1069 1
1062 1484 1
1063 27 1
1063 131 1
1063 553 1
1063 1061 1
1063 1257 1
1064 20 1
1064 661 1
1064 687 1
1064 963 1
1064 2654 1
1065 39 1
1065 49 1
1065 84 1
1065 995 1
1065 1414 1
1065 1952 1
1065 2453 1
1066 44 1
1066 386 1
1066 635 1
1066 935 1
1066 1751 1
1066 1903 1
1066 2701 1
1066 2718 1
1067 130 1
1067 194 1
1067 278 1
1067 414 1
1067 1944 1
1067 2223 1
1067 2641 1
1067 2727 1
1068 281 1
1068 533 1
1068 585 1
1068 858 1
1068 1995 1
1068 2134 1
1069 30 1
1069 281 1
1069 328 1
1069 1062 1
1069 1168 1
1069 1479 1
1069 1880 1
1069 2701 1
1069 2785 1
1070 83 1
1070 105 1
1070 387 1
1070 1060 1
1071 27 1
1071 131 1
1071 331 1
1071 804 1
1071 2024 1
1071 2111 1
1071 2357 1
1072 92 1
1072 997 1
1072 1018 1
1072 1052 1
1072 1351 1
1072 2989 1
1073 74 1
1073 237 1
1073 338 1
1073 724 1
1073 1133 1
1073 1610 1
1073 1810 1
1073 1959 1
1073 2155 1
1073 2245 1
1073 2920 1
1074 71 1
1074 83 1
1074 540 1
1074 620 1
1074 1109 1
1074 2491 1
1075 108 1
1075 345 1
1075 450 1
1075 795 1
1075 1939 1
1075 2466 1
1075 2468 1
1076 71 1
1076 560 1
1076 841 1
1076 1009 1
1076 1487 1
1076 2322 1
1076 2512 1
1077 5 1
1077 17 1
1077 134 1
1077 282 1
1078 27 1
1078 237 1
1078 555 1
1078 569 1
1078 1876 1
1079 27 1
1079 147 1
1079 331 1
1079 466 1
1080 3 1
1080 74 1
1080 126 1
1080 661 1
1080 2410 1
1080 2499 1
1081 140 1
1081 318 1
1081 445 1
1081 457 1
1081 1799 1
1081 2299 1
1081 2330 1
1081 2713 1
1081 2953 1
1082 149 1
1082 261 1
1082 541 1
1082 637 1
1082 1593 1
1082 1722 1
1083 89 1
1083 273 1
1083 708 1
1083 769 1
1083 1192 1
1083 1330 1
1083 1675 1
1083 1865 1
1083 2572 1
1084 9 1
1084 36 1
1084 841 1
1084 972 1
1084 1213 1
1084 2205 1
1084 2587 1
1085 2 1
1085 298 1
1085 406 1
1085 719 1
1086 11 1
1086 12 1
1086 28 1
1086 885 1
1086 2780 1
1087 17 1
1087 34 1
1087 109 1
1087 1029 1
1087 1766 1
1088 36 1
1088 300 1
1088 366 1
1088 576 1
1088 1706 1
1088 2213 1
1089 4 1
1089 256 1
1089 701 1
1089 724 1
1089 2876 1
1090 66 1
1090 302 1
1090 388 1
1090 633 1
1090 1219 1
1090 1993 1
1091 17 1
1091 99 1
1091 613 1
1091 622 1
1091 1271 1
1091 1443 1
1092 3 1
1092 11 1
1092 369 1
1092 401 1
1092 1150 1
1092 1225 1
1092 1254 1
1092 1272 1
1092 1295 1
1092 1863 1
1092 2314 1
1093 20 1
1093 186 1
1093 386 1
1093 400 1
1093 2146 1
1094 27 1
1094 517 1
1094 559 1
1094 837 1
1094 1160 1
1094 1327 1
1095 2 1
1095 14 1
1095 124 1
1095 467 1
1096 5 1
1096 82 1
1096 113 1
1096 269 1
1096 2710 1
1097 35 1
1097 336 1
1097 387 1
1097 714 1
1097 1256 1
1098 163 1
1098 335 1
1098 604 1
1098 985 1
1098 2013 1
1098 2554 1
1098 2714 1
1098 2762 1
1099 12 1
1099 271 1
1099 442 1
1099 806 1
1099 1406 1
1099 2219 1
1100 1 1
1100 27 1
1100 269 1
1100 422 1
1100 2664 1
1101 5 1
1101 226 1
1101 307 1
1101 839 1
1101 1934 1
1102 9 1
1102 44 1
1102 407 1
1102 802 1
1102 1340 1
1102 1736 1
1103 2 1
1103 379 1
1103 691 1
1103 809 1
1103 2360 1
1104 50 1
1104 103 1
1104 570 1
1104 998 1
1104 1621 1
1104 2258 1
1105 15 1
1105 76 1
1105 411 1
1105 970 1
1105 1111 1
1105 1621 1
1105 1858 1
1105 2362 1
1106 130 1
1106 151 1
1106 223 1
1106 686 1
1106 1522 1
1106 1632 1
1106 2032 1
1106 2173 1
1106 2515 1
1107 69 1
1107 382 1
1107 486 1
1107 801 1
1107 1159 1
1107 1705 1
1107 1928 1
1107 2021 1
1108 85 1
1108 196 1
1108 305 1
1108 376 1
1108 1160 1
1108 1798 1
1108 2321 1
1108 2553 1
1109 1 1
1109 325 1
1109 540 1
1109 1074 1
1109 2393 1
1110 149 1
1110 419 1
1110 747 1
1110 978 1
1110 1151 1
1110 1953 1
1111 2 1
1111 15 1
1111 356 1
1111 1105 1
1111 1701 1
1112 257 1
1112 284 1
1112 539 1
1112 876 1
1112 1648 1
1112 2666 1
1113 13 1
1113 193 1
1113 412 1
1113 714 1
1113 1241 1
1113 1431 1
1113 1824 1
1113 2255 1
1113 2812 1
1114 18 1
1114 234 1
1114 406 1
1114 443 1
1114 2010 1
1114 2342 1
1114 2721 1
1115 1 1
1115 194 1
1115 250 1
1115 884 1
1115 1205 1
1115 1940 1
1116 35 1
1116 238 1
1116 318 1
1116 453 1
1116 1136 1
1117 76 1
1117 287 1
1117 473 1
1117 734 1
1117 1798 1
1118 417 1
1118 436 1
1118 523 1
1118 853 1
1119 6 1
1119 155 1
1119 496 1
1119 534 1
1119 1159 1
1119 1202 1
1119 2485 1
1119 2720 1
1120 129 1
1120 152 1
1120 164 1
1120 184 1
1120 1391 1
1120 1829 1
1120 2821 1
1121 35 1
1121 98 1
1121 588 1
1121 591 1
1121 1914 1
1121 2225 1
1122 214 1
1122 450 1
1122 481 1
1122 957 1
1122 2672 1
1123 17 1
1123 27 1
1123 75 1
1123 273 1
1123 1391 1
1123 2797 1
1124 131 1
1124 191 1
1124 268 1
1124 674 1
1124 1312 1
1124 1475 1
1124 1485 1
1124 1799 1
1124 2820 1
1125 25 1
1125 84 1
1125 500 1
1125 1010 1
1125 1176 1
1125 1186 1
1126 1 1
1126 25 1
1126 116 1
1126 566 1
1126 2662 1
1127 577 1
1127 869 1
1127 881 1
1127 1002 1
1127 1636 1
1127 1816 1
1128 1 1
1128 17 1
1128 163 1
1128 789 1
1128 1243 1
1128 1833 1
1129 171 1
1129 700 1
1129 955 1
1129 999 1
1129 1434 1
1129 1922 1
1130 25 1
1130 57 1
1130 262 1
1130 840 1
1130 2034 1
1130 2053 1
1130 2336 1
1130 2479 1
1130 2792 1
1131 2 1
1131 25 1
1131 136 1
1131 976 1
1131 1411 1
1131 1581 1
1131 2724 1
1132 188 1
1132 254 1
1132 305 1
1132 655 1
1132 1229 1
1132 1639 1
1132 2667 1
1133 338 1
1133 523 1
1133 571 1
1133 1073 1
1133 1164 1
1134 9 1
1134 186 1
1134 660 1
1134 969 1
1134 1320 1
1134 1496 1
1134 2215 1
1134 2642 1
1135 30 1
1135 69 1
1135 131 1
1135 595 1
1135 2688 1
1136 3 1
1136 9 1
1136 16 1
1136 1116 1
1137 1 1
1137 346 1
1137 533 1
1137 585 1
1137 2003 1
1138 212 1
1138 476 1
1138 501 1
1138 720 1
1138 1260 1
1138 2759 1
1139 9 1
1139 140 1
1139 162 1
1139 781 1
1139 1971 1
1139 2243 1
1140 29 1
1140 36 1
1140 397 1
1140 803 1
1140 1179 1
1140 1525 1
1140 1962 1
1140 1985 1
1140 2558 1
1141 25 1
1141 28 1
1141 762 1
1141 1045 1
1141 1193 1
1141 2105 1
1141 2517 1
1142 25 1
1142 36 1
1142 325 1
1142 658 1
1142 2571 1
1142 2737 1
1143 17 1
1143 819 1
1143 898 1
1143 946 1
1143 1776 1
1143 2911 1
1144 257 1
1144 749 1
1144 1033 1
1144 1035 1
1144 2496 1
1144 2929 1
1145 74 1
1145 129 1
1145 211 1
1145 1017 1
1145 1484 1
1145 1642 1
1145 2065 1
1145 2148 1
1145 2871 1
1146 31 1
1146 355 1
1146 513 1
1146 750 1
1146 1388 1
1146 2564 1
1146 2702 1
1147 54 1
1147 74 1
1147 123 1
1147 865 1
1147 1445 1
1147 1591 1
1147 1638 1
1147 1850 1
1147 2308 1
1147 2942 1
1147 2962 1
1148 9 1
1148 13 1
1148 82 1
1148 632 1
1148 1677 1
1148 2500 1
1149 158 1
1149 202 1
1149 252 1
1149 508 1
1149 1347 1
1149 1376 1
1149 1402 1
1149 1639 1
1149 2990 1
1150 15 1
1150 25 1
1150 98 1
1150 1092 1
1150 1212 1
1150 1283 1
1150 1352 1
1150 2170 1
1150 2633 1
1150 2776 1
1151 9 1
1151 85 1
1151 194 1
1151 1110 1
1151 1270 1
1151 1756 1
1151 2455 1
1151 2720 1
1151 2771 1
1151 2914 1
1152 130 1
1152 500 1
1152 726 1
1152 967 1
1153 186 1
1153 195 1
1153 284 1
1153 1001 1
1153 2743 1
1154 52 1
1154 537 1
1154 655 1
1154 1029 1
1154 1231 1
1154 1339 1
1154 1691 1
1154 2433 1
1154 2619 1
1155 83 1
1155 298 1
1155 712 1
1155 787 1
1155 1198 1
1155 1272 1
1155 2005 1
1155 2949 1
1155 2971 1
1156 25 1
1156 27 1
1156 188 1
1156 1026 1
1156 1445 1
1156 1528 1
1156 1707 1
1156 1853 1
1156 1967 1
1156 2234 1
1156 2411 1
1157 25 1
1157 129 1
1157 261 1
1157 797 1
1158 113 1
1158 437 1
1158 588 1
1158 604 1
1158 2425 1
1159 6 1
1159 13 1
1159 1107 1
1159 1119 1
1160 138 1
1160 196 1
1160 1094 1
1160 1108 1
1161 34 1
1161 55 1
1161 109 1
1161 436 1
1161 1179 1
1161 1299 1
1161 1662 1
1161 1749 1
1161 2347 1
1161 2735 1
1162 414 1
1162 655 1
1162 709 1
1162 863 1
1162 1392 1
1162 2398 1
1162 2719 1
1163 2 1
1163 202 1
1163 212 1
1163 745 1
1163 1332 1
1163 1923 1
1164 75 1
1164 300 1
1164 523 1
1164 1133 1
1164 2861 1
1165 2 1
1165 31 1
1165 369 1
1165 601 1
1165 2314 1
1165 2366 1
1166 75 1
1166 195 1
1166 892 1
1166 1498 1
1166 2089 1
1166 2156 1
1167 358 1
1167 508 1
1167 550 1
1167 885 1
1168 77 1
1168 281 1
1168 415 1
1168 1069 1
1169 89 1
1169 578 1
1169 658 1
1169 731 1
1169 1819 1
1170 6 1
1170 401 1
1170 486 1
1170 618 1
1170 1189 1
1170 1654 1
1170 2426 1
1171 17 1
1171 38 1
1171 300 1
1171 507 1
1171 1936 1
1171 2797 1
1172 5 1
1172 34 1
1172 107 1
1172 975 1
1172 2048 1
1173 65 1
1173 444 1
1173 635 1
1173 943 1
1173 1243 1
1173 1469 1
1173 1654 1
1174 197 1
1174 297 1
1174 498 1
1174 954 1
1174 1578 1
1175 9 1
1175 92 1
1175 261 1
1175 444 1
1175 2592 1
1176 73 1
1176 324 1
1176 356 1
1176 1125 1
1176 2463 1
1177 1 1
1177 106 1
1177 198 1
1177 235 1
1177 1192 1
1177 1374 1
1177 1611 1
1177 1660 1
1177 2240 1
1177 2645 1
1177 2986 1
1178 12 1
1178 197 1
1178 264 1
1178 939 1
1178 1546 1
1178 1676 1
1178 1927 1
1178 2180 1
1178 2621 1
1179 3 1
1179 34 1
1179 1140 1
1179 1161 1
1179 1960 1
1179 1962 1
1179 2803 1
1179 2806 1
1180 28 1
1180 103 1
1180 168 1
1180 170 1
1181 53 1
1181 188 1
1181 194 1
1181 289 1
1181 2125 1
1181 2482 1
1182 9 1
1182 17 1
1182 237 1
1182 898 1
1183 13 1
1183 415 1
1183 750 1
1183 905 1
1183 1466 1
1184 1 1
1184 21 1
1184 521 1
1184 544 1
1184 2412 1
1184 2471 1
1185 104 1
1185 190 1
1185 314 1
1185 373 1
1186 191 1
1186 735 1
1186 935 1
1186 1125 1
1186 2251 1
1187 3 1
1187 91 1
1187 321 1
1187 806 1
1187 1910 1
1187 2338 1
1188 427 1
1188 454 1
1188 815 1
1188 943 1
1189 6 1
1189 9 1
1189 486 1
1189 1170 1
1189 1657 1
1189 1938 1
1189 2197 1
1189 2449 1
1189 2459 1
1190 29 1
1190 43 1
1190 100 1
1190 260 1
1190 2977 1
1191 275 1
1191 364 1
1191 586 1
1191 1053 1
1191 1504 1
1191 1555 1
1191 2341 1
1191 2435 1
1192 330 1
1192 769 1
1192 1083 1
1192 1177 1
1192 1330 1
1192 1616 1
1192 1780 1
1193 144 1
1193 211 1
1193 479 1
1193 1141 1
1193 1555 1
1193 2157 1
1193 2586 1
1194 123 1
1194 591 1
1194 711 1
1194 897 1
1194 2263 1
1195 104 1
1195 110 1
1195 426 1
1195 867 1
1196 4 1
1196 175 1
1196 225 1
1196 402 1
1196 2247 1
1197 3 1
1197 44 1
1197 640 1
1197 818 1
1197 1822 1
1197 1988 1
1198 298 1
1198 308 1
1198 712 1
1198 1155 1
1198 1553 1
1198 2524 1
1198 2731 1
1199 9 1
1199 152 1
1199 589 1
1199 946 1
1199 1357 1
1199 1440 1
1199 2056 1
1199 2862 1
1200 1 1
1200 481 1
1200 593 1
1200 906 1
1200 1978 1
1200 2627 1
1201 17 1
1201 65 1
1201 173 1
1201 277 1
1201 1530 1
1201 1652 1
1201 1728 1
1201 2846 1
1202 14 1
1202 288 1
1202 552 1
1202 1119 1
1202 2158 1
1202 2483 1
1202 2729 1
1203 2 1
1203 511 1
1203 760 1
1203 917 1
1203 2128 1
1203 2584 1
1203 2728 1
1204 429 1
1204 547 1
1204 971 1
1204 1043 1
1204 1416 1
1204 2451 1
1205 130 1
1205 632 1
1205 722 1
1205 1115 1
1205 2209 1
1206 67 1
1206 251 1
1206 722 1
1206 822 1
1206 1326 1
1206 1490 1
1207 28 1
1207 172 1
1207 233 1
1207 595 1
1207 1374 1
1207 2188 1
1207 2595 1
1207 2748 1
1207 2959 1
1208 18 1
1208 28 1
1208 75 1
1208 597 1
1208 1723 1
1209 463 1
1209 548 1
1209 654 1
1209 874 1
1209 1272 1
1209 1290 1
1209 1295 1
1209 1814 1
1210 91 1
1210 165 1
1210 179 1
1210 265 1
1210 1348 1
1210 1576 1
1210 1588 1
1210 2527 1
1211 16 1
1211 164 1
1211 256 1
1211 981 1
1212 25 1
1212 50 1
1212 113 1
1212 1150 1
1213 523 1
1213 841 1
1213 1057 1
1213 1084 1
1213 2512 1
1214 178 1
1214 258 1
1214 272 1
1214 856 1
1214 1349 1
1215 322 1
1215 427 1
1215 445 1
1215 1015 1
1215 1419 1
1215 1855 1
1215 2103 1
1216 3 1
1216 323 1
1216 614 1
1216 878 1
1217 9 1
1217 68 1
1217 71 1
1217 722 1
1217 1262 1
1217 1397 1
1217 1996 1
1217 2038 1
1217 2084 1
1218 5 1
1218 333 1
1218 482 1
1218 603 1
1218 1793 1
1219 66 1
1219 73 1
1219 229 1
1219 1090 1
1219 1993 1
1219 2325 1
1220 27 1
1220 28 1
1220 147 1
1220 563 1
1220 1417 1
1220 1450 1
1220 1536 1
1220 2886 1
1220 2927 1
1221 3 1
1221 97 1
1221 154 1
1221 769 1
1221 1331 1
1222 45 1
1222 379 1
1222 530 1
1222 1037 1
1223 25 1
1223 611 1
1223 929 1
1223 1034 1
1223 1459 1
1223 1792 1
1223 2097 1
1223 2212 1
1223 2606 1
1224 27 1
1224 91 1
1224 657 1
1224 1043 1
1224 1354 1
1225 286 1
1225 465 1
1225 525 1
1225 1092 1
1225 1497 1
1225 2555 1
1226 1 1
1226 266 1
1226 453 1
1226 809 1
1226 1275 1
1226 1727 1
1227 3 1
1227 45 1
1227 329 1
1227 813 1
1228 18 1
1228 92 1
1228 315 1
1228 569 1
1228 1586 1
1228 1638 1
1228 1925 1
1228 2565 1
1229 45 1
1229 75 1
1229 254 1
1229 1132 1
1229 1824 1
1230 18 1
1230 156 1
1230 782 1
1230 788 1
1230 1264 1
1230 2459 1
1231 9 1
1231 51 1
1231 52 1
1231 1154 1
1231 1469 1
1231 1937 1
1232 2 1
1232 101 1
1232 890 1
1232 1034 1
1232 2606 1
1233 85 1
1233 123 1
1233 661 1
1233 1033 1
1233 2246 1
1233 2474 1
1234 83 1
1234 181 1
1234 809 1
1234 875 1
1234 1976 1
1234 1994 1
1234 2408 1
1235 10 1
1235 302 1
1235 321 1
1235 399 1
1235 1311 1
1236 41 1
1236 42 1
1236 107 1
1236 453 1
1236 2916 1
1237 9 1
1237 136 1
1237 150 1
1237 561 1
1237 1790 1
1237 2970 1
1238 69 1
1238 737 1
1238 947 1
1238 953 1
1238 1248 1
1238 1855 1
1238 2438 1
1239 9 1
1239 271 1
1239 552 1
1239 876 1
1239 1568 1
1240 141 1
1240 163 1
1240 212 1
1240 271 1
1240 1892 1
1240 2247 1
1241 156 1
1241 237 1
1241 927 1
1241 1113 1
1241 2227 1
1242 42 1
1242 80 1
1242 457 1
1242 684 1
1242 1380 1
1242 1461 1
1242 2195 1
1243 1 1
1243 809 1
1243 1128 1
1243 1173 1
1244 149 1
1244 174 1
1244 221 1
1244 843 1
1244 2950 1
1245 3 1
1245 16 1
1245 405 1
1245 1048 1
1245 1796 1
1245 2796 1
1246 10 1
1246 25 1
1246 41 1
1246 170 1
1246 1294 1
1246 2259 1
1246 2679 1
1246 2804 1
1247 29 1
1247 147 1
1247 148 1
1247 402 1
1247 2037 1
1248 1 1
1248 283 1
1248 953 1
1248 1238 1
1248 1321 1
1248 2182 1
1249 2 1
1249 57 1
1249 474 1
1249 845 1
1249 1789 1
1249 2616 1
1250 3 1
1250 28 1
1250 335 1
1250 745 1
1250 1462 1
1250 1849 1
1250 1933 1
1250 2351 1
1250 2626 1
1251 50 1
1251 451 1
1251 558 1
1251 813 1
1251 2755 1
1251 2848 1
1252 10 1
1252 141 1
1252 476 1
1252 707 1
1252 1797 1
1252 1965 1
1252 1999 1
1253 1 1
1253 332 1
1253 513 1
1253 947 1
1253 1886 1
1253 2167 1
1253 2394 1
1253 2811 1
1254 13 1
1254 572 1
1254 767 1
1254 1092 1
1255 162 1
1255 206 1
1255 209 1
1255 782 1
1255 2853 1
1256 355 1
1256 714 1
1256 923 1
1256 1097 1
1257 131 1
1257 565 1
1257 607 1
1257 1063 1
1257 2644 1
1258 10 1
1258 35 1
1258 74 1
1258 891 1
1258 1929 1
1258 2537 1
1259 17 1
1259 21 1
1259 68 1
1259 972 1
1259 1617 1
1259 2580 1
1260 3 1
1260 172 1
1260 818 1
1260 1138 1
1260 1297 1
1260 1944 1
1260 2759 1
1260 2794 1
1260 2852 1
1261 2 1
1261 115 1
1261 379 1
1261 601 1
1261 1631 1
1261 2560 1
1262 9 1
1262 80 1
1262 282 1
1262 1217 1
1263 18 1
1263 224 1
1263 504 1
1263 712 1
1264 1 1
1264 129 1
1264 782 1
1264 1230 1
1264 2109 1
1265 145 1
1265 165 1
1265 402 1
1265 469 1
1265 1328 1
1266 258 1
1266 400 1
1266 431 1
1266 597 1
1266 1407 1
1266 2392 1
1266 2866 1
1267 1 1
1267 226 1
1267 508 1
1267 1038 1
1267 1768 1
1267 1803 1
1267 1937 1
1267 2045 1
1267 2051 1
1267 2090 1
1267 2469 1
1267 2516 1
1267 2801 1
1268 2 1
1268 37 1
1268 615 1
1268 995 1
1268 1767 1
1269 5 1
1269 28 1
1269 141 1
1269 464 1
1269 1358 1
1269 2429 1
1270 89 1
1270 259 1
1270 945 1
1270 1151 1
1270 1278 1
1270 1573 1
1270 1978 1
1270 2379 1
1271 161 1
1271 211 1
1271 721 1
1271 1091 1
1271 1443 1
1271 2186 1
1272 213 1
1272 1092 1
1272 1155 1
1272 1209 1
1272 1295 1
1272 1509 1
1272 2121 1
1273 104 1
1273 106 1
1273 110 1
1273 513 1
1273 1609 1
1273 2036 1
1273 2070 1
1274 20 1
1274 36 1
1274 491 1
1274 530 1
1274 1548 1
1274 2809 1
1275 1 1
1275 11 1
1275 335 1
1275 1226 1
1275 2881 1
1275 2958 1
1276 60 1
1276 68 1
1276 251 1
1276 967 1
1277 1 1
1277 5 1
1277 60 1
1277 657 1
1277 1359 1
1278 11 1
1278 31 1
1278 97 1
1278 1270 1
1278 1917 1
1278 2401 1
1278 2740 1
1279 18 1
1279 276 1
1279 791 1
1279 955 1
1279 1294 1
1279 1434 1
1279 1491 1
1279 1494 1
1279 1520 1
1279 1773 1
1280 30 1
1280 274 1
1280 555 1
1280 850 1
1280 2307 1
1281 17 1
1281 274 1
1281 515 1
1281 555 1
1281 1437 1
1281 1467 1
1281 1554 1
1281 1800 1
1281 2403 1
1281 2492 1
1282 1 1
1282 17 1
1282 857 1
1282 922 1
1282 2422 1
1283 251 1
1283 810 1
1283 839 1
1283 1150 1
1283 2008 1
1283 2822 1
1284 26 1
1284 27 1
1284 62 1
1284 514 1
1284 1341 1
1284 1493 1
1284 1989 1
1284 2428 1
1285 650 1
1285 655 1
1285 683 1
1285 857 1
1285 1353 1
1285 1435 1
1285 1691 1
1285 2422 1
1285 2889 1
1286 13 1
1286 138 1
1286 212 1
1286 297 1
1287 3 1
1287 37 1
1287 129 1
1287 254 1
1288 69 1
1288 262 1
1288 457 1
1288 825 1
1289 93 1
1289 180 1
1289 615 1
1289 901 1
1289 2977 1
1290 442 1
1290 654 1
1290 1050 1
1290 1209 1
1290 1814 1
1290 1955 1
1290 2719 1
1290 2982 1
1291 4 1
1291 27 1
1291 46 1
1291 443 1
1291 2726 1
1292 149 1
1292 306 1
1292 417 1
1292 947 1
1292 1456 1
1293 18 1
1293 26 1
1293 266 1
1293 427 1
1293 1836 1
1294 47 1
1294 84 1
1294 1246 1
1294 1279 1
1295 213 1
1295 1092 1
1295 1209 1
1295 1272 1
1295 2954 1
1296 1 1
1296 141 1
1296 186 1
1296 747 1
1296 1600 1
1297 195 1
1297 250 1
1297 842 1
1297 1260 1
1297 1511 1
1297 1848 1
1297 1998 1
1297 2366 1
1297 2611 1
1297 2641 1
1298 28 1
1298 153 1
1298 379 1
1298 595 1
1298 1516 1
1298 2071 1
1298 2919 1
1299 1 1
1299 9 1
1299 436 1
1299 1161 1
1299 1659 1
1299 1662 1
1299 1848 1
1299 2019 1
1299 2416 1
1299 2684 1
1300 1 1
1300 27 1
1300 58 1
1300 281 1
1300 1420 1
1300 1457 1
1300 1503 1
1301 29 1
1301 65 1
1301 668 1
1301 749 1
1301 2858 1
1301 2894 1
1302 209 1
1302 269 1
1302 658 1
1302 1053 1
1302 2203 1
1302 2664 1
1303 9 1
1303 278 1
1303 663 1
1303 946 1
1303 1456 1
1303 1492 1
1303 2273 1
1304 9 1
1304 50 1
1304 55 1
1304 235 1
1304 2018 1
1304 2753 1
1305 37 1
1305 183 1
1305 185 1
1305 290 1
1305 1694 1
1305 1702 1
1305 2068 1
1306 14 1
1306 116 1
1306 585 1
1306 729 1
1306 1400 1
1306 1824 1
1306 2315 1
1307 18 1
1307 30 1
1307 236 1
1307 571 1
1307 1699 1
1307 1905 1
1307 2068 1
1307 2320 1
1308 66 1
1308 163 1
1308 544 1
1308 1017 1
1308 1451 1
1308 1682 1
1308 2006 1
1308 2012 1
1308 2152 1
1308 2168 1
1308 2283 1
1308 2594 1
1308 2705 1
1308 2788 1
1308 2855 1
1309 20 1
1309 188 1
1309 539 1
1309 948 1
1309 1614 1
1309 2789 1
1309 2923 1
1310 10 1
1310 21 1
1310 99 1
1310 353 1
1310 1425 1
1310 2125 1
1310 2199 1
1310 2700 1
1311 146 1
1311 475 1
1311 521 1
1311 1235 1
1311 1313 1
1312 452 1
1312 754 1
1312 1045 1
1312 1124 1
1312 1337 1
1312 1643 1
1312 1658 1
1313 472 1
1313 475 1
1313 905 1
1313 1311 1
1313 2253 1
1313 2746 1
1313 2955 1
1314 5 1
1314 9 1
1314 167 1
1314 611 1
1314 1802 1
1314 1915 1
1314 1930 1
1314 2871 1
1315 18 1
1315 65 1
1315 113 1
1315 862 1
1315 1932 1
1315 2899 1
1316 9 1
1316 187 1
1316 542 1
1316 821 1
1316 1403 1
1317 34 1
1317 49 1
1317 77 1
1317 91 1
1317 2111 1
1317 2760 1
1318 58 1
1318 390 1
1318 569 1
1318 913 1
1318 1608 1
1318 1698 1
1318 2501 1
1319 53 1
1319 309 1
1319 680 1
1319 872 1
1320 10 1
1320 386 1
1320 660 1
1320 1134 1
1320 1577 1
1320 2072 1
1320 2162 1
1320 2451 1
1320 2455 1
1321 1 1
1321 307 1
1321 451 1
1321 1248 1
1321 1403 1
1322 36 1
1322 98 1
1322 291 1
1322 485 1
1322 1624 1
1322 1696 1
1322 1870 1
1323 2 1
1323 161 1
1323 379 1
1323 761 1
1323 1785 1
1324 27 1
1324 68 1
1324 138 1
1324 153 1
1324 1685 1
1324 1877 1
1325 117 1
1325 690 1
1325 885 1
1325 965 1
1325 1771 1
1325 2830 1
1325 3000 1
1326 89 1
1326 102 1
1326 725 1
1326 1206 1
1326 2846 1
1327 300 1
1327 517 1
1327 896 1
1327 1094 1
1327 1426 1
1327 1459 1
1327 1582 1
1327 2925 1
1328 9 1
1328 25 1
1328 147 1
1328 1265 1
1329 4 1
1329 5 1
1329 44 1
1329 287 1
1329 1372 1
1329 1519 1
1329 2014 1
1329 2082 1
1329 2703 1
1330 273 1
1330 828 1
1330 1083 1
1330 1192 1
1331 61 1
1331 62 1
1331 97 1
1331 1221 1
1331 2371 1
1332 34 1
1332 202 1
1332 1026 1
1332 1163 1
1332 1353 1
1333 2 1
1333 135 1
1333 213 1
1333 543 1
1334 108 1
1334 658 1
1334 869 1
1334 878 1
1334 1735 1
1334 1867 1
1334 2162 1
1335 5 1
1335 13 1
1335 253 1
1335 609 1
1335 2327 1
1336 2 1
1336 121 1
1336 368 1
1336 487 1
1336 1958 1
1337 25 1
1337 514 1
1337 754 1
1337 1312 1
1337 1658 1
1337 2005 1
1338 5 1
1338 385 1
1338 561 1
1338 857 1
1338 1441 1
1338 1511 1
1338 2138 1
1338 2428 1
1339 130 1
1339 162 1
1339 1029 1
1339 1154 1
1339 1691 1
1339 1772 1
1339 2619 1
1340 44 1
1340 79 1
1340 162 1
1340 1102 1
1340 1987 1
1340 2510 1
1341 35 1
1341 399 1
1341 550 1
1341 1284 1
1341 1807 1
1341 2194 1
1341 2271 1
1342 8 1
1342 47 1
1342 577 1
1342 652 1
1343 2 1
1343 9 1
1343 163 1
1343 298 1
1343 1705 1
1344 27 1
1344 425 1
1344 429 1
1344 748 1
1345 41 1
1345 129 1
1345 282 1
1345 595 1
1345 1458 1
1345 1754 1
1345 1758 1
1345 2091 1
1345 2850 1
1345 2954 1
1346 28 1
1346 110 1
1346 374 1
1346 494 1
1347 554 1
1347 579 1
1347 867 1
1347 1149 1
1347 1376 1
1347 2659 1
1348 265 1
1348 275 1
1348 885 1
1348 1210 1
1348 1576 1
1348 1588 1
1348 1792 1
1348 1941 1
1348 2527 1
1349 258 1
1349 468 1
1349 478 1
1349 1214 1
1349 2122 1
1349 2155 1
1349 2908 1
1350 45 1
1350 174 1
1350 601 1
1350 676 1
1350 1386 1
1350 1602 1
1350 2007 1
1350 2739 1
1351 187 1
1351 284 1
1351 1052 1
1351 1072 1
1351 1887 1
1351 1919 1
1352 11 1
1352 18 1
1352 483 1
1352 1150 1
1352 2497 1
1353 34 1
1353 857 1
1353 1285 1
1353 1332 1
1353 1432 1
1354 178 1
1354 346 1
1354 1043 1
1354 1224 1
1354 1355 1
1354 2062 1
1354 2065 1
1354 2201 1
1355 81 1
1355 346 1
1355 918 1
1355 1354 1
1355 2146 1
1355 2201 1
1356 2 1
1356 25 1
1356 69 1
1356 365 1
1356 1600 1
1356 1991 1
1357 28 1
1357 37 1
1357 946 1
1357 1199 1
1357 1396 1
1357 2104 1
1357 2178 1
1357 2552 1
1357 2672 1
1358 27 1
1358 498 1
1358 801 1
1358 1269 1
1358 1750 1
1358 1958 1
1358 2654 1
1359 5 1
1359 179 1
1359 252 1
1359 1277 1
1359 1833 1
1359 1847 1
1359 2427 1
1360 2 1
1360 76 1
1360 245 1
1360 770 1
1360 1387 1
1361 186 1
1361 280 1
1361 526 1
1361 583 1
1361 1634 1
1362 12 1
1362 203 1
1362 252 1
1362 284 1
1362 1411 1
1362 1567 1
1362 1636 1
1362 2141 1
1362 2147 1
1363 725 1
1363 830 1
1363 991 1
1363 1030 1
1363 1603 1
1363 2943 1
1364 1 1
1364 67 1
1364 227 1
1364 485 1
1364 1703 1
1364 2298 1
1364 2514 1
1364 2946 1
1365 2 1
1365 11 1
1365 179 1
1365 505 1
1365 1913 1
1365 2305 1
1366 50 1
1366 562 1
1366 906 1
1366 1056 1
1366 2226 1
1367 5 1
1367 90 1
1367 542 1
1367 691 1
1367 2426 1
1368 65 1
1368 121 1
1368 522 1
1368 796 1
1368 2004 1
1368 2545 1
1369 69 1
1369 365 1
1369 641 1
1369 982 1
1369 1600 1
1369 1937 1
1370 1 1
1370 285 1
1370 342 1
1370 509 1
1370 1627 1
1370 1730 1
1370 1731 1
1370 1744 1
1370 2249 1
1371 94 1
1371 206 1
1371 364 1
1371 612 1
1371 1526 1
1371 1607 1
1371 1632 1
1372 11 1
1372 308 1
1372 601 1
1372 1329 1
1372 1486 1
1372 1519 1
1372 2026 1
1372 2033 1
1372 2151 1
1372 2324 1
1373 77 1
1373 150 1
1373 741 1
1373 975 1
1374 221 1
1374 233 1
1374 1177 1
1374 1207 1
1374 1740 1
1374 2240 1
1374 2856 1
1375 77 1
1375 145 1
1375 346 1
1375 598 1
1376 1 1
1376 508 1
1376 1149 1
1376 1347 1
1376 2659 1
1377 25 1
1377 136 1
1377 985 1
1377 988 1
1377 1718 1
1377 2161 1
1377 2221 1
1377 2860 1
1378 58 1
1378 371 1
1378 481 1
1378 931 1
1378 2446 1
1379 59 1
1379 555 1
1379 609 1
1379 674 1
1379 1479 1
1379 1713 1
1379 1871 1
1379 1916 1
1380 17 1
1380 428 1
1380 574 1
1380 1242 1
1380 2195 1
1380 2539 1
1380 2618 1
1380 2659 1
1380 2682 1
1380 2929 1
1381 278 1
1381 299 1
1381 505 1
1381 894 1
1381 1861 1
1382 84 1
1382 636 1
1382 690 1
1382 852 1
1382 1657 1
1382 1779 1
1382 2336 1
1382 2401 1
1383 18 1
1383 29 1
1383 399 1
1383 435 1
1383 2959 1
1384 34 1
1384 55 1
1384 142 1
1384 257 1
1385 311 1
1385 331 1
1385 738 1
1385 794 1
1385 1969 1
1385 2798 1
1386 39 1
1386 62 1
1386 676 1
1386 1350 1
1386 1733 1
1386 1760 1
1387 261 1
1387 770 1
1387 918 1
1387 1360 1
1387 1405 1
1387 1945 1
1387 2108 1
1388 513 1
1388 565 1
1388 658 1
1388 1146 1
1388 2702 1
1388 2884 1
1389 9 1
1389 36 1
1389 441 1
1389 929 1
1389 2054 1
1390 103 1
1390 120 1
1390 413 1
1390 478 1
1391 27 1
1391 115 1
1391 1120 1
1391 1123 1
1391 1765 1
1392 122 1
1392 653 1
1392 709 1
1392 1162 1
1393 9 1
1393 14 1
1393 23 1
1393 64 1
1393 2390 1
1394 3 1
1394 33 1
1394 68 1
1394 417 1
1394 1984 1
1395 1 1
1395 3 1
1395 21 1
1395 58 1
1395 1429 1
1395 2928 1
1395 2971 1
1396 28 1
1396 45 1
1396 85 1
1396 1357 1
1397 71 1
1397 126 1
1397 515 1
1397 1217 1
1398 17 1
1398 23 1
1398 305 1
1398 780 1
1398 2453 1
1399 2 1
1399 10 1
1399 11 1
1399 718 1
1399 1739 1
1400 11 1
1400 67 1
1400 594 1
1400 1306 1
1401 12 1
1401 18 1
1401 52 1
1401 156 1
1401 2818 1
1402 25 1
1402 79 1
1402 152 1
1402 1149 1
1402 1641 1
1402 1769 1
1402 2488 1
1403 1 1
1403 857 1
1403 1316 1
1403 1321 1
1403 2087 1
1404 50 1
1404 154 1
1404 362 1
1404 937 1
1404 2295 1
1404 2461 1
1404 2894 1
1405 353 1
1405 770 1
1405 918 1
1405 1387 1
1405 1630 1
1405 2328 1
1406 271 1
1406 323 1
1406 806 1
1406 1099 1
1407 186 1
1407 431 1
1407 677 1
1407 1266 1
1407 1735 1
1407 1758 1
1407 2434 1
1408 10 1
1408 79 1
1408 428 1
1408 973 1
1408 1866 1
1409 117 1
1409 314 1
1409 622 1
1409 645 1
1409 1916 1
1409 1935 1
1410 9 1
1410 35 1
1410 112 1
1410 389 1
1410 1440 1
1411 91 1
1411 635 1
1411 1131 1
1411 1362 1
1411 1831 1
1411 1835 1
1411 2046 1
1411 2116 1
1411 2717 1
1411 2724 1
1412 175 1
1412 429 1
1412 778 1
1412 891 1
1412 1739 1
1412 2778 1
1412 2854 1
1413 9 1
1413 29 1
1413 259 1
1413 271 1
1413 1924 1
1413 2172 1
1413 2821 1
1413 2962 1
1414 49 1
1414 84 1
1414 995 1
1414 1065 1
1414 1862 1
1414 1976 1
1415 42 1
1415 442 1
1415 528 1
1415 921 1
1415 2309 1
1416 2 1
1416 689 1
1416 922 1
1416 1204 1
1417 2 1
1417 147 1
1417 593 1
1417 1220 1
1417 2807 1
1418 410 1
1418 521 1
1418 833 1
1418 875 1
1418 2493 1
1418 2519 1
1419 157 1
1419 322 1
1419 534 1
1419 1215 1
1420 58 1
1420 138 1
1420 766 1
1420 1300 1
1420 2057 1
1421 3 1
1421 442 1
1421 924 1
1421 1050 1
1421 2372 1
1421 2581 1
1422 1 1
1422 262 1
1422 286 1
1422 422 1
1422 1496 1
1422 2617 1
1423 10 1
1423 80 1
1423 98 1
1423 129 1
1423 1986 1
1424 9 1
1424 36 1
1424 291 1
1424 821 1
1424 2264 1
1424 2305 1
1425 20 1
1425 468 1
1425 485 1
1425 1310 1
1425 1454 1
1425 2125 1
1425 2529 1
1426 63 1
1426 136 1
1426 230 1
1426 1327 1
1426 2349 1
1427 41 1
1427 154 1
1427 254 1
1427 842 1
1427 2179 1
1427 2584 1
1427 2679 1
1428 12 1
1428 18 1
1428 125 1
1428 495 1
1428 1462 1
1428 2134 1
1428 2673 1
1429 1 1
1429 25 1
1429 58 1
1429 1395 1
1429 1483 1
1429 2630 1
1430 82 1
1430 147 1
1430 434 1
1430 689 1
1430 1979 1
1430 2018 1
1430 2310 1
1431 18 1
1431 193 1
1431 858 1
1431 1113 1
1431 2612 1
1432 412 1
1432 714 1
1432 857 1
1432 1353 1
1433 83 1
1433 483 1
1433 555 1
1433 911 1
1433 2049 1
1433 2566 1
1434 77 1
1434 955 1
1434 1129 1
1434 1279 1
1434 1494 1
1434 1562 1
1435 15 1
1435 75 1
1435 131 1
1435 1285 1
1436 19 1
1436 230 1
1436 293 1
1436 350 1
1437 11 1
1437 60 1
1437 555 1
1437 1281 1
1437 1535 1
1437 2403 1
1437 2852 1
1438 122 1
1438 319 1
1438 423 1
1438 575 1
1438 2239 1
1439 9 1
1439 513 1
1439 947 1
1439 1002 1
1439 2210 1
1440 9 1
1440 448 1
1440 1199 1
1440 1410 1
1440 1607 1
1441 332 1
1441 410 1
1441 759 1
1441 1338 1
1441 1660 1
1441 1667 1
1441 1751 1
1441 1859 1
1441 2378 1
1441 2593 1
1441 2761 1
1441 2843 1
1442 137 1
1442 171 1
1442 468 1
1442 591 1
1442 1746 1
1442 1922 1
1443 138 1
1443 589 1
1443 1091 1
1443 1271 1
1443 1656 1
1443 2578 1
1444 138 1
1444 297 1
1444 336 1
1444 888 1
1444 2370 1
1444 2531 1
1444 2574 1
1445 108 1
1445 869 1
1445 1147 1
1445 1156 1
1445 2962 1
1446 11 1
1446 582 1
1446 953 1
1446 976 1
1446 2427 1
1447 6 1
1447 77 1
1447 85 1
1447 448 1
1447 1597 1
1447 2756 1
1448 11 1
1448 75 1
1448 146 1
1448 701 1
1448 1501 1
1448 1812 1
1448 2023 1
1448 2066 1
1449 50 1
1449 73 1
1449 194 1
1449 228 1
1449 2676 1
1449 2997 1
1450 85 1
1450 147 1
1450 785 1
1450 1220 1
1450 1454 1
1450 1524 1
1450 2243 1
1451 18 1
1451 25 1
1451 1017 1
1451 1308 1
1452 2 1
1452 91 1
1452 151 1
1452 733 1
1452 1674 1
1452 2487 1
1453 91 1
1453 123 1
1453 271 1
1453 806 1
1454 723 1
1454 785 1
1454 1425 1
1454 1450 1
1454 2533 1
1454 2711 1
1455 137 1
1455 341 1
1455 430 1
1455 956 1
1456 104 1
1456 175 1
1456 1292 1
1456 1303 1
1456 1755 1
1456 1978 1
1457 23 1
1457 164 1
1457 995 1
1457 1300 1
1458 11 1
1458 33 1
1458 153 1
1458 1345 1
1458 1644 1
1458 1758 1
1458 1890 1
1458 2269 1
1458 2367 1
1459 108 1
1459 237 1
1459 1223 1
1459 1327 1
1459 1488 1
1459 1664 1
1459 1792 1
1459 1902 1
1459 2228 1
1459 2840 1
1459 2925 1
1459 2969 1
1460 2 1
1460 39 1
1460 117 1
1460 345 1
1460 2309 1
1460 2678 1
1461 118 1
1461 457 1
1461 838 1
1461 1242 1
1461 2044 1
1461 2730 1
1462 476 1
1462 758 1
1462 1250 1
1462 1428 1
1462 2014 1
1462 2767 1
1463 3 1
1463 9 1
1463 188 1
1463 327 1
1463 1637 1
1463 1891 1
1463 2340 1
1464 18 1
1464 74 1
1464 107 1
1464 975 1
1464 1603 1
1464 1923 1
1464 1929 1
1465 18 1
1465 28 1
1465 118 1
1465 170 1
1465 2259 1
1465 2652 1
1466 425 1
1466 750 1
1466 905 1
1466 1183 1
1466 1617 1
1466 2550 1
1467 142 1
1467 274 1
1467 789 1
1467 1281 1
1467 1520 1
1467 1554 1
1467 1800 1
1467 1908 1
1467 2504 1
1468 25 1
1468 42 1
1468 43 1
1468 663 1
1468 1634 1
1468 1916 1
1468 2008 1
1469 532 1
1469 929 1
1469 1173 1
1469 1231 1
1469 1850 1
1469 1937 1
1469 2119 1
1469 2409 1
1469 2434 1
1470 18 1
1470 50 1
1470 63 1
1470 73 1
1470 1872 1
1470 2152 1
1471 30 1
1471 147 1
1471 174 1
1471 711 1
1472 114 1
1472 300 1
1472 743 1
1472 817 1
1473 1 1
1473 409 1
1473 483 1
1473 994 1
1473 1598 1
1473 1695 1
1474 108 1
1474 543 1
1474 875 1
1474 884 1
1474 1564 1
1474 1826 1
1475 18 1
1475 75 1
1475 933 1
1475 1124 1
1476 5 1
1476 153 1
1476 171 1
1476 281 1
1476 1685 1
1476 1746 1
1476 1951 1
1476 2881 1
1477 57 1
1477 58 1
1477 345 1
1477 690 1
1477 2722 1
1477 2935 1
1478 34 1
1478 41 1
1478 529 1
1478 785 1
1478 2357 1
1478 2565 1
1479 328 1
1479 609 1
1479 1069 1
1479 1379 1
1479 1818 1
1479 2171 1
1479 2536 1
1479 2764 1
1480 129 1
1480 138 1
1480 529 1
1480 964 1
1480 1862 1
1480 2041 1
1480 2782 1
1480 2795 1
1481 25 1
1481 33 1
1481 41 1
1481 550 1
1481 1714 1
1482 123 1
1482 139 1
1482 460 1
1482 497 1
1482 2939 1
1483 25 1
1483 81 1
1483 334 1
1483 1429 1
1483 1641 1
1483 1742 1
1483 1779 1
1483 2251 1
1484 57 1
1484 74 1
1484 1062 1
1484 1145 1
1484 1485 1
1484 1642 1
1484 2312 1
1485 29 1
1485 268 1
1485 1124 1
1485 1484 1
1485 2359 1
1485 2669 1
1486 308 1
1486 429 1
1486 809 1
1486 1372 1
1486 1782 1
1486 2151 1
1486 2328 1
1487 74 1
1487 373 1
1487 1009 1
1487 1076 1
1487 1509 1
1487 1941 1
1488 2 1
1488 78 1
1488 428 1
1488 1459 1
1488 1949 1
1488 2211 1
1488 2754 1
1489 14 1
1489 256 1
1489 507 1
1489 513 1
1489 1512 1
1490 35 1
1490 709 1
1490 822 1
1490 1206 1
1490 1628 1
1490 2540 1
1491 9 1
1491 18 1
1491 35 1
1491 1279 1
1491 2043 1
1491 2169 1
1491 2817 1
1492 9 1
1492 15 1
1492 891 1
1492 1303 1
1492 1982 1
1493 2 1
1493 62 1
1493 97 1
1493 1284 1
1493 1547 1
1493 2335 1
1494 1 1
1494 955 1
1494 1279 1
1494 1434 1
1494 1545 1
1494 1742 1
1495 18 1
1495 146 1
1495 403 1
1495 883 1
1495 2011 1
1496 293 1
1496 969 1
1496 1134 1
1496 1422 1
1496 2296 1
1497 6 1
1497 506 1
1497 525 1
1497 1225 1
1498 570 1
1498 623 1
1498 885 1
1498 1166 1
1498 2156 1
1498 2258 1
1499 57 1
1499 258 1
1499 752 1
1499 868 1
1500 10 1
1500 28 1
1500 92 1
1500 857 1
1501 10 1
1501 75 1
1501 464 1
1501 1448 1
1502 51 1
1502 92 1
1502 315 1
1502 635 1
1502 1915 1
1503 254 1
1503 306 1
1503 647 1
1503 1300 1
1504 3 1
1504 29 1
1504 562 1
1504 1191 1
1504 1983 1
1504 2196 1
1504 2648 1
1505 1 1
1505 355 1
1505 397 1
1505 795 1
1505 2534 1
1506 18 1
1506 60 1
1506 129 1
1506 1051 1
1506 1783 1
1507 77 1
1507 130 1
1507 253 1
1507 289 1
1508 418 1
1508 446 1
1508 823 1
1508 897 1
1508 1536 1
1508 1584 1
1508 1808 1
1508 2575 1
1508 2922 1
1509 74 1
1509 1009 1
1509 1272 1
1509 1487 1
1510 129 1
1510 211 1
1510 229 1
1510 523 1
1510 1776 1
1510 2214 1
1510 2303 1
1510 2432 1
1511 385 1
1511 842 1
1511 1297 1
1511 1338 1
1511 1571 1
1511 2366 1
1511 2506 1
1512 10 1
1512 147 1
1512 1008 1
1512 1489 1
1512 1759 1
1513 2 1
1513 27 1
1513 67 1
1513 1049 1
1513 1812 1
1514 11 1
1514 21 1
1514 559 1
1514 808 1
1515 3 1
1515 54 1
1515 90 1
1515 119 1
1516 17 1
1516 853 1
1516 868 1
1516 1298 1
1516 1635 1
1517 26 1
1517 83 1
1517 206 1
1517 256 1
1517 1601 1
1518 20 1
1518 125 1
1518 412 1
1518 714 1
1518 1540 1
1518 1555 1
1518 2277 1
1519 149 1
1519 251 1
1519 1329 1
1519 1372 1
1519 1694 1
1519 2082 1
1519 2982 1
1520 578 1
1520 922 1
1520 1279 1
1520 1467 1
1521 7 1
1521 136 1
1521 249 1
1521 696 1
1521 2119 1
1522 9 1
1522 209 1
1522 223 1
1522 1106 1
1522 1830 1
1522 1946 1
1522 2032 1
1522 2274 1
1522 2364 1
1523 4 1
1523 57 1
1523 467 1
1523 1052 1
1523 1754 1
1523 2029 1
1523 2123 1
1523 2715 1
1523 2809 1
1523 2960 1
1524 85 1
1524 217 1
1524 785 1
1524 1450 1
1525 57 1
1525 330 1
1525 934 1
1525 1140 1
1525 1901 1
1526 5 1
1526 36 1
1526 364 1
1526 1371 1
1526 2445 1
1526 2686 1
1527 10 1
1527 540 1
1527 748 1
1527 755 1
1527 2055 1
1528 25 1
1528 392 1
1528 852 1
1528 1156 1
1529 2 1
1529 171 1
1529 260 1
1529 449 1
1529 1746 1
1529 2196 1
1529 2403 1
1529 2624 1
1529 2841 1
1530 465 1
1530 498 1
1530 627 1
1530 1201 1
1530 1724 1
1530 1728 1
1531 51 1
1531 137 1
1531 513 1
1531 733 1
1531 2185 1
1531 2634 1
1532 9 1
1532 322 1
1532 420 1
1532 520 1
1533 195 1
1533 489 1
1533 547 1
1533 780 1
1533 1719 1
1534 18 1
1534 31 1
1534 101 1
1534 331 1
1534 2373 1
1534 2399 1
1534 2611 1
1534 2719 1
1534 2941 1
1535 2 1
1535 244 1
1535 675 1
1535 1437 1
1535 2403 1
1535 2605 1
1535 2624 1
1536 702 1
1536 823 1
1536 1220 1
1536 1508 1
1536 1817 1
1536 1832 1
1536 2409 1
1537 125 1
1537 283 1
1537 618 1
1537 890 1
1537 2203 1
1538 71 1
1538 273 1
1538 364 1
1538 404 1
1538 2286 1
1538 2698 1
1539 3 1
1539 9 1
1539 98 1
1539 448 1
1539 1850 1
1540 55 1
1540 226 1
1540 663 1
1540 1518 1
1540 1752 1
1541 30 1
1541 252 1
1541 661 1
1541 819 1
1541 2783 1
1542 17 1
1542 417 1
1542 515 1
1542 861 1
1542 1775 1
1542 2181 1
1543 12 1
1543 60 1
1543 594 1
1543 710 1
1543 2211 1
1544 20 1
1544 22 1
1544 34 1
1544 1059 1
1544 1725 1
1544 1772 1
1545 73 1
1545 569 1
1545 955 1
1545 1494 1
1545 2429 1
1546 50 1
1546 186 1
1546 969 1
1546 1178 1
1546 1676 1
1547 2 1
1547 76 1
1547 331 1
1547 1493 1
1547 1788 1
1547 2089 1
1547 2123 1
1548 81 1
1548 322 1
1548 491 1
1548 1274 1
1548 1634 1
1548 1662 1
1548 1738 1
1548 1914 1
1548 2568 1
1548 2716 1
1549 3 1
1549 25 1
1549 32 1
1549 137 1
1549 1770 1
1549 1815 1
1549 2079 1
1549 2101 1
1549 2347 1
1549 2545 1
1550 9 1
1550 189 1
1550 476 1
1550 654 1
1551 18 1
1551 161 1
1551 865 1
1551 1024 1
1551 2879 1
1552 38 1
1552 94 1
1552 189 1
1552 233 1
1553 10 1
1553 36 1
1553 84 1
1553 1198 1
1553 1834 1
1553 2022 1
1554 142 1
1554 427 1
1554 1281 1
1554 1467 1
1554 1907 1
1554 2114 1
1554 2263 1
1554 2985 1
1555 586 1
1555 1191 1
1555 1193 1
1555 1518 1
1555 2022 1
1556 227 1
1556 308 1
1556 585 1
1556 727 1
1557 34 1
1557 73 1
1557 95 1
1557 197 1
1557 1701 1
1557 1717 1
1558 1 1
1558 157 1
1558 203 1
1558 228 1
1559 186 1
1559 210 1
1559 505 1
1559 986 1
1559 2752 1
1560 128 1
1560 451 1
1560 690 1
1560 869 1
1561 1 1
1561 57 1
1561 622 1
1561 934 1
1561 1585 1
1562 108 1
1562 214 1
1562 888 1
1562 1434 1
1562 2332 1
1562 2502 1
1563 11 1
1563 33 1
1563 235 1
1563 994 1
1563 2209 1
1563 2792 1
1564 543 1
1564 545 1
1564 884 1
1564 1474 1
1564 1826 1
1564 1831 1
1564 2026 1
1564 2315 1
1565 3 1
1565 5 1
1565 9 1
1565 497 1
1565 2630 1
1565 2945 1
1566 55 1
1566 203 1
1566 453 1
1566 506 1
1566 1683 1
1566 1765 1
1566 2311 1
1566 2604 1
1566 2643 1
1567 91 1
1567 99 1
1567 330 1
1567 1362 1
1567 2890 1
1568 1 1
1568 11 1
1568 17 1
1568 1239 1
1568 1693 1
1569 57 1
1569 73 1
1569 315 1
1569 518 1
1569 1601 1
1569 2018 1
1569 2225 1
1569 2577 1
1569 2870 1
1570 1 1
1570 23 1
1570 29 1
1570 64 1
1570 1813 1
1570 2069 1
1570 2590 1
1571 26 1
1571 108 1
1571 837 1
1571 1511 1
1572 1 1
1572 257 1
1572 986 1
1572 993 1
1572 2456 1
1572 2769 1
1572 2833 1
1573 89 1
1573 259 1
1573 945 1
1573 1270 1
1574 71 1
1574 436 1
1574 457 1
1574 979 1
1575 3 1
1575 28 1
1575 30 1
1575 857 1
1575 1772 1
1575 2220 1
1576 9 1
1576 33 1
1576 1210 1
1576 1348 1
1576 1941 1
1576 2527 1
1577 10 1
1577 137 1
1577 158 1
1577 1320 1
1577 1589 1
1578 173 1
1578 285 1
1578 988 1
1578 1174 1
1579 502 1
1579 513 1
1579 538 1
1579 750 1
1579 1613 1
1579 2110 1
1579 2712 1
1580 212 1
1580 297 1
1580 522 1
1580 598 1
1580 2902 1
1581 2 1
1581 155 1
1581 548 1
1581 1131 1
1581 2122 1
1582 35 1
1582 828 1
1582 882 1
1582 1327 1
1583 138 1
1583 147 1
1583 178 1
1583 771 1
1584 20 1
1584 37 1
1584 60 1
1584 1508 1
1584 1895 1
1585 21 1
1585 108 1
1585 192 1
1585 1561 1
1585 1867 1
1586 138 1
1586 297 1
1586 315 1
1586 1228 1
1586 2370 1
1586 2775 1
1587 27 1
1587 114 1
1587 593 1
1587 1021 1
1587 1830 1
1587 1872 1
1587 1973 1
1587 2258 1
1588 9 1
1588 91 1
1588 1210 1
1588 1348 1
1588 1947 1
1588 1970 1
1589 1 1
1589 137 1
1589 158 1
1589 1577 1
1589 2150 1
1590 161 1
1590 182 1
1590 211 1
1590 282 1
1590 2296 1
1590 2426 1
1591 637 1
1591 690 1
1591 762 1
1591 1147 1
1591 1651 1
1591 2105 1
1591 2326 1
1591 2381 1
1592 50 1
1592 55 1
1592 403 1
1592 709 1
1593 17 1
1593 44 1
1593 873 1
1593 1082 1
1593 1722 1
1593 2932 1
1593 2956 1
1594 57 1
1594 106 1
1594 117 1
1594 663 1
1594 1668 1
1594 2547 1
1594 2875 1
1595 26 1
1595 86 1
1595 270 1
1595 427 1
1595 2067 1
1595 2906 1
1596 1 1
1596 80 1
1596 483 1
1596 752 1
1596 2240 1
1596 2345 1
1596 2786 1
1597 27 1
1597 448 1
1597 527 1
1597 1447 1
1597 1625 1
1597 2306 1
1598 11 1
1598 77 1
1598 715 1
1598 1473 1
1598 1695 1
1598 2009 1
1599 65 1
1599 113 1
1599 346 1
1599 993 1
1599 2542 1
1600 83 1
1600 1296 1
1600 1356 1
1600 1369 1
1601 11 1
1601 1027 1
1601 1517 1
1601 1569 1
1602 6 1
1602 17 1
1602 238 1
1602 1350 1
1602 2558 1
1603 18 1
1603 539 1
1603 1363 1
1603 1464 1
1603 2435 1
1604 9 1
1604 14 1
1604 517 1
1604 1010 1
1604 1864 1
1605 2 1
1605 3 1
1605 8 1
1605 118 1
1605 1974 1
1606 186 1
1606 337 1
1606 658 1
1606 693 1
1607 9 1
1607 601 1
1607 1371 1
1607 1440 1
1607 2280 1
1607 2395 1
1608 58 1
1608 108 1
1608 913 1
1608 1318 1
1608 1738 1
1608 1973 1
1609 9 1
1609 110 1
1609 997 1
1609 1273 1
1609 1851 1
1609 1974 1
1609 2127 1
1609 2599 1
1610 105 1
1610 338 1
1610 579 1
1610 1073 1
1610 1720 1
1611 195 1
1611 198 1
1611 789 1
1611 1177 1
1612 206 1
1612 362 1
1612 434 1
1612 937 1
1613 137 1
1613 502 1
1613 956 1
1613 1579 1
1613 2319 1
1613 2509 1
1613 2696 1
1614 45 1
1614 188 1
1614 665 1
1614 1309 1
1614 2053 1
1614 2345 1
1615 11 1
1615 33 1
1615 402 1
1615 486 1
1616 21 1
1616 330 1
1616 370 1
1616 1192 1
1616 2106 1
1616 2875 1
1617 17 1
1617 178 1
1617 1259 1
1617 1466 1
1618 2 1
1618 39 1
1618 62 1
1618 1056 1
1618 1726 1
1618 1969 1
1618 2354 1
1619 114 1
1619 258 1
1619 636 1
1619 690 1
1620 1 1
1620 10 1
1620 183 1
1620 308 1
1620 1898 1
1620 1916 1
1620 2216 1
1620 2239 1
1621 125 1
1621 940 1
1621 1104 1
1621 1105 1
1621 2031 1
1622 364 1
1622 391 1
1622 461 1
1622 482 1
1623 18 1
1623 153 1
1623 322 1
1623 922 1
1623 2765 1
1624 5 1
1624 94 1
1624 465 1
1624 1322 1
1624 1640 1
1624 1726 1
1624 1870 1
1624 1976 1
1625 36 1
1625 448 1
1625 838 1
1625 1597 1
1625 2306 1
1626 25 1
1626 103 1
1626 167 1
1626 594 1
1626 2470 1
1626 2763 1
1626 2814 1
1627 1 1
1627 105 1
1627 456 1
1627 1370 1
1627 2376 1
1627 2569 1
1628 35 1
1628 709 1
1628 822 1
1628 1490 1
1628 2222 1
1629 33 1
1629 91 1
1629 207 1
1629 742 1
1629 2141 1
1629 2279 1
1629 2807 1
1630 113 1
1630 770 1
1630 780 1
1630 1405 1
1630 2074 1
1630 2281 1
1630 2992 1
1631 2 1
1631 190 1
1631 919 1
1631 1261 1
1631 2100 1
1632 612 1
1632 932 1
1632 1106 1
1632 1371 1
1632 2847 1
1632 2981 1
1633 4 1
1633 133 1
1633 226 1
1633 453 1
1633 1637 1
1633 2086 1
1633 2897 1
1633 2947 1
1634 513 1
1634 1361 1
1634 1468 1
1634 1548 1
1635 5 1
1635 614 1
1635 853 1
1635 1516 1
1635 2114 1
1636 52 1
1636 1002 1
1636 1127 1
1636 1362 1
1636 2689 1
1637 469 1
1637 842 1
1637 1463 1
1637 1633 1
1637 2018 1
1637 2086 1
1637 2655 1
1638 147 1
1638 730 1
1638 1147 1
1638 1228 1
1639 158 1
1639 882 1
1639 1132 1
1639 1149 1
1639 2076 1
1639 2667 1
1640 663 1
1640 685 1
1640 954 1
1640 1624 1
1640 2222 1
1641 25 1
1641 494 1
1641 1402 1
1641 1483 1
1641 1672 1
1641 1769 1
1642 74 1
1642 129 1
1642 1145 1
1642 1484 1
1643 4 1
1643 138 1
1643 729 1
1643 1312 1
1643 2249 1
1644 11 1
1644 182 1
1644 969 1
1644 1458 1
1644 2596 1
1645 11 1
1645 427 1
1645 470 1
1645 991 1
1645 1653 1
1646 207 1
1646 253 1
1646 626 1
1646 926 1
1646 1727 1
1647 25 1
1647 35 1
1647 206 1
1647 978 1
1647 1741 1
1647 1823 1
1648 17 1
1648 113 1
1648 257 1
1648 1112 1
1649 2 1
1649 44 1
1649 195 1
1649 390 1
1649 2042 1
1650 12 1
1650 164 1
1650 237 1
1650 552 1
1650 2167 1
1651 221 1
1651 250 1
1651 298 1
1651 1591 1
1652 65 1
1652 277 1
1652 539 1
1652 1201 1
1652 1680 1
1653 171 1
1653 188 1
1653 427 1
1653 1645 1
1654 189 1
1654 347 1
1654 1170 1
1654 1173 1
1654 2426 1
1655 83 1
1655 92 1
1655 588 1
1655 602 1
1655 1740 1
1656 17 1
1656 138 1
1656 853 1
1656 1443 1
1657 852 1
1657 925 1
1657 1189 1
1657 1382 1
1657 2336 1
1658 25 1
1658 754 1
1658 1312 1
1658 1337 1
1659 85 1
1659 279 1
1659 381 1
1659 1299 1
1659 1848 1
1659 2454 1
1660 235 1
1660 410 1
1660 1177 1
1660 1441 1
1660 1667 1
1660 2129 1
1660 2312 1
1660 2761 1
1661 9 1
1661 131 1
1661 453 1
1661 497 1
1662 844 1
1662 1161 1
1662 1299 1
1662 1548 1
1662 2568 1
1662 2716 1
1663 1 1
1663 3 1
1663 100 1
1663 282 1
1663 1857 1
1663 1933 1
1664 2 1
1664 108 1
1664 732 1
1664 1459 1
1665 31 1
1665 179 1
1665 410 1
1665 622 1
1665 1907 1
1665 2516 1
1666 9 1
1666 211 1
1666 224 1
1666 637 1
1666 2778 1
1667 12 1
1667 410 1
1667 1441 1
1667 1660 1
1667 1859 1
1667 2593 1
1668 3 1
1668 9 1
1668 106 1
1668 1594 1
1668 1861 1
1668 2143 1
1669 20 1
1669 111 1
1669 116 1
1669 179 1
1669 2473 1
1670 9 1
1670 25 1
1670 129 1
1670 491 1
1670 1828 1
1670 2142 1
1671 27 1
1671 139 1
1671 494 1
1671 595 1
1672 14 1
1672 461 1
1672 494 1
1672 1641 1
1672 2274 1
1673 1 1
1673 3 1
1673 14 1
1673 578 1
1674 91 1
1674 140 1
1674 169 1
1674 1452 1
1674 2380 1
1675 10 1
1675 708 1
1675 857 1
1675 1083 1
1675 2831 1
1676 939 1
1676 986 1
1676 1178 1
1676 1546 1
1676 1878 1
1677 13 1
1677 435 1
1677 943 1
1677 1148 1
1677 1797 1
1677 2926 1
1678 68 1
1678 189 1
1678 869 1
1678 881 1
1679 17 1
1679 530 1
1679 532 1
1679 909 1
1679 1809 1
1679 2649 1
1680 283 1
1680 539 1
1680 689 1
1680 1652 1
1680 1956 1
1681 9 1
1681 193 1
1681 372 1
1681 702 1
1681 1810 1
1681 2534 1
1682 55 1
1682 98 1
1682 162 1
1682 1308 1
1682 2238 1
1682 2283 1
1683 3 1
1683 453 1
1683 661 1
1683 1566 1
1683 2311 1
1683 2735 1
1684 1 1
1684 28 1
1684 353 1
1684 611 1
1685 153 1
1685 584 1
1685 1324 1
1685 1476 1
1685 1796 1
1685 2921 1
1686 10 1
1686 517 1
1686 617 1
1686 866 1
1687 5 1
1687 17 1
1687 60 1
1687 386 1
1687 1894 1
1688 2 1
1688 68 1
1688 231 1
1688 348 1
1689 53 1
1689 121 1
1689 158 1
1689 309 1
1689 2216 1
1689 2218 1
1689 2454 1
1690 11 1
1690 17 1
1690 50 1
1690 325 1
1690 2092 1
1690 2268 1
1691 650 1
1691 1154 1
1691 1285 1
1691 1339 1
1691 1808 1
1692 36 1
1692 123 1
1692 387 1
1692 579 1
1693 9 1
1693 21 1
1693 265 1
1693 1568 1
1693 2285 1
1693 2924 1
1694 27 1
1694 251 1
1694 1305 1
1694 1519 1
1694 1702 1
1695 785 1
1695 940 1
1695 1473 1
1695 1598 1
1696 1 1
1696 60 1
1696 94 1
1696 1322 1
1696 1870 1
1697 57 1
1697 261 1
1697 446 1
1697 1019 1
1697 1808 1
1697 2915 1
1698 34 1
1698 703 1
1698 913 1
1698 1318 1
1698 1973 1
1699 18 1
1699 30 1
1699 236 1
1699 1307 1
1699 1905 1
1699 2068 1
1699 2291 1
1700 1 1
1700 34 1
1700 139 1
1700 681 1
1700 2262 1
1701 15 1
1701 187 1
1701 1111 1
1701 1557 1
1701 1769 1
1701 2352 1
1701 2473 1
1702 183 1
1702 700 1
1702 1305 1
1702 1694 1
1703 1 1
1703 96 1
1703 705 1
1703 1364 1
1703 2313 1
1704 47 1
1704 147 1
1704 318 1
1704 923 1
1705 486 1
1705 785 1
1705 1107 1
1705 1343 1
1705 2712 1
1705 2747 1
1706 187 1
1706 222 1
1706 300 1
1706 1088 1
1707 27 1
1707 857 1
1707 928 1
1707 1156 1
1708 30 1
1708 595 1
1708 637 1
1708 881 1
1708 2864 1
1708 2984 1
1709 20 1
1709 69 1
1709 427 1
1709 679 1
1710 324 1
1710 331 1
1710 405 1
1710 837 1
1710 1806 1
1711 29 1
1711 54 1
1711 595 1
1711 986 1
1712 25 1
1712 94 1
1712 221 1
1712 499 1
1713 2 1
1713 462 1
1713 737 1
1713 1379 1
1713 2111 1
1713 2126 1
1713 2230 1
1714 33 1
1714 321 1
1714 389 1
1714 1481 1
1714 2458 1
1714 2478 1
1715 1 1
1715 4 1
1715 60 1
1715 448 1
1715 1858 1
1715 2102 1
1715 2480 1
1716 11 1
1716 446 1
1716 660 1
1716 700 1
1717 106 1
1717 197 1
1717 269 1
1717 1557 1
1717 2511 1
1717 2690 1
1717 2928 1
1718 25 1
1718 985 1
1718 1051 1
1718 1377 1
1718 2161 1
1719 10 1
1719 195 1
1719 602 1
1719 1533 1
1719 2967 1
1720 1 1
1720 189 1
1720 889 1
1720 1610 1
1720 1825 1
1721 52 1
1721 206 1
1721 291 1
1721 752 1
1721 2500 1
1721 2547 1
1721 2748 1
1722 44 1
1722 873 1
1722 1082 1
1722 1593 1
1722 2631 1
1723 283 1
1723 447 1
1723 875 1
1723 1208 1
1723 1832 1
1724 33 1
1724 465 1
1724 498 1
1724 1530 1
1724 1949 1
1724 2404 1
1725 25 1
1725 96 1
1725 1059 1
1725 1544 1
1725 1733 1
1725 2690 1
1725 2862 1
1726 260 1
1726 465 1
1726 1618 1
1726 1624 1
1727 133 1
1727 355 1
1727 1226 1
1727 1646 1
1728 65 1
1728 778 1
1728 1201 1
1728 1530 1
1729 131 1
1729 165 1
1729 592 1
1729 906 1
1730 306 1
1730 342 1
1730 628 1
1730 1370 1
1731 1 1
1731 194 1
1731 851 1
1731 1370 1
1731 2375 1
1731 2669 1
1731 2675 1
1732 750 1
1732 869 1
1732 905 1
1732 917 1
1732 2392 1
1733 858 1
1733 1059 1
1733 1386 1
1733 1725 1
1733 1760 1
1733 2806 1
1733 2931 1
1734 356 1
1734 498 1
1734 801 1
1734 962 1
1734 2156 1
1735 431 1
1735 539 1
1735 1334 1
1735 1407 1
1735 2776 1
1736 26 1
1736 44 1
1736 119 1
1736 1102 1
1737 66 1
1737 86 1
1737 545 1
1737 623 1
1737 2058 1
1738 5 1
1738 58 1
1738 1548 1
1738 1608 1
1738 2243 1
1739 513 1
1739 711 1
1739 1399 1
1739 1412 1
1739 1911 1
1739 2011 1
1739 2854 1
1740 233 1
1740 511 1
1740 1374 1
1740 1655 1
1740 2075 1
1741 1 1
1741 274 1
1741 844 1
1741 1647 1
1741 1823 1
1741 2027 1
1741 2273 1
1742 253 1
1742 447 1
1742 1483 1
1742 1494 1
1742 2636 1
1743 18 1
1743 268 1
1743 284 1
1743 305 1
1744 75 1
1744 281 1
1744 509 1
1744 1370 1
1745 68 1
1745 105 1
1745 137 1
1745 158 1
1745 2130 1
1746 171 1
1746 1442 1
1746 1476 1
1746 1529 1
1747 65 1
1747 169 1
1747 364 1
1747 404 1
1747 2221 1
1748 2 1
1748 87 1
1748 250 1
1748 454 1
1749 6 1
1749 342 1
1749 493 1
1749 1161 1
1749 2735 1
1749 2900 1
1750 219 1
1750 436 1
1750 897 1
1750 1358 1
1751 386 1
1751 933 1
1751 1066 1
1751 1441 1
1751 1903 1
1751 2877 1
1752 22 1
1752 27 1
1752 80 1
1752 1540 1
1752 1777 1
1752 2062 1
1753 20 1
1753 429 1
1753 884 1
1753 975 1
1753 2095 1
1753 2498 1
1753 2786 1
1754 7 1
1754 79 1
1754 1345 1
1754 1523 1
1754 2029 1
1754 2361 1
1755 27 1
1755 130 1
1755 922 1
1755 1456 1
1755 2556 1
1756 9 1
1756 282 1
1756 1021 1
1756 1151 1
1756 2091 1
1756 2465 1
1757 11 1
1757 60 1
1757 256 1
1757 374 1
1758 41 1
1758 1345 1
1758 1407 1
1758 1458 1
1758 1851 1
1758 1890 1
1759 27 1
1759 565 1
1759 1008 1
1759 1512 1
1759 2215 1
1760 62 1
1760 91 1
1760 1386 1
1760 1733 1
1760 2931 1
1761 25 1
1761 246 1
1761 908 1
1761 932 1
1761 2626 1
1762 20 1
1762 67 1
1762 225 1
1762 287 1
1762 1865 1
1762 1883 1
1763 30 1
1763 57 1
1763 281 1
1763 1027 1
1763 1789 1
1763 2281 1
1764 12 1
1764 38 1
1764 293 1
1764 434 1
1765 169 1
1765 353 1
1765 1391 1
1765 1566 1
1766 18 1
1766 21 1
1766 26 1
1766 1087 1
1766 2874 1
1767 34 1
1767 37 1
1767 165 1
1767 1268 1
1767 1876 1
1767 1913 1
1767 2087 1
1768 226 1
1768 443 1
1768 508 1
1768 1267 1
1768 1803 1
1768 2090 1
1769 147 1
1769 1402 1
1769 1641 1
1769 1701 1
1770 11 1
1770 92 1
1770 137 1
1770 1549 1
1770 1885 1
1770 2039 1
1770 2352 1
1771 254 1
1771 291 1
1771 690 1
1771 1325 1
1771 2299 1
1771 2519 1
1772 607 1
1772 1339 1
1772 1544 1
1772 1575 1
1772 2858 1
1773 14 1
1773 91 1
1773 929 1
1773 1279 1
1774 3 1
1774 85 1
1774 852 1
1774 902 1
1774 2802 1
1775 11 1
1775 20 1
1775 417 1
1775 1542 1
1775 2131 1
1775 2181 1
1776 147 1
1776 898 1
1776 1143 1
1776 1510 1
1777 2 1
1777 117 1
1777 910 1
1777 1752 1
1777 2160 1
1777 2681 1
1778 18 1
1778 194 1
1778 290 1
1778 909 1
1778 1807 1
1778 2417 1
1778 2498 1
1779 7 1
1779 77 1
1779 1382 1
1779 1483 1
1779 1902 1
1779 2573 1
1779 2819 1
1780 74 1
1780 769 1
1780 865 1
1780 1192 1
1780 2505 1
1780 2942 1
1781 9 1
1781 20 1
1781 150 1
1781 231 1
1781 2507 1
1782 480 1
1782 846 1
1782 1003 1
1782 1486 1
1782 2066 1
1783 13 1
1783 129 1
1783 406 1
1783 1506 1
1783 2110 1
1783 2303 1
1784 1 1
1784 2 1
1784 261 1
1784 761 1
1785 161 1
1785 251 1
1785 899 1
1785 1323 1
1786 116 1
1786 352 1
1786 547 1
1786 902 1
1786 2086 1
1787 18 1
1787 190 1
1787 639 1
1787 658 1
1787 1838 1
1787 2507 1
1787 2850 1
1788 2 1
1788 76 1
1788 331 1
1788 1547 1
1789 57 1
1789 78 1
1789 1249 1
1789 1763 1
1789 2281 1
1789 2992 1
1790 561 1
1790 742 1
1790 773 1
1790 1237 1
1791 10 1
1791 153 1
1791 171 1
1791 276 1
1792 60 1
1792 1223 1
1792 1348 1
1792 1459 1
1792 2228 1
1793 9 1
1793 43 1
1793 348 1
1793 1218 1
1793 2136 1
1793 2419 1
1793 2780 1
1794 62 1
1794 156 1
1794 664 1
1794 800 1
1795 22 1
1795 78 1
1795 499 1
1795 909 1
1795 2206 1
1796 405 1
1796 436 1
1796 1245 1
1796 1685 1
1797 47 1
1797 568 1
1797 1252 1
1797 1677 1
1797 1999 1
1797 2277 1
1798 11 1
1798 493 1
1798 1108 1
1798 1117 1
1799 118 1
1799 674 1
1799 1081 1
1799 1124 1
1799 2713 1
1799 2820 1
1800 845 1
1800 995 1
1800 1281 1
1800 1467 1
1800 2244 1
1801 34 1
1801 131 1
1801 173 1
1801 406 1
1801 2886 1
1802 9 1
1802 451 1
1802 777 1
1802 1314 1
1802 2467 1
1803 147 1
1803 443 1
1803 1267 1
1803 1768 1
1803 2045 1
1803 2135 1
1804 1 1
1804 77 1
1804 432 1
1804 780 1
1805 10 1
1805 99 1
1805 188 1
1805 243 1
1805 2768 1
1806 10 1
1806 324 1
1806 475 1
1806 1710 1
1806 2153 1
1806 2276 1
1806 2357 1
1806 2608 1
1807 18 1
1807 399 1
1807 1341 1
1807 1778 1
1807 2300 1
1807 2498 1
1808 472 1
1808 1508 1
1808 1691 1
1808 1697 1
1809 155 1
1809 171 1
1809 909 1
1809 1679 1
1809 1899 1
1809 2115 1
1809 2643 1
1809 2726 1
1810 319 1
1810 364 1
1810 1073 1
1810 1681 1
1810 2534 1
1811 83 1
1811 169 1
1811 506 1
1811 712 1
1812 18 1
1812 521 1
1812 1448 1
1812 1513 1
1812 2023 1
1813 20 1
1813 29 1
1813 43 1
1813 1570 1
1814 654 1
1814 1050 1
1814 1209 1
1814 1290 1
1815 18 1
1815 25 1
1815 152 1
1815 1549 1
1816 149 1
1816 417 1
1816 981 1
1816 1127 1
1817 229 1
1817 263 1
1817 872 1
1817 1536 1
1817 2099 1
1818 2 1
1818 71 1
1818 1060 1
1818 1479 1
1818 1875 1
1818 2171 1
1818 2416 1
1819 27 1
1819 731 1
1819 853 1
1819 1169 1
1819 2768 1
1820 84 1
1820 91 1
1820 620 1
1820 1025 1
1820 2593 1
1821 3 1
1821 42 1
1821 446 1
1821 791 1
1822 3 1
1822 27 1
1822 818 1
1822 1197 1
1822 2382 1
1823 3 1
1823 142 1
1823 1647 1
1823 1741 1
1824 75 1
1824 1113 1
1824 1229 1
1824 1306 1
1825 14 1
1825 258 1
1825 812 1
1825 1720 1
1826 1 1
1826 66 1
1826 1474 1
1826 1564 1
1826 1831 1
1826 1837 1
1827 20 1
1827 194 1
1827 867 1
1827 921 1
1827 2829 1
1828 54 1
1828 157 1
1828 203 1
1828 1670 1
1828 1844 1
1828 2594 1
1828 2604 1
1828 2690 1
1829 2 1
1829 69 1
1829 126 1
1829 1120 1
1830 114 1
1830 209 1
1830 1522 1
1830 1587 1
1831 673 1
1831 1411 1
1831 1564 1
1831 1826 1
1832 1 1
1832 731 1
1832 1536 1
1832 1723 1
1833 527 1
1833 959 1
1833 1128 1
1833 1359 1
1833 2064 1
1834 10 1
1834 33 1
1834 91 1
1834 1553 1
1834 2236 1
1835 83 1
1835 398 1
1835 661 1
1835 1411 1
1836 425 1
1836 427 1
1836 765 1
1836 1293 1
1836 2906 1
1836 2952 1
1837 1 1
1837 82 1
1837 994 1
1837 1826 1
1838 24 1
1838 241 1
1838 1004 1
1838 1787 1
1838 1881 1
1839 2 1
1839 9 1
1839 516 1
1839 815 1
1839 2300 1
1840 36 1
1840 59 1
1840 282 1
1840 292 1
1841 16 1
1841 67 1
1841 273 1
1841 463 1
1841 2016 1
1842 7 1
1842 17 1
1842 241 1
1842 630 1
1842 2040 1
1842 2096 1
1843 128 1
1843 178 1
1843 305 1
1843 417 1
1844 35 1
1844 97 1
1844 640 1
1844 1828 1
1844 2270 1
1845 73 1
1845 109 1
1845 481 1
1845 906 1
1846 20 1
1846 157 1
1846 509 1
1846 804 1
1847 244 1
1847 396 1
1847 482 1
1847 1359 1
1848 279 1
1848 1297 1
1848 1299 1
1848 1659 1
1848 1928 1
1848 2159 1
1848 2684 1
1848 2955 1
1849 3 1
1849 108 1
1849 361 1
1849 1250 1
1850 3 1
1850 1147 1
1850 1469 1
1850 1539 1
1851 41 1
1851 353 1
1851 1609 1
1851 1758 1
1852 2 1
1852 130 1
1852 139 1
1852 364 1
1853 1 1
1853 346 1
1853 1026 1
1853 1156 1
1853 2355 1
1854 92 1
1854 310 1
1854 466 1
1854 742 1
1854 1888 1
1855 117 1
1855 330 1
1855 1215 1
1855 1238 1
1856 17 1
1856 178 1
1856 413 1
1856 733 1
1857 282 1
1857 857 1
1857 970 1
1857 1663 1
1857 1933 1
1857 2198 1
1857 2695 1
1858 15 1
1858 809 1
1858 1105 1
1858 1715 1
1858 2102 1
1859 130 1
1859 759 1
1859 1441 1
1859 1667 1
1859 2787 1
1860 69 1
1860 331 1
1860 622 1
1860 1021 1
1860 2395 1
1861 9 1
1861 141 1
1861 1381 1
1861 1668 1
1862 138 1
1862 479 1
1862 1414 1
1862 1480 1
1863 1 1
1863 401 1
1863 491 1
1863 1092 1
1863 2480 1
1864 14 1
1864 331 1
1864 1010 1
1864 1604 1
1865 20 1
1865 67 1
1865 1083 1
1865 1762 1
1865 1883 1
1865 2706 1
1866 329 1
1866 570 1
1866 894 1
1866 1408 1
1866 2617 1
1867 108 1
1867 561 1
1867 1334 1
1867 1585 1
1867 2133 1
1867 2202 1
1867 2600 1
1868 162 1
1868 233 1
1868 692 1
1868 699 1
1868 1869 1
1868 2591 1
1869 225 1
1869 233 1
1869 417 1
1869 1868 1
1869 1954 1
1870 98 1
1870 1322 1
1870 1624 1
1870 1696 1
1871 468 1
1871 555 1
1871 909 1
1871 1379 1
1872 50 1
1872 60 1
1872 1470 1
1872 1587 1
1873 11 1
1873 27 1
1873 113 1
1873 123 1
1873 1897 1
1874 11 1
1874 344 1
1874 453 1
1874 513 1
1875 3 1
1875 38 1
1875 330 1
1875 1818 1
1875 2106 1
1876 27 1
1876 569 1
1876 1078 1
1876 1767 1
1877 74 1
1877 138 1
1877 153 1
1877 1324 1
1878 138 1
1878 450 1
1878 975 1
1878 1676 1
1878 2377 1
1878 2785 1
1879 25 1
1879 302 1
1879 438 1
1879 917 1
1879 2104 1
1880 18 1
1880 257 1
1880 1023 1
1880 1069 1
1880 2456 1
1881 11 1
1881 74 1
1881 1004 1
1881 1838 1
1881 2188 1
1881 2351 1
1882 77 1
1882 353 1
1882 473 1
1882 575 1
1882 1942 1
1882 1951 1
1882 2755 1
1883 225 1
1883 287 1
1883 1762 1
1883 1865 1
1883 1911 1
1884 27 1
1884 111 1
1884 198 1
1884 206 1
1884 2890 1
1885 11 1
1885 289 1
1885 764 1
1885 1770 1
1885 2039 1
1886 29 1
1886 124 1
1886 209 1
1886 1253 1
1886 2030 1
1886 2394 1
1887 14 1
1887 284 1
1887 972 1
1887 1351 1
1888 52 1
1888 448 1
1888 880 1
1888 1854 1
1888 2361 1
1889 28 1
1889 114 1
1889 130 1
1889 331 1
1889 2927 1
1890 33 1
1890 153 1
1890 1458 1
1890 1758 1
1890 2078 1
1890 2269 1
1891 197 1
1891 647 1
1891 854 1
1891 1463 1
1891 2340 1
1892 11 1
1892 141 1
1892 632 1
1892 1240 1
1892 2244 1
1892 2247 1
1893 39 1
1893 262 1
1893 707 1
1893 836 1
1893 2329 1
1894 60 1
1894 151 1
1894 622 1
1894 1687 1
1894 2037 1
1895 60 1
1895 194 1
1895 651 1
1895 1584 1
1896 1 1
1896 175 1
1896 386 1
1896 726 1
1897 123 1
1897 178 1
1897 460 1
1897 1873 1
1897 2378 1
1897 2384 1
1898 106 1
1898 315 1
1898 558 1
1898 1620 1
1898 1987 1
1898 2898 1
1899 138 1
1899 336 1
1899 430 1
1899 1809 1
1899 2697 1
1900 74 1
1900 160 1
1900 336 1
1900 719 1
1900 2183 1
1900 2613 1
1900 2803 1
1901 109 1
1901 293 1
1901 600 1
1901 1525 1
1901 2103 1
1902 517 1
1902 896 1
1902 1459 1
1902 1779 1
1902 2443 1
1902 2640 1
1902 2819 1
1903 21 1
1903 212 1
1903 1066 1
1903 1751 1
1904 33 1
1904 171 1
1904 999 1
1904 1049 1
1904 2478 1
1905 60 1
1905 244 1
1905 1307 1
1905 1699 1
1905 2291 1
1906 18 1
1906 262 1
1906 837 1
1906 841 1
1906 2288 1
1906 2292 1
1906 2899 1
1907 31 1
1907 508 1
1907 1554 1
1907 1665 1
1907 1926 1
1908 9 1
1908 274 1
1908 577 1
1908 1467 1
1908 2818 1
1909 9 1
1909 26 1
1909 561 1
1909 774 1
1909 2128 1
1910 91 1
1910 321 1
1910 1051 1
1910 1187 1
1910 1931 1
1911 225 1
1911 269 1
1911 1739 1
1911 1883 1
1911 2229 1
1911 2586 1
1911 2783 1
1912 18 1
1912 137 1
1912 513 1
1912 922 1
1912 2725 1
1913 105 1
1913 165 1
1913 1365 1
1913 1767 1
1914 205 1
1914 558 1
1914 1121 1
1914 1548 1
1915 9 1
1915 315 1
1915 1314 1
1915 1502 1
1915 2115 1
1915 2365 1
1916 1379 1
1916 1409 1
1916 1468 1
1916 1620 1
1916 1935 1
1917 71 1
1917 73 1
1917 659 1
1917 1278 1
1917 2401 1
1918 4 1
1918 142 1
1918 281 1
1918 801 1
1918 2324 1
1919 11 1
1919 147 1
1919 199 1
1919 1351 1
1919 2861 1
1920 20 1
1920 139 1
1920 277 1
1920 287 1
1920 2418 1
1921 20 1
1921 107 1
1921 292 1
1921 1043 1
1921 2772 1
1921 2938 1
1922 118 1
1922 171 1
1922 1129 1
1922 1442 1
1923 74 1
1923 989 1
1923 1163 1
1923 1464 1
1923 1943 1
1923 2556 1
1924 9 1
1924 35 1
1924 91 1
1924 1413 1
1925 2 1
1925 9 1
1925 465 1
1925 1228 1
1925 2402 1
1926 46 1
1926 738 1
1926 1042 1
1926 1907 1
1926 2003 1
1927 2 1
1927 264 1
1927 601 1
1927 1178 1
1927 2956 1
1928 13 1
1928 881 1
1928 1107 1
1928 1848 1
1929 74 1
1929 324 1
1929 1258 1
1929 1464 1
1930 25 1
1930 237 1
1930 295 1
1930 1314 1
1931 91 1
1931 774 1
1931 1051 1
1931 1910 1
1932 18 1
1932 57 1
1932 113 1
1932 1315 1
1932 2406 1
1933 970 1
1933 1250 1
1933 1663 1
1933 1857 1
1933 1959 1
1933 2198 1
1934 5 1
1934 318 1
1934 839 1
1934 1101 1
1934 2176 1
1935 314 1
1935 645 1
1935 1409 1
1935 1916 1
1936 300 1
1936 696 1
1936 817 1
1936 1171 1
1937 1231 1
1937 1267 1
1937 1369 1
1937 1469 1
1938 6 1
1938 119 1
1938 990 1
1938 1189 1
1939 10 1
1939 267 1
1939 795 1
1939 1075 1
1940 698 1
1940 721 1
1940 884 1
1940 1115 1
1940 2279 1
1940 2709 1
1941 6 1
1941 1348 1
1941 1487 1
1941 1576 1
1941 2322 1
1942 78 1
1942 353 1
1942 1001 1
1942 1882 1
1942 1983 1
1943 95 1
1943 256 1
1943 328 1
1943 1923 1
1944 278 1
1944 881 1
1944 1067 1
1944 1260 1
1944 2794 1
1945 17 1
1945 625 1
1945 770 1
1945 1387 1
1946 5 1
1946 12 1
1946 335 1
1946 1522 1
1946 2364 1
1947 53 1
1947 267 1
1947 785 1
1947 1588 1
1948 50 1
1948 112 1
1948 364 1
1948 517 1
1949 25 1
1949 985 1
1949 1488 1
1949 1724 1
1949 2888 1
1950 50 1
1950 108 1
1950 199 1
1950 226 1
1951 77 1
1951 281 1
1951 1476 1
1951 1882 1
1952 34 1
1952 84 1
1952 195 1
1952 1065 1
1953 27 1
1953 438 1
1953 978 1
1953 1110 1
1954 24 1
1954 28 1
1954 233 1
1954 1869 1
1954 2373 1
1955 27 1
1955 221 1
1955 425 1
1955 1290 1
1956 2 1
1956 18 1
1956 283 1
1956 1680 1
1957 173 1
1957 189 1
1957 206 1
1957 381 1
1958 27 1
1958 60 1
1958 1336 1
1958 1358 1
1959 60 1
1959 893 1
1959 1073 1
1959 1933 1
1960 386 1
1960 795 1
1960 905 1
1960 1179 1
1960 2326 1
1961 81 1
1961 454 1
1961 516 1
1961 995 1
1962 29 1
1962 397 1
1962 1140 1
1962 1179 1
1962 2223 1
1962 2803 1
1963 15 1
1963 52 1
1963 362 1
1963 1002 1
1963 2800 1
1964 73 1
1964 131 1
1964 734 1
1964 769 1
1964 2059 1
1964 2597 1
1965 113 1
1965 427 1
1965 926 1
1965 1252 1
1965 2267 1
1965 2474 1
1965 2682 1
1966 3 1
1966 21 1
1966 25 1
1966 840 1
1966 2764 1
1967 182 1
1967 276 1
1967 898 1
1967 1156 1
1967 2532 1
1968 3 1
1968 27 1
1968 353 1
1968 547 1
1968 2499 1
1969 149 1
1969 738 1
1969 1385 1
1969 1618 1
1969 2354 1
1969 2798 1
1970 35 1
1970 91 1
1970 114 1
1970 1588 1
1971 18 1
1971 108 1
1971 308 1
1971 1139 1
1971 2058 1
1972 65 1
1972 91 1
1972 178 1
1972 280 1
1973 913 1
1973 1587 1
1973 1608 1
1973 1698 1
1974 3 1
1974 410 1
1974 1605 1
1974 1609 1
1974 2254 1
1974 2282 1
1975 5 1
1975 735 1
1975 932 1
1975 1011 1
1975 2827 1
1976 634 1
1976 1234 1
1976 1414 1
1976 1624 1
1977 63 1
1977 154 1
1977 257 1
1977 1036 1
1977 2179 1
1977 2283 1
1977 2598 1
1977 2666 1
1977 2830 1
1978 7 1
1978 1200 1
1978 1270 1
1978 1456 1
1979 689 1
1979 922 1
1979 1018 1
1979 1430 1
1979 2164 1
1979 2310 1
1980 18 1
1980 118 1
1980 236 1
1980 657 1
1981 1 1
1981 11 1
1981 451 1
1981 741 1
1982 14 1
1982 187 1
1982 891 1
1982 1492 1
1983 353 1
1983 562 1
1983 1504 1
1983 1942 1
1984 47 1
1984 52 1
1984 76 1
1984 1394 1
1984 2723 1
1985 77 1
1985 109 1
1985 341 1
1985 1140 1
1985 2796 1
1986 17 1
1986 98 1
1986 312 1
1986 1423 1
1986 2093 1
1986 2878 1
1987 266 1
1987 315 1
1987 1340 1
1987 1898 1
1988 171 1
1988 541 1
1988 741 1
1988 1197 1
1989 1 1
1989 450 1
1989 936 1
1989 1284 1
1989 2470 1
1990 2 1
1990 36 1
1990 474 1
1990 581 1
1990 2362 1
1991 194 1
1991 228 1
1991 996 1
1991 1356 1
1991 2002 1
1992 25 1
1992 68 1
1992 105 1
1992 579 1
1992 2675 1
1992 2749 1
1993 393 1
1993 873 1
1993 1090 1
1993 1219 1
1993 2211 1
1994 82 1
1994 324 1
1994 781 1
1994 1234 1
1995 585 1
1995 809 1
1995 845 1
1995 1068 1
1995 2134 1
1996 41 1
1996 68 1
1996 402 1
1996 1217 1
1996 2469 1
1997 1 1
1997 9 1
1997 25 1
1997 690 1
1997 2120 1
1997 2234 1
1997 2480 1
1997 2738 1
1997 2848 1
1998 123 1
1998 502 1
1998 921 1
1998 1297 1
1999 427 1
1999 476 1
1999 1252 1
1999 1797 1
1999 2277 1
2000 13 1
2000 39 1
2000 214 1
2000 971 1
2001 58 1
2001 61 1
2001 407 1
2001 755 1
2002 11 1
2002 18 1
2002 865 1
2002 1991 1
2002 2302 1
2002 2668 1
2003 46 1
2003 1042 1
2003 1137 1
2003 1926 1
2004 75 1
2004 114 1
2004 116 1
2004 1368 1
2004 2294 1
2004 2604 1
2005 514 1
2005 827 1
2005 1155 1
2005 1337 1
2005 2118 1
2005 2934 1
2006 127 1
2006 319 1
2006 574 1
2006 1308 1
2006 2592 1
2007 13 1
2007 874 1
2007 972 1
2007 1350 1
2007 2213 1
2007 2829 1
2008 326 1
2008 873 1
2008 1283 1
2008 1468 1
2009 164 1
2009 212 1
2009 812 1
2009 1598 1
2010 234 1
2010 535 1
2010 718 1
2010 1114 1
2010 2721 1
2011 146 1
2011 883 1
2011 1495 1
2011 1739 1
2011 2449 1
2011 2526 1
2012 445 1
2012 931 1
2012 991 1
2012 1308 1
2013 27 1
2013 604 1
2013 985 1
2013 1098 1
2013 2554 1
2013 2888 1
2014 121 1
2014 308 1
2014 1329 1
2014 1462 1
2015 34 1
2015 510 1
2015 536 1
2015 724 1
2015 2753 1
2015 2968 1
2016 145 1
2016 324 1
2016 471 1
2016 1841 1
2017 27 1
2017 354 1
2017 513 1
2017 970 1
2018 1304 1
2018 1430 1
2018 1569 1
2018 1637 1
2018 2159 1
2018 2389 1
2018 2664 1
2019 278 1
2019 298 1
2019 577 1
2019 1299 1
2019 2196 1
2019 2229 1
2019 2364 1
2020 57 1
2020 227 1
2020 331 1
2020 866 1
2020 2450 1
2020 2639 1
2021 97 1
2021 154 1
2021 486 1
2021 1107 1
2022 20 1
2022 36 1
2022 1553 1
2022 1555 1
2023 191 1
2023 381 1
2023 1448 1
2023 1812 1
2023 2597 1
2024 27 1
2024 131 1
2024 411 1
2024 1071 1
2025 25 1
2025 187 1
2025 199 1
2025 310 1
2025 2991 1
2026 1 1
2026 11 1
2026 1372 1
2026 1564 1
2026 2071 1
2027 69 1
2027 139 1
2027 266 1
2027 1741 1
2027 2180 1
2027 2273 1
2027 2621 1
2028 18 1
2028 25 1
2028 391 1
2028 976 1
2028 2762 1
2028 2842 1
2029 9 1
2029 27 1
2029 1523 1
2029 1754 1
2029 2676 1
2030 19 1
2030 191 1
2030 558 1
2030 1886 1
2031 203 1
2031 685 1
2031 715 1
2031 1621 1
2032 9 1
2032 209 1
2032 1106 1
2032 1522 1
2033 3 1
2033 11 1
2033 597 1
2033 1372 1
2033 2757 1
2034 94 1
2034 336 1
2034 433 1
2034 1130 1
2034 2336 1
2034 2352 1
2034 2609 1
2035 41 1
2035 162 1
2035 249 1
2035 353 1
2035 2628 1
2036 221 1
2036 312 1
2036 520 1
2036 1273 1
2037 29 1
2037 437 1
2037 1247 1
2037 1894 1
2038 2 1
2038 10 1
2038 784 1
2038 1217 1
2039 20 1
2039 251 1
2039 1770 1
2039 1885 1
2040 7 1
2040 17 1
2040 129 1
2040 1842 1
2040 2304 1
2041 129 1
2041 483 1
2041 964 1
2041 1480 1
2041 2665 1
2042 2 1
2042 27 1
2042 292 1
2042 1649 1
2043 18 1
2043 35 1
2043 258 1
2043 1491 1
2044 118 1
2044 308 1
2044 1003 1
2044 1461 1
2044 2541 1
2045 74 1
2045 442 1
2045 1267 1
2045 1803 1
2046 2 1
2046 635 1
2046 751 1
2046 1411 1
2046 2646 1
2047 18 1
2047 57 1
2047 70 1
2047 295 1
2047 2350 1
2048 39 1
2048 95 1
2048 606 1
2048 1172 1
2049 27 1
2049 137 1
2049 982 1
2049 1433 1
2049 2477 1
2049 2585 1
2049 2957 1
2050 2 1
2050 100 1
2050 264 1
2050 501 1
2050 2736 1
2051 107 1
2051 226 1
2051 711 1
2051 1267 1
2051 2224 1
2051 2975 1
2052 34 1
2052 157 1
2052 690 1
2052 746 1
2053 403 1
2053 972 1
2053 1130 1
2053 1614 1
2054 87 1
2054 153 1
2054 404 1
2054 1389 1
2055 3 1
2055 634 1
2055 755 1
2055 1527 1
2056 13 1
2056 29 1
2056 61 1
2056 1199 1
2057 138 1
2057 497 1
2057 669 1
2057 1420 1
2058 282 1
2058 652 1
2058 1737 1
2058 1971 1
2058 2103 1
2059 252 1
2059 858 1
2059 997 1
2059 1964 1
2060 4 1
2060 20 1
2060 24 1
2060 34 1
2060 2467 1
2061 35 1
2061 170 1
2061 379 1
2061 881 1
2061 2107 1
2062 9 1
2062 263 1
2062 1354 1
2062 1752 1
2062 2573 1
2062 2994 1
2063 29 1
2063 186 1
2063 217 1
2063 308 1
2064 341 1
2064 346 1
2064 1021 1
2064 1833 1
2064 2904 1
2065 10 1
2065 1043 1
2065 1145 1
2065 1354 1
2065 2148 1
2065 2278 1
2065 2462 1
2066 11 1
2066 88 1
2066 1448 1
2066 1782 1
2066 2686 1
2067 3 1
2067 86 1
2067 697 1
2067 1595 1
2067 2206 1
2068 185 1
2068 1305 1
2068 1307 1
2068 1699 1
2069 9 1
2069 44 1
2069 497 1
2069 1570 1
2069 2439 1
2070 10 1
2070 76 1
2070 106 1
2070 1273 1
2071 28 1
2071 153 1
2071 1298 1
2071 2026 1
2072 314 1
2072 593 1
2072 906 1
2072 1320 1
2072 2982 1
2073 16 1
2073 676 1
2073 677 1
2073 698 1
2073 2698 1
2074 113 1
2074 256 1
2074 337 1
2074 1630 1
2074 2238 1
2074 2281 1
2074 2571 1
2075 10 1
2075 19 1
2075 226 1
2075 1740 1
2075 2443 1
2076 73 1
2076 158 1
2076 897 1
2076 1639 1
2076 2948 1
2077 145 1
2077 644 1
2077 707 1
2077 971 1
2077 2253 1
2077 2414 1
2077 2564 1
2078 10 1
2078 33 1
2078 755 1
2078 1890 1
2078 2708 1
2079 137 1
2079 151 1
2079 450 1
2079 1549 1
2079 2353 1
2080 139 1
2080 394 1
2080 595 1
2080 668 1
2081 529 1
2081 785 1
2081 873 1
2081 1017 1
2081 2405 1
2081 2828 1
2082 5 1
2082 69 1
2082 1329 1
2082 1519 1
2083 8 1
2083 18 1
2083 391 1
2083 735 1
2083 2966 1
2084 594 1
2084 722 1
2084 802 1
2084 1217 1
2084 2161 1
2085 221 1
2085 227 1
2085 387 1
2085 802 1
2085 2869 1
2086 547 1
2086 1633 1
2086 1637 1
2086 1786 1
2086 2353 1
2086 2546 1
2086 2655 1
2086 2779 1
2086 2897 1
2087 37 1
2087 825 1
2087 1403 1
2087 1767 1
2087 2118 1
2087 2504 1
2088 1 1
2088 275 1
2088 482 1
2088 714 1
2089 17 1
2089 203 1
2089 1166 1
2089 1547 1
2090 1 1
2090 578 1
2090 1267 1
2090 1768 1
2090 2137 1
2091 282 1
2091 440 1
2091 1345 1
2091 1756 1
2091 2838 1
2091 2917 1
2092 27 1
2092 226 1
2092 925 1
2092 1690 1
2092 2629 1
2093 17 1
2093 121 1
2093 753 1
2093 1986 1
2094 149 1
2094 429 1
2094 544 1
2094 1000 1
2094 2297 1
2094 2816 1
2095 20 1
2095 23 1
2095 1002 1
2095 1753 1
2096 256 1
2096 395 1
2096 772 1
2096 1842 1
2096 2272 1
2097 1 1
2097 25 1
2097 988 1
2097 1223 1
2098 25 1
2098 157 1
2098 310 1
2098 654 1
2099 114 1
2099 229 1
2099 263 1
2099 1817 1
2100 2 1
2100 374 1
2100 785 1
2100 1631 1
2100 2777 1
2100 2869 1
2101 137 1
2101 226 1
2101 1041 1
2101 1549 1
2101 2801 1
2102 162 1
2102 809 1
2102 1715 1
2102 1858 1
2102 2853 1
2103 259 1
2103 1215 1
2103 1901 1
2103 2058 1
2103 2271 1
2103 2305 1
2104 302 1
2104 540 1
2104 1357 1
2104 1879 1
2105 762 1
2105 809 1
2105 1141 1
2105 1591 1
2106 21 1
2106 330 1
2106 1616 1
2106 1875 1
2106 2875 1
2107 178 1
2107 438 1
2107 505 1
2107 2061 1
2107 2383 1
2108 161 1
2108 558 1
2108 865 1
2108 1387 1
2109 60 1
2109 74 1
2109 129 1
2109 1264 1
2109 2252 1
2110 13 1
2110 538 1
2110 1579 1
2110 1783 1
2110 2458 1
2111 27 1
2111 1071 1
2111 1317 1
2111 1713 1
2111 2743 1
2111 2760 1
2112 2 1
2112 9 1
2112 193 1
2112 226 1
2113 39 1
2113 51 1
2113 138 1
2113 580 1
2113 2362 1
2114 19 1
2114 75 1
2114 1554 1
2114 1635 1
2114 2164 1
2115 424 1
2115 507 1
2115 1809 1
2115 1915 1
2116 163 1
2116 307 1
2116 450 1
2116 1411 1
2117 208 1
2117 668 1
2117 803 1
2117 1044 1
2118 6 1
2118 990 1
2118 2005 1
2118 2087 1
2119 5 1
2119 172 1
2119 1469 1
2119 1521 1
2120 1 1
2120 386 1
2120 758 1
2120 1997 1
2121 28 1
2121 75 1
2121 246 1
2121 1272 1
2122 406 1
2122 491 1
2122 1349 1
2122 1581 1
2122 2441 1
2122 2687 1
2123 2 1
2123 4 1
2123 1523 1
2123 1547 1
2124 91 1
2124 145 1
2124 152 1
2124 874 1
2124 2216 1
2125 18 1
2125 1181 1
2125 1310 1
2125 1425 1
2125 2482 1
2125 2784 1
2126 138 1
2126 493 1
2126 657 1
2126 1713 1
2126 2284 1
2127 9 1
2127 407 1
2127 634 1
2127 1609 1
2128 26 1
2128 500 1
2128 1203 1
2128 1909 1
2129 97 1
2129 107 1
2129 154 1
2129 1660 1
2130 25 1
2130 132 1
2130 667 1
2130 1745 1
2131 93 1
2131 246 1
2131 844 1
2131 1775 1
2132 513 1
2132 538 1
2132 936 1
2132 947 1
2132 2237 1
2133 354 1
2133 486 1
2133 842 1
2133 1867 1
2133 2600 1
2134 157 1
2134 1068 1
2134 1428 1
2134 1995 1
2135 36 1
2135 163 1
2135 443 1
2135 1803 1
2136 21 1
2136 394 1
2136 441 1
2136 1793 1
2136 2419 1
2136 2956 1
2137 1 1
2137 108 1
2137 219 1
2137 2090 1
2138 5 1
2138 162 1
2138 857 1
2138 1338 1
2138 2301 1
2139 5 1
2139 15 1
2139 252 1
2139 455 1
2139 2645 1
2139 2779 1
2140 21 1
2140 176 1
2140 457 1
2140 460 1
2141 207 1
2141 509 1
2141 1362 1
2141 1629 1
2142 65 1
2142 694 1
2142 752 1
2142 1670 1
2142 2714 1
2143 9 1
2143 28 1
2143 585 1
2143 1668 1
2143 2416 1
2144 103 1
2144 310 1
2144 393 1
2144 539 1
2145 14 1
2145 129 1
2145 355 1
2145 1041 1
2145 2857 1
2146 364 1
2146 918 1
2146 1093 1
2146 1355 1
2147 18 1
2147 28 1
2147 210 1
2147 1362 1
2147 2846 1
2148 35 1
2148 300 1
2148 1145 1
2148 2065 1
2148 2278 1
2149 25 1
2149 153 1
2149 637 1
2149 762 1
2149 2494 1
2150 1 1
2150 116 1
2150 926 1
2150 1589 1
2150 2234 1
2151 413 1
2151 884 1
2151 1372 1
2151 1486 1
2151 2328 1
2151 2699 1
2152 73 1
2152 262 1
2152 1308 1
2152 1470 1
2152 2485 1
2153 324 1
2153 365 1
2153 953 1
2153 1806 1
2154 137 1
2154 203 1
2154 304 1
2154 514 1
2155 2 1
2155 468 1
2155 1073 1
2155 1349 1
2155 2972 1
2156 362 1
2156 1166 1
2156 1498 1
2156 1734 1
2157 211 1
2157 228 1
2157 265 1
2157 1193 1
2158 3 1
2158 541 1
2158 761 1
2158 1202 1
2158 2376 1
2158 2483 1
2159 254 1
2159 362 1
2159 1848 1
2159 2018 1
2160 37 1
2160 100 1
2160 522 1
2160 1777 1
2161 136 1
2161 1377 1
2161 1718 1
2161 2084 1
2161 2530 1
2161 2542 1
2161 2860 1
2161 2927 1
2162 331 1
2162 617 1
2162 1320 1
2162 1334 1
2163 10 1
2163 11 1
2163 50 1
2163 127 1
2164 75 1
2164 313 1
2164 1979 1
2164 2114 1
2164 2529 1
2165 10 1
2165 18 1
2165 604 1
2165 875 1
2165 2764 1
2165 2766 1
2166 115 1
2166 158 1
2166 430 1
2166 476 1
2166 2379 1
2167 213 1
2167 332 1
2167 1253 1
2167 1650 1
2167 2760 1
2168 129 1
2168 550 1
2168 1017 1
2168 1308 1
2169 9 1
2169 50 1
2169 836 1
2169 1491 1
2169 2817 1
2169 2983 1
2170 25 1
2170 83 1
2170 648 1
2170 1150 1
2170 2375 1
2171 12 1
2171 71 1
2171 1479 1
2171 1818 1
2171 2536 1
2172 2 1
2172 9 1
2172 44 1
2172 1413 1
2173 1 1
2173 17 1
2173 590 1
2173 1106 1
2173 2990 1
2173 2997 1
2174 68 1
2174 223 1
2174 274 1
2174 777 1
2175 2 1
2175 14 1
2175 134 1
2175 165 1
2176 91 1
2176 474 1
2176 839 1
2176 1934 1
2177 9 1
2177 202 1
2177 217 1
2177 969 1
2177 2639 1
2178 37 1
2178 196 1
2178 252 1
2178 1357 1
2178 2552 1
2178 2603 1
2178 2754 1
2178 2841 1
2178 2989 1
2179 81 1
2179 154 1
2179 1427 1
2179 1977 1
2180 6 1
2180 351 1
2180 1178 1
2180 2027 1
2180 2621 1
2181 37 1
2181 515 1
2181 1542 1
2181 1775 1
2182 1 1
2182 82 1
2182 659 1
2182 1248 1
2183 11 1
2183 54 1
2183 761 1
2183 1900 1
2183 2613 1
2184 230 1
2184 366 1
2184 658 1
2184 782 1
2185 51 1
2185 149 1
2185 561 1
2185 1531 1
2185 2573 1
2185 2634 1
2186 211 1
2186 237 1
2186 479 1
2186 1271 1
2187 5 1
2187 11 1
2187 166 1
2187 1032 1
2188 74 1
2188 233 1
2188 1207 1
2188 1881 1
2188 2595 1
2189 74 1
2189 100 1
2189 129 1
2189 847 1
2190 430 1
2190 502 1
2190 513 1
2190 936 1
2190 2683 1
2191 90 1
2191 497 1
2191 715 1
2191 1002 1
2192 75 1
2192 76 1
2192 417 1
2192 950 1
2193 260 1
2193 449 1
2193 514 1
2193 563 1
2193 2729 1
2194 189 1
2194 300 1
2194 322 1
2194 1341 1
2195 18 1
2195 203 1
2195 1242 1
2195 1380 1
2195 2316 1
2195 2414 1
2196 949 1
2196 1504 1
2196 1529 1
2196 2019 1
2196 2261 1
2196 2334 1
2196 2718 1
2197 228 1
2197 318 1
2197 368 1
2197 1189 1
2197 2449 1
2198 11 1
2198 264 1
2198 1857 1
2198 1933 1
2199 1 1
2199 10 1
2199 189 1
2199 1310 1
2199 2248 1
2200 23 1
2200 109 1
2200 377 1
2200 655 1
2200 2345 1
2201 346 1
2201 918 1
2201 1354 1
2201 1355 1
2201 2836 1
2202 108 1
2202 530 1
2202 961 1
2202 1867 1
2202 2208 1
2202 2259 1
2203 125 1
2203 658 1
2203 1302 1
2203 1537 1
2204 91 1
2204 97 1
2204 123 1
2204 142 1
2204 2740 1
2204 2878 1
2205 69 1
2205 92 1
2205 673 1
2205 1084 1
2206 3 1
2206 499 1
2206 1795 1
2206 2067 1
2207 75 1
2207 436 1
2207 455 1
2207 869 1
2208 27 1
2208 530 1
2208 961 1
2208 2202 1
2209 9 1
2209 351 1
2209 1205 1
2209 1563 1
2210 452 1
2210 601 1
2210 619 1
2210 1439 1
2211 731 1
2211 1488 1
2211 1543 1
2211 1993 1
2211 2288 1
2212 2 1
2212 70 1
2212 361 1
2212 1223 1
2213 82 1
2213 286 1
2213 1088 1
2213 2007 1
2214 50 1
2214 137 1
2214 250 1
2214 1510 1
2214 2696 1
2215 209 1
2215 605 1
2215 1134 1
2215 1759 1
2216 73 1
2216 1620 1
2216 1689 1
2216 2124 1
2216 2945 1
2217 47 1
2217 587 1
2217 833 1
2217 875 1
2217 2670 1
2218 20 1
2218 121 1
2218 1051 1
2218 1689 1
2219 9 1
2219 131 1
2219 237 1
2219 1099 1
2219 2266 1
2219 2465 1
2220 89 1
2220 857 1
2220 945 1
2220 1575 1
2221 25 1
2221 102 1
2221 1377 1
2221 1747 1
2222 203 1
2222 250 1
2222 1628 1
2222 1640 1
2223 194 1
2223 278 1
2223 1067 1
2223 1962 1
2224 176 1
2224 315 1
2224 714 1
2224 2051 1
2225 73 1
2225 790 1
2225 1121 1
2225 1569 1
2226 129 1
2226 862 1
2226 906 1
2226 1366 1
2226 2733 1
2227 60 1
2227 156 1
2227 237 1
2227 1241 1
2228 75 1
2228 108 1
2228 1459 1
2228 1792 1
2229 18 1
2229 225 1
2229 1911 1
2229 2019 1
2230 147 1
2230 170 1
2230 612 1
2230 1713 1
2230 2738 1
2230 2801 1
2230 2847 1
2231 5 1
2231 276 1
2231 286 1
2231 763 1
2232 163 1
2232 242 1
2232 416 1
2232 482 1
2233 76 1
2233 250 1
2233 670 1
2233 1037 1
2234 9 1
2234 1156 1
2234 1997 1
2234 2150 1
2234 2738 1
2235 4 1
2235 36 1
2235 146 1
2235 171 1
2236 33 1
2236 91 1
2236 108 1
2236 1834 1
2236 2636 1
2237 465 1
2237 538 1
2237 834 1
2237 2132 1
2237 2337 1
2238 113 1
2238 138 1
2238 1682 1
2238 2074 1
2239 10 1
2239 789 1
2239 1438 1
2239 1620 1
2239 2320 1
2240 1 1
2240 1177 1
2240 1374 1
2240 1596 1
2241 36 1
2241 233 1
2241 267 1
2241 433 1
2241 2546 1
2242 2 1
2242 355 1
2242 699 1
2242 962 1
2243 843 1
2243 1139 1
2243 1450 1
2243 1738 1
2243 2579 1
2244 11 1
2244 845 1
2244 1800 1
2244 1892 1
2245 515 1
2245 563 1
2245 952 1
2245 1073 1
2246 123 1
2246 661 1
2246 1033 1
2246 1233 1
2247 175 1
2247 1196 1
2247 1240 1
2247 1892 1
2248 118 1
2248 297 1
2248 300 1
2248 2199 1
2248 2370 1
2248 2531 1
2249 76 1
2249 610 1
2249 1370 1
2249 1643 1
2250 16 1
2250 27 1
2250 28 1
2250 932 1
2250 2344 1
2250 2490 1
2251 25 1
2251 152 1
2251 1186 1
2251 1483 1
2252 60 1
2252 97 1
2252 506 1
2252 2109 1
2253 89 1
2253 707 1
2253 1313 1
2253 2077 1
2254 80 1
2254 497 1
2254 718 1
2254 1974 1
2255 2 1
2255 24 1
2255 440 1
2255 1113 1
2256 10 1
2256 410 1
2256 748 1
2256 800 1
2256 2294 1
2257 25 1
2257 57 1
2257 106 1
2257 923 1
2257 2436 1
2258 570 1
2258 1104 1
2258 1498 1
2258 1587 1
2259 170 1
2259 1246 1
2259 1465 1
2259 2202 1
2259 2569 1
2260 9 1
2260 11 1
2260 404 1
2260 976 1
2260 2484 1
2260 2660 1
2261 80 1
2261 242 1
2261 352 1
2261 2196 1
2262 9 1
2262 60 1
2262 139 1
2262 1700 1
2262 2331 1
2262 2979 1
2263 69 1
2263 230 1
2263 1194 1
2263 1554 1
2263 2985 1
2264 7 1
2264 161 1
2264 552 1
2264 1424 1
2265 25 1
2265 514 1
2265 579 1
2265 689 1
2266 21 1
2266 28 1
2266 276 1
2266 2219 1
2266 2932 1
2266 2961 1
2267 20 1
2267 33 1
2267 125 1
2267 1965 1
2268 161 1
2268 325 1
2268 919 1
2268 1690 1
2269 14 1
2269 555 1
2269 1458 1
2269 1890 1
2270 97 1
2270 325 1
2270 367 1
2270 1844 1
2271 386 1
2271 813 1
2271 1341 1
2271 2103 1
2271 2451 1
2272 138 1
2272 487 1
2272 949 1
2272 2096 1
2273 9 1
2273 1303 1
2273 1741 1
2273 2027 1
2274 781 1
2274 876 1
2274 1522 1
2274 1672 1
2275 13 1
2275 365 1
2275 543 1
2275 1050 1
2275 2644 1
2276 27 1
2276 128 1
2276 140 1
2276 1806 1
2277 3 1
2277 1518 1
2277 1797 1
2277 1999 1
2277 2913 1
2278 35 1
2278 138 1
2278 2065 1
2278 2148 1
2278 2462 1
2279 266 1
2279 742 1
2279 1629 1
2279 1940 1
2279 2389 1
2280 9 1
2280 105 1
2280 679 1
2280 1607 1
2281 1630 1
2281 1763 1
2281 1789 1
2281 2074 1
2281 2992 1
2282 129 1
2282 737 1
2282 986 1
2282 1974 1
2282 2741 1
2283 257 1
2283 1308 1
2283 1682 1
2283 1977 1
2283 2496 1
2283 2598 1
2284 18 1
2284 138 1
2284 771 1
2284 2126 1
2285 21 1
2285 52 1
2285 290 1
2285 1693 1
2286 11 1
2286 357 1
2286 364 1
2286 1538 1
2286 2335 1
2287 12 1
2287 36 1
2287 618 1
2287 642 1
2288 18 1
2288 841 1
2288 1906 1
2288 2211 1
2289 42 1
2289 355 1
2289 386 1
2289 444 1
2289 2650 1
2290 545 1
2290 576 1
2290 717 1
2290 846 1
2290 2628 1
2291 865 1
2291 898 1
2291 1699 1
2291 1905 1
2292 9 1
2292 262 1
2292 278 1
2292 1906 1
2292 2535 1
2293 10 1
2293 382 1
2293 498 1
2293 897 1
2293 2346 1
2294 800 1
2294 858 1
2294 2004 1
2294 2256 1
2294 2855 1
2295 41 1
2295 362 1
2295 434 1
2295 1404 1
2295 2490 1
2295 2671 1
2295 2955 1
2296 293 1
2296 746 1
2296 1496 1
2296 1590 1
2296 2507 1
2297 2 1
2297 68 1
2297 429 1
2297 2094 1
2297 2986 1
2298 136 1
2298 978 1
2298 1010 1
2298 1364 1
2298 2857 1
2299 27 1
2299 31 1
2299 1081 1
2299 1771 1
2299 2900 1
2300 18 1
2300 72 1
2300 1807 1
2300 1839 1
2301 5 1
2301 162 1
2301 643 1
2301 2138 1
2301 2388 1
2302 11 1
2302 18 1
2302 865 1
2302 2002 1
2303 129 1
2303 164 1
2303 1510 1
2303 1783 1
2304 3 1
2304 106 1
2304 585 1
2304 2040 1
2305 54 1
2305 1365 1
2305 1424 1
2305 2103 1
2306 448 1
2306 838 1
2306 1597 1
2306 1625 1
2306 2536 1
2307 159 1
2307 250 1
2307 850 1
2307 1280 1
2308 57 1
2308 710 1
2308 865 1
2308 1147 1
2308 2397 1
2308 2660 1
2309 2 1
2309 180 1
2309 1415 1
2309 1460 1
2309 2691 1
2310 194 1
2310 922 1
2310 1430 1
2310 1979 1
2310 2465 1
2311 3 1
2311 453 1
2311 1566 1
2311 1683 1
2312 74 1
2312 338 1
2312 1484 1
2312 1660 1
2313 1 1
2313 2 1
2313 705 1
2313 1703 1
2314 88 1
2314 369 1
2314 1092 1
2314 1165 1
2314 2589 1
2315 1 1
2315 729 1
2315 1306 1
2315 1564 1
2316 235 1
2316 649 1
2316 868 1
2316 2195 1
2316 2385 1
2316 2794 1
2316 2896 1
2317 9 1
2317 27 1
2317 313 1
2317 570 1
2318 252 1
2318 445 1
2318 582 1
2318 991 1
2318 2481 1
2319 1 1
2319 339 1
2319 502 1
2319 1613 1
2320 18 1
2320 617 1
2320 1307 1
2320 2239 1
2321 3 1
2321 61 1
2321 460 1
2321 1108 1
2321 2444 1
2322 17 1
2322 643 1
2322 1076 1
2322 1941 1
2322 2749 1
2323 27 1
2323 35 1
2323 819 1
2323 940 1
2324 442 1
2324 801 1
2324 1372 1
2324 1918 1
2325 229 1
2325 291 1
2325 393 1
2325 1219 1
2325 2876 1
2326 19 1
2326 774 1
2326 1591 1
2326 1960 1
2326 2945 1
2327 13 1
2327 524 1
2327 609 1
2327 1335 1
2327 2751 1
2328 98 1
2328 1405 1
2328 1486 1
2328 2151 1
2329 2 1
2329 710 1
2329 987 1
2329 1893 1
2330 135 1
2330 388 1
2330 933 1
2330 1081 1
2330 2713 1
2330 2951 1
2330 2953 1
2331 158 1
2331 476 1
2331 737 1
2331 2262 1
2332 457 1
2332 665 1
2332 978 1
2332 1562 1
2333 81 1
2333 274 1
2333 555 1
2333 577 1
2333 2892 1
2334 5 1
2334 11 1
2334 124 1
2334 2196 1
2335 62 1
2335 526 1
2335 1493 1
2335 2286 1
2336 1130 1
2336 1382 1
2336 1657 1
2336 2034 1
2336 2479 1
2337 137 1
2337 180 1
2337 538 1
2337 2237 1
2338 25 1
2338 157 1
2338 806 1
2338 1187 1
2338 2562 1
2339 3 1
2339 86 1
2339 489 1
2339 497 1
2340 647 1
2340 854 1
2340 1463 1
2340 1891 1
2341 11 1
2341 586 1
2341 618 1
2341 1191 1
2342 18 1
2342 953 1
2342 985 1
2342 1114 1
2342 2973 1
2343 89 1
2343 129 1
2343 486 1
2343 996 1
2343 2461 1
2344 11 1
2344 28 1
2344 932 1
2344 2250 1
2345 322 1
2345 1596 1
2345 1614 1
2345 2200 1
2345 2421 1
2346 125 1
2346 498 1
2346 889 1
2346 2293 1
2347 55 1
2347 585 1
2347 1161 1
2347 1549 1
2348 12 1
2348 224 1
2348 522 1
2348 860 1
2348 2455 1
2349 457 1
2349 547 1
2349 1054 1
2349 1426 1
2350 123 1
2350 468 1
2350 657 1
2350 2047 1
2351 11 1
2351 417 1
2351 1250 1
2351 1881 1
2352 379 1
2352 1701 1
2352 1770 1
2352 2034 1
2352 2609 1
2353 10 1
2353 274 1
2353 2079 1
2353 2086 1
2354 149 1
2354 738 1
2354 1618 1
2354 1969 1
2355 44 1
2355 140 1
2355 640 1
2355 1853 1
2356 10 1
2356 36 1
2356 146 1
2356 521 1
2357 331 1
2357 1071 1
2357 1478 1
2357 1806 1
2358 2 1
2358 36 1
2358 114 1
2358 745 1
2358 2576 1
2359 2 1
2359 268 1
2359 604 1
2359 1485 1
2360 308 1
2360 809 1
2360 916 1
2360 1103 1
2361 9 1
2361 611 1
2361 1754 1
2361 1888 1
2361 2734 1
2361 2856 1
2362 15 1
2362 1105 1
2362 1990 1
2362 2113 1
2362 2408 1
2363 4 1
2363 138 1
2363 700 1
2363 794 1
2364 612 1
2364 1522 1
2364 1946 1
2364 2019 1
2365 9 1
2365 12 1
2365 265 1
2365 1915 1
2366 601 1
2366 1165 1
2366 1297 1
2366 1511 1
2366 2641 1
2367 649 1
2367 868 1
2367 885 1
2367 1458 1
2368 3 1
2368 95 1
2368 139 1
2368 934 1
2369 290 1
2369 522 1
2369 532 1
2369 909 1
2370 297 1
2370 1444 1
2370 1586 1
2370 2248 1
2370 2503 1
2370 2531 1
2370 2775 1
2371 19 1
2371 145 1
2371 590 1
2371 1331 1
2372 3 1
2372 32 1
2372 566 1
2372 1421 1
2372 2581 1
2373 2 1
2373 28 1
2373 1534 1
2373 1954 1
2374 28 1
2374 52 1
2374 147 1
2374 304 1
2375 369 1
2375 1028 1
2375 1731 1
2375 2170 1
2375 2967 1
2376 48 1
2376 397 1
2376 1627 1
2376 2158 1
2377 27 1
2377 367 1
2377 450 1
2377 1878 1
2377 2477 1
2378 178 1
2378 356 1
2378 1441 1
2378 1897 1
2379 253 1
2379 626 1
2379 1270 1
2379 2166 1
2379 2729 1
2380 35 1
2380 138 1
2380 177 1
2380 1674 1
2380 2849 1
2381 57 1
2381 162 1
2381 305 1
2381 1591 1
2382 27 1
2382 191 1
2382 596 1
2382 1822 1
2383 22 1
2383 505 1
2383 986 1
2383 2107 1
2383 2556 1
2384 98 1
2384 207 1
2384 297 1
2384 1897 1
2385 42 1
2385 267 1
2385 440 1
2385 2316 1
2385 2794 1
2385 2838 1
2386 2 1
2386 6 1
2386 93 1
2386 331 1
2386 2452 1
2387 180 1
2387 394 1
2387 595 1
2387 803 1
2388 113 1
2388 630 1
2388 890 1
2388 2301 1
2388 2555 1
2389 105 1
2389 742 1
2389 2018 1
2389 2279 1
2390 226 1
2390 696 1
2390 943 1
2390 1393 1
2391 4 1
2391 16 1
2391 47 1
2391 93 1
2392 917 1
2392 931 1
2392 1266 1
2392 1732 1
2393 7 1
2393 252 1
2393 955 1
2393 1109 1
2394 108 1
2394 276 1
2394 1253 1
2394 1886 1
2395 9 1
2395 356 1
2395 1607 1
2395 1860 1
2395 2700 1
2395 2976 1
2396 9 1
2396 378 1
2396 573 1
2396 629 1
2396 2851 1
2397 273 1
2397 460 1
2397 485 1
2397 2308 1
2397 2660 1
2397 2834 1
2397 2995 1
2398 414 1
2398 655 1
2398 922 1
2398 1162 1
2398 2442 1
2399 18 1
2399 101 1
2399 331 1
2399 1534 1
2400 11 1
2400 87 1
2400 206 1
2400 423 1
2400 2849 1
2401 1 1
2401 1278 1
2401 1382 1
2401 1917 1
2401 2739 1
2402 2 1
2402 193 1
2402 955 1
2402 1925 1
2402 2750 1
2402 2912 1
2403 1281 1
2403 1437 1
2403 1529 1
2403 1535 1
2403 2605 1
2403 2624 1
2404 33 1
2404 832 1
2404 1049 1
2404 1724 1
2405 345 1
2405 675 1
2405 1017 1
2405 2081 1
2406 162 1
2406 757 1
2406 995 1
2406 1932 1
2407 169 1
2407 322 1
2407 520 1
2407 534 1
2408 98 1
2408 448 1
2408 1234 1
2408 2362 1
2408 2466 1
2409 251 1
2409 438 1
2409 1469 1
2409 1536 1
2410 126 1
2410 369 1
2410 746 1
2410 1080 1
2410 2499 1
2411 412 1
2411 430 1
2411 669 1
2411 1156 1
2412 122 1
2412 521 1
2412 722 1
2412 1184 1
2412 2988 1
2413 386 1
2413 425 1
2413 516 1
2413 664 1
2413 2796 1
2413 2872 1
2414 310 1
2414 712 1
2414 2077 1
2414 2195 1
2415 66 1
2415 254 1
2415 308 1
2415 557 1
2416 9 1
2416 1299 1
2416 1818 1
2416 2143 1
2416 2484 1
2417 1 1
2417 290 1
2417 665 1
2417 1778 1
2417 2596 1
2418 36 1
2418 39 1
2418 922 1
2418 1920 1
2418 2586 1
2419 348 1
2419 917 1
2419 1793 1
2419 2136 1
2419 2780 1
2420 66 1
2420 177 1
2420 410 1
2420 737 1
2420 2845 1
2421 161 1
2421 322 1
2421 685 1
2421 2345 1
2421 2627 1
2422 273 1
2422 650 1
2422 1282 1
2422 1285 1
2423 1 1
2423 12 1
2423 475 1
2423 751 1
2424 20 1
2424 90 1
2424 431 1
2424 489 1
2424 2553 1
2425 307 1
2425 588 1
2425 649 1
2425 1158 1
2425 2883 1
2426 1170 1
2426 1367 1
2426 1590 1
2426 1654 1
2427 250 1
2427 401 1
2427 1359 1
2427 1446 1
2428 62 1
2428 857 1
2428 1284 1
2428 1338 1
2428 2773 1
2429 141 1
2429 477 1
2429 1269 1
2429 1545 1
2430 10 1
2430 186 1
2430 498 1
2430 1028 1
2431 1 1
2431 2 1
2431 84 1
2431 95 1
2432 456 1
2432 733 1
2432 1015 1
2432 1510 1
2433 52 1
2433 131 1
2433 137 1
2433 1154 1
2433 2696 1
2434 2 1
2434 677 1
2434 1407 1
2434 1469 1
2435 364 1
2435 637 1
2435 1191 1
2435 1603 1
2436 25 1
2436 41 1
2436 262 1
2436 2257 1
2437 11 1
2437 80 1
2437 682 1
2437 948 1
2438 69 1
2438 625 1
2438 726 1
2438 1238 1
2439 148 1
2439 211 1
2439 497 1
2439 2069 1
2440 9 1
2440 194 1
2440 851 1
2440 960 1
2441 75 1
2441 404 1
2441 700 1
2441 2122 1
2441 2808 1
2441 2954 1
2442 52 1
2442 58 1
2442 89 1
2442 2398 1
2442 2630 1
2442 3000 1
2443 10 1
2443 226 1
2443 1902 1
2443 2075 1
2444 10 1
2444 192 1
2444 635 1
2444 2321 1
2444 2501 1
2444 2600 1
2445 17 1
2445 198 1
2445 417 1
2445 1526 1
2446 138 1
2446 371 1
2446 464 1
2446 1378 1
2447 18 1
2447 67 1
2447 69 1
2447 372 1
2447 2465 1
2448 60 1
2448 795 1
2448 955 1
2448 1047 1
2449 883 1
2449 1189 1
2449 2011 1
2449 2197 1
2450 29 1
2450 291 1
2450 562 1
2450 2020 1
2450 2637 1
2451 386 1
2451 1204 1
2451 1320 1
2451 2271 1
2451 2656 1
2452 6 1
2452 93 1
2452 1045 1
2452 2386 1
2452 2814 1
2453 49 1
2453 362 1
2453 1065 1
2453 1398 1
2453 2671 1
2454 20 1
2454 85 1
2454 1659 1
2454 1689 1
2455 417 1
2455 1151 1
2455 1320 1
2455 2348 1
2456 257 1
2456 314 1
2456 1572 1
2456 1880 1
2457 432 1
2457 438 1
2457 722 1
2457 857 1
2458 33 1
2458 742 1
2458 1714 1
2458 2110 1
2459 125 1
2459 275 1
2459 1189 1
2459 1230 1
2460 37 1
2460 644 1
2460 830 1
2460 975 1
2460 2977 1
2461 13 1
2461 89 1
2461 1404 1
2461 2343 1
2462 27 1
2462 699 1
2462 2065 1
2462 2278 1
2463 486 1
2463 756 1
2463 909 1
2463 1176 1
2464 9 1
2464 11 1
2464 821 1
2464 997 1
2464 2544 1
2465 1756 1
2465 2219 1
2465 2310 1
2465 2447 1
2466 3 1
2466 98 1
2466 1075 1
2466 2408 1
2466 2468 1
2467 74 1
2467 282 1
2467 1802 1
2467 2060 1
2468 196 1
2468 786 1
2468 1075 1
2468 2466 1
2469 36 1
2469 508 1
2469 1267 1
2469 1996 1
2470 12 1
2470 103 1
2470 1626 1
2470 1989 1
2470 2944 1
2471 27 1
2471 55 1
2471 224 1
2471 1184 1
2472 396 1
2472 431 1
2472 623 1
2472 649 1
2473 68 1
2473 188 1
2473 1669 1
2473 1701 1
2474 93 1
2474 926 1
2474 1233 1
2474 1965 1
2474 2981 1
2475 1 1
2475 37 1
2475 243 1
2475 453 1
2476 149 1
2476 252 1
2476 339 1
2476 841 1
2476 2880 1
2477 27 1
2477 292 1
2477 2049 1
2477 2377 1
2477 2585 1
2478 33 1
2478 207 1
2478 1714 1
2478 1904 1
2479 262 1
2479 840 1
2479 1130 1
2479 2336 1
2480 1 1
2480 1715 1
2480 1863 1
2480 1997 1
2481 9 1
2481 252 1
2481 445 1
2481 2318 1
2482 289 1
2482 363 1
2482 1181 1
2482 2125 1
2483 25 1
2483 552 1
2483 1202 1
2483 2158 1
2483 2549 1
2484 9 1
2484 42 1
2484 2260 1
2484 2416 1
2485 6 1
2485 49 1
2485 1119 1
2485 2152 1
2485 2712 1
2486 2 1
2486 3 1
2486 705 1
2486 914 1
2487 260 1
2487 527 1
2487 794 1
2487 1452 1
2488 5 1
2488 130 1
2488 823 1
2488 1402 1
2489 41 1
2489 68 1
2489 163 1
2489 538 1
2489 2818 1
2490 139 1
2490 141 1
2490 2250 1
2490 2295 1
2491 83 1
2491 150 1
2491 399 1
2491 1074 1
2492 75 1
2492 660 1
2492 938 1
2492 1281 1
2493 65 1
2493 306 1
2493 833 1
2493 1418 1
2494 25 1
2494 254 1
2494 1024 1
2494 2149 1
2495 17 1
2495 114 1
2495 659 1
2495 778 1
2495 2589 1
2496 154 1
2496 257 1
2496 1144 1
2496 2283 1
2497 78 1
2497 79 1
2497 529 1
2497 1352 1
2498 18 1
2498 1753 1
2498 1778 1
2498 1807 1
2499 353 1
2499 1080 1
2499 1968 1
2499 2410 1
2500 13 1
2500 52 1
2500 1148 1
2500 1721 1
2501 33 1
2501 192 1
2501 1318 1
2501 2444 1
2502 806 1
2502 888 1
2502 924 1
2502 1562 1
2503 2 1
2503 77 1
2503 297 1
2503 2370 1
2503 2775 1
2504 27 1
2504 28 1
2504 1467 1
2504 2087 1
2505 3 1
2505 76 1
2505 865 1
2505 1780 1
2506 41 1
2506 842 1
2506 925 1
2506 1511 1
2507 74 1
2507 1781 1
2507 1787 1
2507 2296 1
2508 97 1
2508 137 1
2508 534 1
2508 1041 1
2508 2893 1
2509 50 1
2509 125 1
2509 612 1
2509 1613 1
2510 44 1
2510 331 1
2510 431 1
2510 1340 1
2511 197 1
2511 451 1
2511 540 1
2511 1717 1
2511 2928 1
2512 262 1
2512 841 1
2512 1076 1
2512 1213 1
2513 12 1
2513 21 1
2513 234 1
2513 396 1
2513 2613 1
2513 2638 1
2513 2836 1
2514 10 1
2514 227 1
2514 515 1
2514 1364 1
2514 2533 1
2514 2657 1
2515 314 1
2515 422 1
2515 817 1
2515 1106 1
2516 558 1
2516 565 1
2516 1267 1
2516 1665 1
2517 25 1
2517 57 1
2517 156 1
2517 1141 1
2518 73 1
2518 95 1
2518 314 1
2518 863 1
2519 521 1
2519 875 1
2519 1418 1
2519 1771 1
2520 2 1
2520 47 1
2520 828 1
2520 840 1
2521 17 1
2521 27 1
2521 458 1
2521 591 1
2522 221 1
2522 235 1
2522 292 1
2522 793 1
2522 2561 1
2523 15 1
2523 25 1
2523 976 1
2523 1051 1
2524 17 1
2524 298 1
2524 345 1
2524 1198 1
2524 2614 1
2525 176 1
2525 364 1
2525 774 1
2525 858 1
2526 37 1
2526 102 1
2526 125 1
2526 2011 1
2527 3 1
2527 1210 1
2527 1348 1
2527 1576 1
2528 60 1
2528 454 1
2528 608 1
2528 1001 1
2529 2 1
2529 468 1
2529 1425 1
2529 2164 1
2530 50 1
2530 286 1
2530 347 1
2530 2161 1
2530 2860 1
2531 297 1
2531 1444 1
2531 2248 1
2531 2370 1
2531 2574 1
2531 2775 1
2532 9 1
2532 142 1
2532 873 1
2532 1967 1
2533 227 1
2533 511 1
2533 1454 1
2533 2514 1
2534 1 1
2534 1505 1
2534 1681 1
2534 1810 1
2535 13 1
2535 102 1
2535 139 1
2535 2292 1
2535 2649 1
2535 2926 1
2536 130 1
2536 1479 1
2536 2171 1
2536 2306 1
2537 45 1
2537 110 1
2537 245 1
2537 1258 1
2538 91 1
2538 321 1
2538 402 1
2538 812 1
2538 2974 1
2539 27 1
2539 75 1
2539 127 1
2539 1380 1
2540 9 1
2540 57 1
2540 467 1
2540 1490 1
2541 91 1
2541 187 1
2541 267 1
2541 2044 1
2541 2770 1
2542 505 1
2542 993 1
2542 1599 1
2542 2161 1
2543 11 1
2543 226 1
2543 335 1
2543 869 1
2544 9 1
2544 171 1
2544 842 1
2544 2464 1
2545 278 1
2545 954 1
2545 1368 1
2545 1549 1
2546 59 1
2546 233 1
2546 2086 1
2546 2241 1
2547 106 1
2547 636 1
2547 1594 1
2547 1721 1
2548 74 1
2548 459 1
2548 737 1
2548 769 1
2549 34 1
2549 521 1
2549 834 1
2549 2483 1
2549 2646 1
2550 82 1
2550 106 1
2550 425 1
2550 1466 1
2551 271 1
2551 406 1
2551 860 1
2551 967 1
2552 37 1
2552 467 1
2552 1357 1
2552 2178 1
2553 431 1
2553 733 1
2553 1108 1
2553 2424 1
2554 27 1
2554 985 1
2554 1098 1
2554 2013 1
2555 133 1
2555 890 1
2555 1225 1
2555 2388 1
2556 130 1
2556 1755 1
2556 1923 1
2556 2383 1
2557 3 1
2557 61 1
2557 418 1
2557 953 1
2558 18 1
2558 660 1
2558 1140 1
2558 1602 1
2559 25 1
2559 258 1
2559 457 1
2559 636 1
2560 18 1
2560 113 1
2560 865 1
2560 1261 1
2561 34 1
2561 540 1
2561 980 1
2561 2522 1
2561 2968 1
2562 11 1
2562 515 1
2562 765 1
2562 2338 1
2563 2 1
2563 145 1
2563 428 1
2563 775 1
2564 5 1
2564 750 1
2564 1146 1
2564 2077 1
2564 2702 1
2565 137 1
2565 785 1
2565 1228 1
2565 1478 1
2566 3 1
2566 25 1
2566 483 1
2566 1433 1
2566 2756 1
2567 13 1
2567 281 1
2567 655 1
2567 1018 1
2568 81 1
2568 522 1
2568 1548 1
2568 1662 1
2569 105 1
2569 456 1
2569 1627 1
2569 2259 1
2570 9 1
2570 281 1
2570 445 1
2570 891 1
2571 186 1
2571 337 1
2571 1142 1
2571 2074 1
2572 2 1
2572 73 1
2572 314 1
2572 1083 1
2572 2599 1
2573 51 1
2573 1779 1
2573 2062 1
2573 2185 1
2573 2641 1
2574 1 1
2574 18 1
2574 1444 1
2574 2531 1
2574 2632 1
2575 410 1
2575 690 1
2575 773 1
2575 1508 1
2576 17 1
2576 38 1
2576 745 1
2576 2358 1
2577 57 1
2577 70 1
2577 650 1
2577 1569 1
2578 108 1
2578 138 1
2578 459 1
2578 1443 1
2578 2980 1
2579 107 1
2579 197 1
2579 843 1
2579 2243 1
2580 17 1
2580 25 1
2580 802 1
2580 1259 1
2580 2816 1
2581 943 1
2581 959 1
2581 1421 1
2581 2372 1
2582 107 1
2582 129 1
2582 138 1
2582 737 1
2583 17 1
2583 299 1
2583 420 1
2583 784 1
2584 245 1
2584 262 1
2584 1203 1
2584 1427 1
2585 25 1
2585 982 1
2585 2049 1
2585 2477 1
2586 269 1
2586 1193 1
2586 1911 1
2586 2418 1
2587 91 1
2587 417 1
2587 945 1
2587 1084 1
2588 29 1
2588 85 1
2588 895 1
2588 922 1
2588 2647 1
2588 2683 1
2588 2704 1
2588 2931 1
2588 2947 1
2589 13 1
2589 395 1
2589 2314 1
2589 2495 1
2590 13 1
2590 130 1
2590 953 1
2590 1570 1
2591 23 1
2591 697 1
2591 699 1
2591 1868 1
2592 22 1
2592 109 1
2592 1175 1
2592 2006 1
2592 2986 1
2593 12 1
2593 1441 1
2593 1667 1
2593 1820 1
2593 2631 1
2594 41 1
2594 742 1
2594 1308 1
2594 1828 1
2594 2690 1
2594 2788 1
2595 118 1
2595 211 1
2595 1207 1
2595 2188 1
2595 2867 1
2595 2959 1
2596 2 1
2596 225 1
2596 1644 1
2596 2417 1
2596 2773 1
2597 734 1
2597 860 1
2597 1964 1
2597 2023 1
2598 11 1
2598 92 1
2598 1977 1
2598 2283 1
2598 2739 1
2599 133 1
2599 138 1
2599 1609 1
2599 2572 1
2600 319 1
2600 1867 1
2600 2133 1
2600 2444 1
2601 34 1
2601 52 1
2601 594 1
2601 740 1
2602 155 1
2602 204 1
2602 485 1
2602 1038 1
2603 9 1
2603 27 1
2603 37 1
2603 2178 1
2603 2605 1
2603 2705 1
2603 2786 1
2603 2791 1
2604 203 1
2604 1566 1
2604 1828 1
2604 2004 1
2605 297 1
2605 1535 1
2605 2403 1
2605 2603 1
2606 857 1
2606 1034 1
2606 1223 1
2606 1232 1
2607 29 1
2607 343 1
2607 516 1
2607 553 1
2608 14 1
2608 123 1
2608 478 1
2608 1806 1
2609 289 1
2609 1031 1
2609 2034 1
2609 2352 1
2609 2817 1
2610 14 1
2610 130 1
2610 585 1
2610 1050 1
2611 18 1
2611 250 1
2611 1297 1
2611 1534 1
2612 193 1
2612 536 1
2612 804 1
2612 1431 1
2612 2828 1
2613 160 1
2613 1900 1
2613 2183 1
2613 2513 1
2614 341 1
2614 413 1
2614 928 1
2614 2524 1
2614 2900 1
2614 2950 1
2615 11 1
2615 108 1
2615 889 1
2615 891 1
2616 105 1
2616 176 1
2616 520 1
2616 1249 1
2617 1 1
2617 79 1
2617 1422 1
2617 1866 1
2618 11 1
2618 17 1
2618 853 1
2618 1380 1
2619 396 1
2619 415 1
2619 1154 1
2619 1339 1
2620 27 1
2620 68 1
2620 153 1
2620 332 1
2620 2691 1
2620 2935 1
2621 257 1
2621 1178 1
2621 2027 1
2621 2180 1
2622 9 1
2622 215 1
2622 627 1
2622 870 1
2623 1 1
2623 17 1
2623 1010 1
2623 1043 1
2624 98 1
2624 1529 1
2624 1535 1
2624 2403 1
2625 28 1
2625 147 1
2625 780 1
2625 854 1
2625 2738 1
2626 164 1
2626 908 1
2626 1250 1
2626 1761 1
2627 11 1
2627 18 1
2627 1200 1
2627 2421 1
2628 41 1
2628 846 1
2628 2035 1
2628 2290 1
2629 18 1
2629 84 1
2629 226 1
2629 2092 1
2629 2901 1
2630 58 1
2630 1429 1
2630 1565 1
2630 2442 1
2631 44 1
2631 873 1
2631 1722 1
2631 2593 1
2631 2915 1
2632 1 1
2632 18 1
2632 353 1
2632 2574 1
2633 15 1
2633 540 1
2633 997 1
2633 1150 1
2633 2909 1
2634 51 1
2634 561 1
2634 1531 1
2634 2185 1
2635 18 1
2635 108 1
2635 664 1
2635 936 1
2636 139 1
2636 447 1
2636 1742 1
2636 2236 1
2637 10 1
2637 569 1
2637 809 1
2637 2450 1
2638 2 1
2638 29 1
2638 874 1
2638 2513 1
2639 92 1
2639 210 1
2639 2020 1
2639 2177 1
2640 65 1
2640 358 1
2640 1049 1
2640 1902 1
2641 1067 1
2641 1297 1
2641 2366 1
2641 2573 1
2641 2727 1
2641 2731 1
2641 2943 1
2642 10 1
2642 28 1
2642 80 1
2642 1134 1
2642 2970 1
2643 5 1
2643 506 1
2643 1566 1
2643 1809 1
2643 2653 1
2644 249 1
2644 1050 1
2644 1257 1
2644 2275 1
2645 90 1
2645 106 1
2645 1177 1
2645 2139 1
2646 2 1
2646 521 1
2646 2046 1
2646 2549 1
2647 29 1
2647 68 1
2647 171 1
2647 2588 1
2647 2704 1
2648 44 1
2648 60 1
2648 71 1
2648 1504 1
2649 532 1
2649 533 1
2649 1679 1
2649 2535 1
2650 2 1
2650 42 1
2650 386 1
2650 2289 1
2650 2987 1
2651 189 1
2651 261 1
2651 343 1
2651 588 1
2652 28 1
2652 118 1
2652 297 1
2652 1465 1
2653 314 1
2653 441 1
2653 506 1
2653 2643 1
2654 89 1
2654 184 1
2654 1064 1
2654 1358 1
2655 372 1
2655 386 1
2655 1637 1
2655 2086 1
2656 20 1
2656 844 1
2656 867 1
2656 2451 1
2657 11 1
2657 57 1
2657 515 1
2657 2514 1
2658 137 1
2658 442 1
2658 594 1
2658 941 1
2658 2661 1
2659 1 1
2659 1347 1
2659 1376 1
2659 1380 1
2659 2929 1
2660 771 1
2660 2260 1
2660 2308 1
2660 2397 1
2660 2742 1
2661 137 1
2661 442 1
2661 941 1
2661 2658 1
2661 2837 1
2662 17 1
2662 116 1
2662 178 1
2662 1126 1
2663 2 1
2663 18 1
2663 36 1
2663 788 1
2664 269 1
2664 1100 1
2664 1302 1
2664 2018 1
2665 569 1
2665 725 1
2665 909 1
2665 2041 1
2665 2943 1
2666 257 1
2666 322 1
2666 1112 1
2666 1977 1
2667 516 1
2667 819 1
2667 1132 1
2667 1639 1
2668 11 1
2668 39 1
2668 224 1
2668 2002 1
2669 370 1
2669 995 1
2669 1485 1
2669 1731 1
2670 47 1
2670 833 1
2670 1017 1
2670 2217 1
2671 362 1
2671 434 1
2671 2295 1
2671 2453 1
2672 175 1
2672 194 1
2672 1122 1
2672 1357 1
2673 12 1
2673 465 1
2673 877 1
2673 1428 1
2674 298 1
2674 437 1
2674 787 1
2674 1022 1
2675 16 1
2675 105 1
2675 1731 1
2675 1992 1
2675 2736 1
2676 50 1
2676 52 1
2676 1449 1
2676 2029 1
2677 138 1
2677 283 1
2677 386 1
2677 516 1
2678 34 1
2678 251 1
2678 839 1
2678 1460 1
2679 41 1
2679 963 1
2679 1246 1
2679 1427 1
2680 39 1
2680 132 1
2680 225 1
2680 315 1
2681 117 1
2681 171 1
2681 682 1
2681 1777 1
2682 29 1
2682 462 1
2682 1380 1
2682 1965 1
2683 933 1
2683 998 1
2683 2190 1
2683 2588 1
2683 2704 1
2683 2877 1
2684 44 1
2684 202 1
2684 1299 1
2684 1848 1
2685 4 1
2685 6 1
2685 11 1
2685 36 1
2685 2708 1
2685 2940 1
2686 113 1
2686 890 1
2686 1526 1
2686 2066 1
2687 26 1
2687 403 1
2687 814 1
2687 2122 1
2688 12 1
2688 29 1
2688 595 1
2688 1135 1
2689 47 1
2689 52 1
2689 778 1
2689 1636 1
2690 1717 1
2690 1725 1
2690 1828 1
2690 2594 1
2691 2 1
2691 171 1
2691 2309 1
2691 2620 1
2692 75 1
2692 130 1
2692 137 1
2692 465 1
2693 76 1
2693 113 1
2693 171 1
2693 641 1
2694 2 1
2694 52 1
2694 202 1
2694 894 1
2695 274 1
2695 311 1
2695 430 1
2695 1857 1
2696 137 1
2696 1613 1
2696 2214 1
2696 2433 1
2697 336 1
2697 364 1
2697 430 1
2697 1899 1
2698 226 1
2698 364 1
2698 1538 1
2698 2073 1
2699 1 1
2699 11 1
2699 256 1
2699 2151 1
2700 356 1
2700 471 1
2700 1310 1
2700 2395 1
2701 261 1
2701 331 1
2701 1066 1
2701 1069 1
2701 2948 1
2702 145 1
2702 1146 1
2702 1388 1
2702 2564 1
2703 35 1
2703 92 1
2703 315 1
2703 1329 1
2704 25 1
2704 2588 1
2704 2647 1
2704 2683 1
2705 27 1
2705 1043 1
2705 1308 1
2705 2603 1
2706 20 1
2706 252 1
2706 971 1
2706 1865 1
2707 48 1
2707 68 1
2707 94 1
2707 441 1
2708 4 1
2708 36 1
2708 2078 1
2708 2685 1
2709 62 1
2709 187 1
2709 721 1
2709 1940 1
2710 18 1
2710 113 1
2710 591 1
2710 1096 1
2711 232 1
2711 276 1
2711 946 1
2711 1454 1
2712 49 1
2712 1579 1
2712 1705 1
2712 2485 1
2712 2747 1
2712 2918 1
2713 9 1
2713 1081 1
2713 1799 1
2713 2330 1
2714 163 1
2714 1008 1
2714 1098 1
2714 2142 1
2714 2762 1
2715 28 1
2715 114 1
2715 930 1
2715 1523 1
2716 10 1
2716 728 1
2716 1548 1
2716 1662 1
2717 245 1
2717 533 1
2717 635 1
2717 1411 1
2717 2724 1
2718 225 1
2718 925 1
2718 1066 1
2718 2196 1
2719 389 1
2719 1162 1
2719 1290 1
2719 1534 1
2720 71 1
2720 250 1
2720 1119 1
2720 1151 1
2721 234 1
2721 723 1
2721 1114 1
2721 2010 1
2722 58 1
2722 145 1
2722 690 1
2722 1477 1
2722 2935 1
2723 10 1
2723 91 1
2723 113 1
2723 1984 1
2723 2853 1
2724 1003 1
2724 1131 1
2724 1411 1
2724 2717 1
2725 3 1
2725 78 1
2725 862 1
2725 1912 1
2726 171 1
2726 973 1
2726 1291 1
2726 1809 1
2727 321 1
2727 414 1
2727 1067 1
2727 2641 1
2728 2 1
2728 26 1
2728 83 1
2728 1203 1
2729 449 1
2729 1202 1
2729 2193 1
2729 2379 1
2730 21 1
2730 804 1
2730 838 1
2730 1461 1
2731 308 1
2731 764 1
2731 1198 1
2731 2641 1
2732 9 1
2732 14 1
2732 334 1
2732 884 1
2733 128 1
2733 140 1
2733 214 1
2733 2226 1
2734 26 1
2734 611 1
2734 884 1
2734 2361 1
2735 76 1
2735 1161 1
2735 1683 1
2735 1749 1
2736 2 1
2736 36 1
2736 2050 1
2736 2675 1
2737 25 1
2737 42 1
2737 753 1
2737 1142 1
2737 2815 1
2738 1997 1
2738 2230 1
2738 2234 1
2738 2625 1
2739 92 1
2739 1350 1
2739 2401 1
2739 2598 1
2739 2867 1
2740 61 1
2740 97 1
2740 1278 1
2740 2204 1
2741 41 1
2741 411 1
2741 942 1
2741 2282 1
2742 67 1
2742 323 1
2742 994 1
2742 2660 1
2743 27 1
2743 86 1
2743 1153 1
2743 2111 1
2744 2 1
2744 21 1
2744 83 1
2744 85 1
2744 2912 1
2745 1 1
2745 189 1
2745 499 1
2745 705 1
2746 12 1
2746 152 1
2746 475 1
2746 1313 1
2747 785 1
2747 978 1
2747 1705 1
2747 2712 1
2748 206 1
2748 233 1
2748 1207 1
2748 1721 1
2749 105 1
2749 596 1
2749 1992 1
2749 2322 1
2750 2 1
2750 193 1
2750 955 1
2750 2402 1
2751 62 1
2751 115 1
2751 524 1
2751 2327 1
2752 186 1
2752 526 1
2752 1028 1
2752 1559 1
2753 17 1
2753 277 1
2753 1304 1
2753 2015 1
2754 428 1
2754 615 1
2754 1488 1
2754 2178 1
2755 163 1
2755 575 1
2755 1251 1
2755 1882 1
2756 483 1
2756 581 1
2756 1447 1
2756 2566 1
2757 3 1
2757 11 1
2757 597 1
2757 2033 1
2758 9 1
2758 282 1
2758 843 1
2758 867 1
2759 90 1
2759 970 1
2759 1138 1
2759 1260 1
2760 249 1
2760 1317 1
2760 2111 1
2760 2167 1
2761 379 1
2761 410 1
2761 1441 1
2761 1660 1
2761 2843 1
2761 2902 1
2762 18 1
2762 1098 1
2762 2028 1
2762 2714 1
2763 25 1
2763 361 1
2763 930 1
2763 1626 1
2764 18 1
2764 1479 1
2764 1966 1
2764 2165 1
2764 2892 1
2765 322 1
2765 520 1
2765 534 1
2765 1623 1
2766 6 1
2766 10 1
2766 507 1
2766 2165 1
2767 369 1
2767 476 1
2767 680 1
2767 1462 1
2768 40 1
2768 108 1
2768 1805 1
2768 1819 1
2769 34 1
2769 986 1
2769 993 1
2769 1572 1
2770 101 1
2770 147 1
2770 267 1
2770 2541 1
2771 136 1
2771 332 1
2771 645 1
2771 1151 1
2771 2914 1
2772 20 1
2772 292 1
2772 1043 1
2772 1921 1
2772 2938 1
2773 135 1
2773 544 1
2773 2428 1
2773 2596 1
2774 10 1
2774 106 1
2774 125 1
2774 658 1
2775 1586 1
2775 2370 1
2775 2503 1
2775 2531 1
2776 98 1
2776 476 1
2776 1150 1
2776 1735 1
2777 123 1
2777 374 1
2777 785 1
2777 2100 1
2778 9 1
2778 891 1
2778 1412 1
2778 1666 1
2778 2811 1
2779 50 1
2779 291 1
2779 2086 1
2779 2139 1
2780 381 1
2780 1086 1
2780 1793 1
2780 2419 1
2781 1 1
2781 15 1
2781 54 1
2781 1016 1
2782 3 1
2782 130 1
2782 529 1
2782 1480 1
2783 106 1
2783 225 1
2783 1541 1
2783 1911 1
2784 386 1
2784 523 1
2784 819 1
2784 2125 1
2784 2812 1
2785 14 1
2785 68 1
2785 1069 1
2785 1878 1
2786 9 1
2786 1596 1
2786 1753 1
2786 2603 1
2787 130 1
2787 897 1
2787 1046 1
2787 1859 1
2788 443 1
2788 723 1
2788 1308 1
2788 2594 1
2789 1 1
2789 21 1
2789 224 1
2789 1309 1
2790 402 1
2790 419 1
2790 972 1
2790 998 1
2790 2957 1
2791 22 1
2791 281 1
2791 1018 1
2791 2603 1
2792 25 1
2792 994 1
2792 1130 1
2792 1563 1
2793 176 1
2793 243 1
2793 308 1
2793 404 1
2794 1260 1
2794 1944 1
2794 2316 1
2794 2385 1
2795 129 1
2795 151 1
2795 245 1
2795 1480 1
2796 242 1
2796 1245 1
2796 1985 1
2796 2413 1
2797 45 1
2797 507 1
2797 1123 1
2797 1171 1
2798 738 1
2798 794 1
2798 1385 1
2798 1969 1
2799 14 1
2799 18 1
2799 90 1
2799 153 1
2800 34 1
2800 362 1
2800 602 1
2800 1963 1
2801 612 1
2801 1267 1
2801 2101 1
2801 2230 1
2802 396 1
2802 721 1
2802 902 1
2802 1774 1
2803 397 1
2803 1179 1
2803 1900 1
2803 1962 1
2804 617 1
2804 825 1
2804 877 1
2804 1246 1
2805 17 1
2805 129 1
2805 145 1
2805 340 1
2806 254 1
2806 842 1
2806 1179 1
2806 1733 1
2807 147 1
2807 298 1
2807 1417 1
2807 1629 1
2807 2825 1
2808 658 1
2808 806 1
2808 817 1
2808 2441 1
2809 276 1
2809 517 1
2809 1274 1
2809 1523 1
2810 34 1
2810 261 1
2810 324 1
2810 918 1
2811 335 1
2811 947 1
2811 1253 1
2811 2778 1
2812 523 1
2812 612 1
2812 1113 1
2812 2784 1
2812 2847 1
2813 20 1
2813 54 1
2813 77 1
2813 529 1
2814 286 1
2814 763 1
2814 1626 1
2814 2452 1
2815 3 1
2815 25 1
2815 27 1
2815 2737 1
2816 429 1
2816 580 1
2816 2094 1
2816 2580 1
2817 836 1
2817 1491 1
2817 2169 1
2817 2609 1
2818 9 1
2818 1401 1
2818 1908 1
2818 2489 1
2819 83 1
2819 262 1
2819 1779 1
2819 1902 1
2820 268 1
2820 674 1
2820 1124 1
2820 1799 1
2820 2849 1
2821 133 1
2821 549 1
2821 1120 1
2821 1413 1
2821 2962 1
2822 17 1
2822 73 1
2822 794 1
2822 1283 1
2823 10 1
2823 268 1
2823 358 1
2823 539 1
2824 42 1
2824 65 1
2824 517 1
2824 896 1
2825 2 1
2825 130 1
2825 298 1
2825 2807 1
2826 164 1
2826 276 1
2826 279 1
2826 611 1
2827 4 1
2827 29 1
2827 1016 1
2827 1975 1
2828 11 1
2828 1017 1
2828 2081 1
2828 2612 1
2829 307 1
2829 346 1
2829 1827 1
2829 2007 1
2829 2933 1
2830 25 1
2830 131 1
2830 1325 1
2830 1977 1
2831 253 1
2831 330 1
2831 370 1
2831 1675 1
2832 10 1
2832 12 1
2832 633 1
2832 689 1
2833 25 1
2833 43 1
2833 478 1
2833 1572 1
2833 2863 1
2834 3 1
2834 451 1
2834 481 1
2834 2397 1
2835 35 1
2835 750 1
2835 827 1
2835 905 1
2835 2934 1
2836 346 1
2836 918 1
2836 2201 1
2836 2513 1
2837 356 1
2837 941 1
2837 1010 1
2837 2661 1
2838 440 1
2838 463 1
2838 2091 1
2838 2385 1
2839 1 1
2839 167 1
2839 611 1
2839 789 1
2840 94 1
2840 521 1
2840 554 1
2840 1459 1
2841 2 1
2841 252 1
2841 1529 1
2841 2178 1
2842 68 1
2842 94 1
2842 547 1
2842 2028 1
2843 212 1
2843 226 1
2843 1441 1
2843 2761 1
2844 52 1
2844 121 1
2844 200 1
2844 613 1
2845 66 1
2845 95 1
2845 109 1
2845 2420 1
2846 102 1
2846 1201 1
2846 1326 1
2846 2147 1
2847 612 1
2847 1632 1
2847 2230 1
2847 2812 1
2848 9 1
2848 203 1
2848 1251 1
2848 1997 1
2849 177 1
2849 2380 1
2849 2400 1
2849 2820 1
2850 3 1
2850 225 1
2850 1345 1
2850 1787 1
2851 156 1
2851 629 1
2851 878 1
2851 2396 1
2852 18 1
2852 818 1
2852 1260 1
2852 1437 1
2853 162 1
2853 1255 1
2853 2102 1
2853 2723 1
2854 513 1
2854 711 1
2854 1412 1
2854 1739 1
2855 238 1
2855 858 1
2855 1308 1
2855 2294 1
2856 5 1
2856 115 1
2856 1374 1
2856 2361 1
2857 9 1
2857 1010 1
2857 2145 1
2857 2298 1
2858 158 1
2858 342 1
2858 1301 1
2858 1772 1
2859 14 1
2859 161 1
2859 780 1
2859 899 1
2860 99 1
2860 1377 1
2860 2161 1
2860 2530 1
2861 11 1
2861 540 1
2861 1164 1
2861 1919 1
2862 475 1
2862 1043 1
2862 1199 1
2862 1725 1
2863 25 1
2863 233 1
2863 645 1
2863 2833 1
2864 5 1
2864 13 1
2864 110 1
2864 1708 1
2865 3 1
2865 28 1
2865 265 1
2865 335 1
2866 17 1
2866 54 1
2866 180 1
2866 1266 1
2866 2968 1
2867 68 1
2867 92 1
2867 2595 1
2867 2739 1
2867 2893 1
2868 11 1
2868 50 1
2868 194 1
2868 244 1
2869 33 1
2869 227 1
2869 2085 1
2869 2100 1
2870 73 1
2870 117 1
2870 157 1
2870 1569 1
2871 5 1
2871 211 1
2871 1145 1
2871 1314 1
2872 220 1
2872 425 1
2872 516 1
2872 2413 1
2873 9 1
2873 55 1
2873 501 1
2873 531 1
2874 51 1
2874 156 1
2874 544 1
2874 1766 1
2875 117 1
2875 1594 1
2875 1616 1
2875 2106 1
2876 91 1
2876 724 1
2876 1089 1
2876 2325 1
2877 135 1
2877 933 1
2877 1751 1
2877 2683 1
2878 192 1
2878 294 1
2878 1986 1
2878 2204 1
2879 53 1
2879 67 1
2879 161 1
2879 1551 1
2880 7 1
2880 125 1
2880 339 1
2880 2476 1
2881 5 1
2881 153 1
2881 1275 1
2881 1476 1
2881 2903 1
2882 25 1
2882 54 1
2882 187 1
2882 1026 1
2883 324 1
2883 582 1
2883 588 1
2883 2425 1
2884 18 1
2884 27 1
2884 513 1
2884 1388 1
2885 36 1
2885 137 1
2885 403 1
2885 883 1
2886 3 1
2886 406 1
2886 1220 1
2886 1801 1
2887 107 1
2887 140 1
2887 164 1
2887 200 1
2888 17 1
2888 985 1
2888 1949 1
2888 2013 1
2889 59 1
2889 171 1
2889 230 1
2889 1285 1
2889 2963 1
2890 30 1
2890 31 1
2890 1567 1
2890 1884 1
2891 3 1
2891 304 1
2891 377 1
2891 905 1
2892 527 1
2892 985 1
2892 2333 1
2892 2764 1
2893 171 1
2893 534 1
2893 2508 1
2893 2867 1
2894 25 1
2894 668 1
2894 1301 1
2894 1404 1
2895 131 1
2895 702 1
2895 831 1
2895 985 1
2895 2993 1
2896 235 1
2896 346 1
2896 515 1
2896 2316 1
2897 17 1
2897 133 1
2897 1633 1
2897 2086 1
2898 1 1
2898 106 1
2898 219 1
2898 1898 1
2899 18 1
2899 44 1
2899 1315 1
2899 1906 1
2900 57 1
2900 1749 1
2900 2299 1
2900 2614 1
2901 2 1
2901 18 1
2901 497 1
2901 2629 1
2902 50 1
2902 212 1
2902 1580 1
2902 2761 1
2903 5 1
2903 682 1
2903 987 1
2903 2881 1
2904 569 1
2904 812 1
2904 884 1
2904 2064 1
2905 338 1
2905 532 1
2905 707 1
2905 787 1
2905 2964 1
2906 427 1
2906 937 1
2906 1595 1
2906 1836 1
2907 11 1
2907 58 1
2907 73 1
2907 663 1
2907 2936 1
2908 18 1
2908 468 1
2908 604 1
2908 1349 1
2909 204 1
2909 523 1
2909 911 1
2909 2633 1
2910 8 1
2910 490 1
2910 725 1
2910 886 1
2911 819 1
2911 898 1
2911 1045 1
2911 1143 1
2912 83 1
2912 1057 1
2912 2402 1
2912 2744 1
2913 94 1
2913 809 1
2913 1020 1
2913 2277 1
2914 186 1
2914 969 1
2914 1151 1
2914 2771 1
2915 44 1
2915 873 1
2915 1697 1
2915 2631 1
2916 42 1
2916 107 1
2916 611 1
2916 1236 1
2917 2 1
2917 31 1
2917 254 1
2917 2091 1
2918 48 1
2918 286 1
2918 477 1
2918 2712 1
2919 21 1
2919 28 1
2919 595 1
2919 1298 1
2920 29 1
2920 413 1
2920 1001 1
2920 1073 1
2921 25 1
2921 218 1
2921 310 1
2921 1685 1
2922 10 1
2922 33 1
2922 418 1
2922 1508 1
2923 18 1
2923 382 1
2923 886 1
2923 1309 1
2924 52 1
2924 265 1
2924 925 1
2924 1693 1
2925 416 1
2925 903 1
2925 1327 1
2925 1459 1
2926 13 1
2926 451 1
2926 1677 1
2926 2535 1
2927 84 1
2927 1220 1
2927 1889 1
2927 2161 1
2928 197 1
2928 1395 1
2928 1717 1
2928 2511 1
2929 1033 1
2929 1144 1
2929 1380 1
2929 2659 1
2930 9 1
2930 52 1
2930 829 1
2930 883 1
2931 922 1
2931 1733 1
2931 1760 1
2931 2588 1
2931 2947 1
2932 194 1
2932 254 1
2932 1593 1
2932 2266 1
2932 2961 1
2933 139 1
2933 210 1
2933 684 1
2933 2829 1
2934 97 1
2934 827 1
2934 2005 1
2934 2835 1
2935 225 1
2935 1477 1
2935 2620 1
2935 2722 1
2936 58 1
2936 690 1
2936 940 1
2936 2907 1
2937 9 1
2937 140 1
2937 342 1
2937 563 1
2938 30 1
2938 299 1
2938 1921 1
2938 2772 1
2939 13 1
2939 194 1
2939 774 1
2939 1482 1
2940 26 1
2940 36 1
2940 849 1
2940 2685 1
2941 31 1
2941 97 1
2941 113 1
2941 1534 1
2941 2999 1
2942 261 1
2942 865 1
2942 1147 1
2942 1780 1
2943 725 1
2943 1363 1
2943 2641 1
2943 2665 1
2944 5 1
2944 10 1
2944 12 1
2944 2470 1
2945 13 1
2945 1565 1
2945 2216 1
2945 2326 1
2946 10 1
2946 345 1
2946 600 1
2946 1364 1
2947 4 1
2947 1633 1
2947 2588 1
2947 2931 1
2948 73 1
2948 331 1
2948 2076 1
2948 2701 1
2949 83 1
2949 110 1
2949 298 1
2949 1155 1
2950 17 1
2950 413 1
2950 1244 1
2950 2614 1
2951 118 1
2951 468 1
2951 515 1
2951 2330 1
2952 275 1
2952 427 1
2952 869 1
2952 1836 1
2953 37 1
2953 611 1
2953 1081 1
2953 2330 1
2954 538 1
2954 1295 1
2954 1345 1
2954 2441 1
2955 667 1
2955 1313 1
2955 1848 1
2955 2295 1
2956 137 1
2956 1593 1
2956 1927 1
2956 2136 1
2957 419 1
2957 809 1
2957 2049 1
2957 2790 1
2958 1 1
2958 476 1
2958 629 1
2958 1275 1
2959 410 1
2959 1207 1
2959 1383 1
2959 2595 1
2959 2987 1
2960 329 1
2960 555 1
2960 1052 1
2960 1523 1
2961 21 1
2961 28 1
2961 2266 1
2961 2932 1
2962 1147 1
2962 1413 1
2962 1445 1
2962 2821 1
2963 3 1
2963 202 1
2963 655 1
2963 2889 1
2964 10 1
2964 69 1
2964 707 1
2964 2905 1
2965 12 1
2965 49 1
2965 186 1
2965 921 1
2966 8 1
2966 297 1
2966 391 1
2966 2083 1
2967 10 1
2967 369 1
2967 1719 1
2967 2375 1
2968 281 1
2968 2015 1
2968 2561 1
2968 2866 1
2969 18 1
2969 63 1
2969 914 1
2969 1459 1
2970 11 1
2970 51 1
2970 1237 1
2970 2642 1
2971 3 1
2971 731 1
2971 1155 1
2971 1395 1
2972 9 1
2972 261 1
2972 1052 1
2972 2155 1
2973 50 1
2973 253 1
2973 668 1
2973 2342 1
2974 321 1
2974 402 1
2974 851 1
2974 2538 1
2975 15 1
2975 290 1
2975 729 1
2975 2051 1
2976 68 1
2976 141 1
2976 632 1
2976 2395 1
2977 987 1
2977 1190 1
2977 1289 1
2977 2460 1
2978 112 1
2978 329 1
2978 337 1
2978 837 1
2979 138 1
2979 139 1
2979 436 1
2979 2262 1
2980 108 1
2980 260 1
2980 924 1
2980 2578 1
2981 161 1
2981 310 1
2981 1632 1
2981 2474 1
2982 772 1
2982 1290 1
2982 1519 1
2982 2072 1
2983 25 1
2983 31 1
2983 50 1
2983 2169 1
2984 4 1
2984 212 1
2984 595 1
2984 1708 1
2985 142 1
2985 945 1
2985 1554 1
2985 2263 1
2986 401 1
2986 1177 1
2986 2297 1
2986 2592 1
2987 410 1
2987 759 1
2987 2650 1
2987 2959 1
2988 33 1
2988 602 1
2988 827 1
2988 2412 1
2988 2989 1
2989 314 1
2989 1072 1
2989 2178 1
2989 2988 1
2990 259 1
2990 521 1
2990 1149 1
2990 2173 1
2991 25 1
2991 451 1
2991 808 1
2991 2025 1
2992 1050 1
2992 1630 1
2992 1789 1
2992 2281 1
2993 65 1
2993 114 1
2993 428 1
2993 2895 1
2994 2 1
2994 9 1
2994 964 1
2994 2062 1
2995 125 1
2995 460 1
2995 609 1
2995 2397 1
2996 180 1
2996 202 1
2996 594 1
2996 625 1
2997 50 1
2997 386 1
2997 1449 1
2997 2173 1
2998 307 1
2998 353 1
2998 498 1
2998 954 1
2999 97 1
2999 347 1
2999 812 1
2999 2941 1
3000 58 1
3000 940 1
3000 1325 1
3000 2442 1
