%%MatrixMarket matrix coordinate integer general
1 2 1
1 3 1
1 4 1
1 5 1
1 6 1
1 7 1
1 8 1
1 9 1
1 10 1
1 11 1
1 12 1
1 13 1
1 14 1
1 15 1
1 16 1
1 17 1
1 22 1
1 23 1
1 25 1
1 26 1
1 28 1
1 30 1
1 31 1
1 32 1
1 35 1
1 39 1
1 40 1
1 41 1
1 44 1
1 45 1
1 46 1
1 49 1
1 55 1
1 60 1
1 61 1
1 62 1
1 70 1
1 71 1
1 72 1
1 87 1
1 96 1
1 105 1
1 110 1
1 118 1
1 142 1
1 147 1
1 153 1
1 155 1
1 161 1
1 178 1
1 182 1
1 185 1
1 191 1
1 193 1
1 200 1
1 205 1
1 225 1
1 234 1
1 239 1
1 248 1
1 258 1
1 277 1
1 278 1
1 279 1
1 280 1
1 292 1
1 301 1
1 303 1
1 319 1
1 334 1
1 336 1
1 337 1
1 347 1
1 350 1
1 368 1
1 370 1
1 373 1
1 380 1
1 381 1
1 391 1
1 392 1
1 401 1
1 404 1
1 406 1
1 407 1
1 415 1
1 428 1
1 429 1
1 449 1
1 468 1
1 478 1
1 486 1
1 489 1
1 515 1
1 522 1
1 525 1
1 533 1
1 538 1
1 553 1
1 561 1
1 595 1
1 605 1
1 607 1
1 619 1
1 621 1
1 637 1
1 649 1
1 659 1
1 662 1
1 668 1
1 673 1
1 711 1
1 714 1
1 726 1
1 736 1
1 740 1
1 759 1
1 781 1
1 782 1
1 791 1
1 794 1
1 810 1
1 815 1
1 821 1
1 829 1
1 852 1
1 862 1
1 863 1
1 864 1
1 871 1
1 915 1
1 919 1
1 931 1
1 932 1
1 934 1
1 957 1
1 963 1
1 970 1
1 971 1
1 972 1
1 986 1
1 987 1
1 992 1
1 994 1
1 998 1
1 999 1
1 1010 1
1 1011 1
1 1032 1
1 1043 1
1 1059 1
1 1069 1
1 1072 1
1 1092 1
1 1110 1
1 1117 1
1 1130 1
1 1134 1
1 1151 1
1 1152 1
1 1165 1
1 1185 1
1 1198 1
1 1206 1
1 1207 1
1 1209 1
1 1230 1
1 1243 1
1 1247 1
1 1262 1
1 1288 1
1 1312 1
1 1323 1
1 1328 1
1 1329 1
1 1361 1
1 1366 1
1 1367 1
1 1401 1
1 1407 1
1 1408 1
1 1418 1
1 1460 1
1 1477 1
1 1480 1
1 1494 1
1 1516 1
1 1530 1
1 1547 1
1 1549 1
1 1550 1
1 1551 1
1 1563 1
1 1582 1
1 1599 1
1 1615 1
1 1648 1
1 1683 1
1 1734 1
1 1744 1
1 1747 1
1 1771 1
1 1784 1
1 1791 1
1 1826 1
1 1831 1
1 1875 1
1 1884 1
1 1919 1
1 1922 1
1 1934 1
1 1945 1
1 1954 1
1 1977 1
1 2048 1
1 2070 1
1 2101 1
1 2106 1
1 2111 1
1 2112 1
1 2159 1
1 2166 1
1 2188 1
1 2204 1
1 2231 1
1 2238 1
1 2272 1
1 2277 1
1 2285 1
1 2338 1
1 2359 1
1 2370 1
1 2377 1
1 2386 1
1 2411 1
1 2416 1
1 2445 1
1 2448 1
1 2508 1
1 2525 1
1 2575 1
1 2600 1
1 2724 1
1 2726 1
1 2732 1
1 2735 1
1 2750 1
1 2786 1
1 2790 1
1 2817 1
1 2825 1
1 2832 1
1 2872 1
1 2885 1
1 2902 1
1 2915 1
1 2922 1
1 2923 1
1 2943 1
1 2970 1
1 2977 1
1 2991 1
1 3020 1
1 3056 1
1 3064 1
1 3114 1
1 3116 1
1 3134 1
1 3194 1
1 3299 1
1 3315 1
1 3386 1
1 3387 1
1 3418 1
1 3423 1
1 3449 1
1 3476 1
1 3477 1
1 3490 1
1 3492 1
1 3538 1
1 3600 1
1 3620 1
1 3634 1
1 3709 1
1 3743 1
1 3783 1
1 3789 1
1 3797 1
1 3814 1
1 3820 1
1 3822 1
1 3823 1
1 3830 1
1 3908 1
1 3922 1
1 3941 1
1 3978 1
1 3981 1
1 4102 1
1 4127 1
1 4145 1
1 4153 1
1 4197 1
1 4198 1
1 4235 1
1 4275 1
1 4303 1
1 4324 1
1 4343 1
1 4356 1
1 4369 1
1 4374 1
1 4436 1
1 4444 1
1 4508 1
1 4583 1
1 4610 1
1 4631 1
1 4632 1
1 4697 1
1 4710 1
1 4800 1
1 4906 1
1 4910 1
1 4912 1
1 4916 1
1 4921 1
1 4941 1
1 4975 1
1 4999 1
2 1 1
2 6 1
2 10 1
2 19 1
2 27 1
2 39 1
2 60 1
2 72 1
2 77 1
2 86 1
2 88 1
2 138 1
2 157 1
2 187 1
2 196 1
2 261 1
2 295 1
2 367 1
2 380 1
2 442 1
2 453 1
2 493 1
2 550 1
2 592 1
2 943 1
2 1113 1
2 1137 1
2 1255 1
2 1289 1
2 1304 1
2 1363 1
2 1378 1
2 1418 1
2 1458 1
2 1533 1
2 1548 1
2 1707 1
2 1715 1
2 1826 1
2 2106 1
2 2125 1
2 2225 1
2 2468 1
2 2523 1
2 2539 1
2 2708 1
2 2763 1
2 2782 1
2 2870 1
2 2882 1
2 3229 1
2 3257 1
2 3269 1
2 3562 1
2 3705 1
2 3711 1
2 3997 1
2 4151 1
2 4418 1
2 4433 1
2 4672 1
2 4850 1
2 4925 1
2 4935 1
3 1 1
3 6 1
3 7 1
3 8 1
3 9 1
3 13 1
3 14 1
3 15 1
3 16 1
3 17 1
3 20 1
3 25 1
3 27 1
3 29 1
3 31 1
3 33 1
3 41 1
3 42 1
3 46 1
3 50 1
3 62 1
3 64 1
3 72 1
3 77 1
3 80 1
3 86 1
3 140 1
3 189 1
3 196 1
3 220 1
3 221 1
3 247 1
3 255 1
3 268 1
3 275 1
3 282 1
3 298 1
3 306 1
3 339 1
3 389 1
3 404 1
3 408 1
3 437 1
3 463 1
3 472 1
3 478 1
3 489 1
3 497 1
3 509 1
3 511 1
3 514 1
3 515 1
3 530 1
3 544 1
3 548 1
3 563 1
3 573 1
3 613 1
3 614 1
3 654 1
3 659 1
3 709 1
3 710 1
3 718 1
3 744 1
3 760 1
3 881 1
3 892 1
3 893 1
3 906 1
3 908 1
3 949 1
3 956 1
3 959 1
3 977 1
3 1078 1
3 1097 1
3 1098 1
3 1101 1
3 1106 1
3 1159 1
3 1232 1
3 1264 1
3 1281 1
3 1289 1
3 1329 1
3 1348 1
3 1365 1
3 1394 1
3 1431 1
3 1470 1
3 1472 1
3 1492 1
3 1498 1
3 1557 1
3 1560 1
3 1564 1
3 1590 1
3 1599 1
3 1610 1
3 1704 1
3 1736 1
3 1803 1
3 1882 1
3 1959 1
3 2043 1
3 2074 1
3 2122 1
3 2183 1
3 2280 1
3 2346 1
3 2389 1
3 2398 1
3 2433 1
3 2488 1
3 2506 1
3 2534 1
3 2558 1
3 2588 1
3 2598 1
3 2599 1
3 2629 1
3 2843 1
3 2867 1
3 2895 1
3 2921 1
3 2948 1
3 2955 1
3 2970 1
3 2980 1
3 3004 1
3 3016 1
3 3074 1
3 3088 1
3 3123 1
3 3138 1
3 3159 1
3 3237 1
3 3288 1
3 3384 1
3 3400 1
3 3519 1
3 3567 1
3 3701 1
3 3723 1
3 3920 1
3 3923 1
3 4004 1
3 4083 1
3 4114 1
3 4131 1
3 4211 1
3 4253 1
3 4383 1
3 4442 1
3 4516 1
3 4523 1
3 4582 1
3 4583 1
3 4638 1
3 4760 1
3 4779 1
3 4793 1
3 4797 1
3 4861 1
3 4889 1
3 4993 1
3 5000 1
4 1 1
4 4070 1
5 1 1
5 6 1
5 7 1
5 9 1
5 10 1
5 11 1
5 14 1
5 15 1
5 20 1
5 21 1
5 26 1
5 28 1
5 32 1
5 34 1
5 56 1
5 57 1
5 63 1
5 68 1
5 69 1
5 108 1
5 151 1
5 167 1
5 222 1
5 228 1
5 257 1
5 258 1
5 285 1
5 302 1
5 314 1
5 322 1
5 464 1
5 481 1
5 516 1
5 558 1
5 604 1
5 612 1
5 621 1
5 668 1
5 684 1
5 720 1
5 738 1
5 888 1
5 891 1
5 909 1
5 988 1
5 1032 1
5 1140 1
5 1158 1
5 1216 1
5 1222 1
5 1343 1
5 1346 1
5 1392 1
5 1399 1
5 1429 1
5 1442 1
5 1481 1
5 1489 1
5 1491 1
5 1508 1
5 1596 1
5 1618 1
5 1638 1
5 1660 1
5 1674 1
5 1758 1
5 1776 1
5 1793 1
5 1810 1
5 1838 1
5 1950 1
5 2022 1
5 2026 1
5 2078 1
5 2125 1
5 2150 1
5 2223 1
5 2450 1
5 2487 1
5 2536 1
5 2580 1
5 2622 1
5 2647 1
5 2721 1
5 2802 1
5 2962 1
5 2975 1
5 3192 1
5 3378 1
5 3535 1
5 3537 1
5 3565 1
5 3665 1
5 3727 1
5 3759 1
5 3762 1
5 3822 1
5 3900 1
5 3901 1
5 4187 1
5 4200 1
5 4271 1
5 4277 1
5 4315 1
5 4344 1
5 4503 1
5 4540 1
5 4572 1
5 4643 1
5 4698 1
5 4753 1
5 4760 1
5 4819 1
6 1 1
6 2 1
6 3 1
6 5 1
6 7 1
6 8 1
6 9 1
6 11 1
6 12 1
6 13 1
6 17 1
6 18 1
6 19 1
6 21 1
6 22 1
6 23 1
6 25 1
6 27 1
6 28 1
6 29 1
6 31 1
6 36 1
6 37 1
6 38 1
6 44 1
6 49 1
6 50 1
6 53 1
6 55 1
6 59 1
6 60 1
6 68 1
6 69 1
6 73 1
6 74 1
6 75 1
6 78 1
6 82 1
6 95 1
6 98 1
6 99 1
6 105 1
6 106 1
6 108 1
6 111 1
6 125 1
6 131 1
6 132 1
6 134 1
6 142 1
6 143 1
6 163 1
6 169 1
6 171 1
6 173 1
6 174 1
6 175 1
6 177 1
6 178 1
6 191 1
6 192 1
6 196 1
6 199 1
6 210 1
6 214 1
6 216 1
6 232 1
6 233 1
6 235 1
6 245 1
6 252 1
6 260 1
6 269 1
6 281 1
6 312 1
6 320 1
6 341 1
6 344 1
6 353 1
6 358 1
6 360 1
6 367 1
6 374 1
6 376 1
6 379 1
6 388 1
6 390 1
6 392 1
6 394 1
6 413 1
6 416 1
6 425 1
6 444 1
6 445 1
6 446 1
6 456 1
6 469 1
6 517 1
6 520 1
6 529 1
6 540 1
6 543 1
6 564 1
6 577 1
6 582 1
6 584 1
6 589 1
6 608 1
6 632 1
6 639 1
6 658 1
6 667 1
6 692 1
6 694 1
6 707 1
6 725 1
6 743 1
6 807 1
6 809 1
6 829 1
6 844 1
6 870 1
6 879 1
6 894 1
6 907 1
6 925 1
6 926 1
6 932 1
6 937 1
6 976 1
6 977 1
6 980 1
6 998 1
6 1063 1
6 1077 1
6 1082 1
6 1086 1
6 1096 1
6 1114 1
6 1133 1
6 1142 1
6 1169 1
6 1183 1
6 1199 1
6 1216 1
6 1219 1
6 1223 1
6 1242 1
6 1271 1
6 1292 1
6 1326 1
6 1347 1
6 1390 1
6 1404 1
6 1420 1
6 1426 1
6 1474 1
6 1484 1
6 1485 1
6 1515 1
6 1544 1
6 1548 1
6 1570 1
6 1578 1
6 1593 1
6 1617 1
6 1656 1
6 1658 1
6 1692 1
6 1705 1
6 1709 1
6 1752 1
6 1761 1
6 1795 1
6 1803 1
6 1828 1
6 1831 1
6 1855 1
6 1860 1
6 1870 1
6 1883 1
6 1886 1
6 1894 1
6 1913 1
6 1933 1
6 1968 1
6 2037 1
6 2047 1
6 2050 1
6 2063 1
6 2074 1
6 2079 1
6 2082 1
6 2084 1
6 2106 1
6 2113 1
6 2132 1
6 2157 1
6 2181 1
6 2187 1
6 2201 1
6 2294 1
6 2295 1
6 2343 1
6 2360 1
6 2375 1
6 2384 1
6 2385 1
6 2418 1
6 2466 1
6 2474 1
6 2490 1
6 2495 1
6 2513 1
6 2520 1
6 2570 1
6 2591 1
6 2594 1
6 2595 1
6 2596 1
6 2623 1
6 2631 1
6 2699 1
6 2742 1
6 2759 1
6 2762 1
6 2786 1
6 2829 1
6 2888 1
6 2920 1
6 2952 1
6 2979 1
6 3001 1
6 3008 1
6 3040 1
6 3044 1
6 3046 1
6 3062 1
6 3076 1
6 3108 1
6 3141 1
6 3160 1
6 3161 1
6 3166 1
6 3178 1
6 3179 1
6 3180 1
6 3307 1
6 3317 1
6 3319 1
6 3329 1
6 3346 1
6 3348 1
6 3377 1
6 3390 1
6 3393 1
6 3408 1
6 3410 1
6 3456 1
6 3458 1
6 3483 1
6 3498 1
6 3535 1
6 3557 1
6 3558 1
6 3581 1
6 3583 1
6 3604 1
6 3649 1
6 3683 1
6 3752 1
6 3790 1
6 3791 1
6 3820 1
6 3835 1
6 3917 1
6 3932 1
6 4011 1
6 4019 1
6 4043 1
6 4049 1
6 4063 1
6 4105 1
6 4123 1
6 4146 1
6 4196 1
6 4270 1
6 4301 1
6 4316 1
6 4324 1
6 4336 1
6 4376 1
6 4398 1
6 4399 1
6 4429 1
6 4515 1
6 4557 1
6 4564 1
6 4610 1
6 4612 1
6 4618 1
6 4644 1
6 4658 1
6 4670 1
6 4748 1
6 4757 1
6 4777 1
6 4807 1
6 4884 1
6 4897 1
6 4904 1
6 4915 1
6 4945 1
6 4959 1
6 4986 1
6 4992 1
7 1 1
7 3 1
7 5 1
7 6 1
7 8 1
7 12 1
7 13 1
7 20 1
7 21 1
7 22 1
7 23 1
7 24 1
7 27 1
7 34 1
7 37 1
7 48 1
7 49 1
7 51 1
7 54 1
7 64 1
7 66 1
7 67 1
7 86 1
7 94 1
7 95 1
7 98 1
7 104 1
7 109 1
7 115 1
7 124 1
7 130 1
7 134 1
7 161 1
7 177 1
7 180 1
7 184 1
7 187 1
7 193 1
7 194 1
7 195 1
7 199 1
7 240 1
7 245 1
7 261 1
7 265 1
7 314 1
7 317 1
7 337 1
7 338 1
7 383 1
7 392 1
7 403 1
7 440 1
7 442 1
7 460 1
7 472 1
7 479 1
7 498 1
7 504 1
7 557 1
7 622 1
7 629 1
7 665 1
7 687 1
7 750 1
7 769 1
7 819 1
7 844 1
7 845 1
7 850 1
7 901 1
7 929 1
7 971 1
7 974 1
7 983 1
7 1041 1
7 1141 1
7 1177 1
7 1191 1
7 1215 1
7 1260 1
7 1305 1
7 1416 1
7 1423 1
7 1473 1
7 1481 1
7 1630 1
7 1644 1
7 1694 1
7 1735 1
7 1777 1
7 1792 1
7 1805 1
7 1854 1
7 1935 1
7 1986 1
7 2160 1
7 2182 1
7 2244 1
7 2278 1
7 2522 1
7 2570 1
7 2577 1
7 2638 1
7 2680 1
7 2693 1
7 2735 1
7 2737 1
7 2745 1
7 2784 1
7 2828 1
7 2907 1
7 3230 1
7 3287 1
7 3330 1
7 3389 1
7 3391 1
7 3442 1
7 3491 1
7 3492 1
7 3499 1
7 3685 1
7 3936 1
7 3962 1
7 3978 1
7 4025 1
7 4075 1
7 4082 1
7 4140 1
7 4167 1
7 4263 1
7 4328 1
7 4398 1
7 4553 1
7 4591 1
7 4657 1
7 4933 1
8 1 1
8 3 1
8 6 1
8 7 1
8 10 1
8 11 1
8 12 1
8 18 1
8 19 1
8 21 1
8 30 1
8 34 1
8 35 1
8 39 1
8 46 1
8 47 1
8 58 1
8 65 1
8 79 1
8 81 1
8 91 1
8 103 1
8 106 1
8 120 1
8 138 1
8 144 1
8 150 1
8 157 1
8 159 1
8 181 1
8 182 1
8 207 1
8 218 1
8 227 1
8 243 1
8 267 1
8 284 1
8 289 1
8 292 1
8 368 1
8 378 1
8 399 1
8 418 1
8 422 1
8 427 1
8 437 1
8 455 1
8 518 1
8 571 1
8 593 1
8 598 1
8 628 1
8 656 1
8 699 1
8 716 1
8 759 1
8 771 1
8 793 1
8 822 1
8 827 1
8 837 1
8 882 1
8 941 1
8 951 1
8 953 1
8 991 1
8 999 1
8 1010 1
8 1020 1
8 1024 1
8 1032 1
8 1057 1
8 1090 1
8 1113 1
8 1125 1
8 1135 1
8 1148 1
8 1219 1
8 1324 1
8 1367 1
8 1375 1
8 1561 1
8 1597 1
8 1621 1
8 1650 1
8 1656 1
8 1719 1
8 1760 1
8 1867 1
8 1904 1
8 1915 1
8 1943 1
8 1961 1
8 1987 1
8 2106 1
8 2145 1
8 2149 1
8 2164 1
8 2230 1
8 2252 1
8 2381 1
8 2433 1
8 2510 1
8 2584 1
8 2723 1
8 2728 1
8 2925 1
8 2968 1
8 3064 1
8 3071 1
8 3141 1
8 3174 1
8 3285 1
8 3403 1
8 3471 1
8 3584 1
8 3656 1
8 3826 1
8 3876 1
8 3879 1
8 3884 1
8 3961 1
8 4045 1
8 4120 1
8 4132 1
8 4142 1
8 4146 1
8 4149 1
8 4297 1
8 4350 1
8 4356 1
8 4468 1
8 4574 1
8 4625 1
8 4687 1
8 4701 1
8 4729 1
8 4951 1
8 4971 1
9 1 1
9 3 1
9 5 1
9 6 1
9 14 1
9 16 1
9 18 1
9 20 1
9 26 1
9 48 1
9 50 1
9 55 1
9 57 1
9 74 1
9 92 1
9 100 1
9 101 1
9 118 1
9 125 1
9 168 1
9 198 1
9 215 1
9 228 1
9 230 1
9 277 1
9 278 1
9 333 1
9 354 1
9 363 1
9 390 1
9 445 1
9 460 1
9 500 1
9 653 1
9 728 1
9 768 1
9 788 1
9 816 1
9 820 1
9 859 1
9 901 1
9 950 1
9 990 1
9 1028 1
9 1030 1
9 1133 1
9 1233 1
9 1398 1
9 1505 1
9 1509 1
9 1512 1
9 1514 1
9 1539 1
9 1604 1
9 1666 1
9 1692 1
9 1782 1
9 1795 1
9 1835 1
9 1921 1
9 1955 1
9 2045 1
9 2050 1
9 2151 1
9 2222 1
9 2370 1
9 2448 1
9 2511 1
9 2537 1
9 2547 1
9 2561 1
9 2610 1
9 2660 1
9 2757 1
9 2930 1
9 3017 1
9 3061 1
9 3079 1
9 3091 1
9 3094 1
9 3152 1
9 3234 1
9 3252 1
9 3458 1
9 3590 1
9 3595 1
9 3629 1
9 3686 1
9 3857 1
9 3975 1
9 4117 1
9 4222 1
9 4225 1
9 4234 1
9 4469 1
9 4488 1
9 4633 1
9 4734 1
9 4863 1
10 1 1
10 2 1
10 5 1
10 8 1
10 24 1
10 38 1
10 43 1
10 53 1
10 56 1
10 83 1
10 125 1
10 159 1
10 162 1
10 176 1
10 215 1
10 261 1
10 264 1
10 290 1
10 307 1
10 329 1
10 333 1
10 340 1
10 379 1
10 402 1
10 417 1
10 484 1
10 492 1
10 530 1
10 536 1
10 553 1
10 556 1
10 581 1
10 597 1
10 677 1
10 681 1
10 707 1
10 722 1
10 726 1
10 738 1
10 824 1
10 883 1
10 939 1
10 981 1
10 1023 1
10 1049 1
10 1220 1
10 1221 1
10 1233 1
10 1301 1
10 1421 1
10 1594 1
10 1612 1
10 1656 1
10 1676 1
10 1764 1
10 1795 1
10 1818 1
10 1854 1
10 1898 1
10 1906 1
10 1910 1
10 1920 1
10 1956 1
10 2044 1
10 2089 1
10 2109 1
10 2139 1
10 2153 1
10 2165 1
10 2188 1
10 2342 1
10 2455 1
10 2476 1
10 2487 1
10 2509 1
10 2530 1
10 2575 1
10 2692 1
10 2743 1
10 2794 1
10 3043 1
10 3106 1
10 3207 1
10 3242 1
10 3370 1
10 3497 1
10 3529 1
10 3562 1
10 3789 1
10 3824 1
10 3836 1
10 3900 1
10 4007 1
10 4056 1
10 4095 1
10 4101 1
10 4124 1
10 4219 1
10 4302 1
10 4364 1
10 4403 1
10 4890 1
10 4897 1
10 4984 1
11 1 1
11 5 1
11 6 1
11 8 1
11 18 1
11 36 1
11 37 1
11 54 1
11 59 1
11 87 1
11 96 1
11 102 1
11 112 1
11 118 1
11 126 1
11 130 1
11 149 1
11 162 1
11 165 1
11 189 1
11 253 1
11 334 1
11 347 1
11 382 1
11 387 1
11 389 1
11 414 1
11 426 1
11 467 1
11 476 1
11 493 1
11 505 1
11 526 1
11 546 1
11 550 1
11 700 1
11 758 1
11 793 1
11 819 1
11 826 1
11 870 1
11 876 1
11 932 1
11 952 1
11 962 1
11 964 1
11 1055 1
11 1067 1
11 1102 1
11 1122 1
11 1226 1
11 1233 1
11 1245 1
11 1251 1
11 1258 1
11 1336 1
11 1367 1
11 1394 1
11 1423 1
11 1433 1
11 1496 1
11 1507 1
11 1533 1
11 1559 1
11 1607 1
11 1622 1
11 1700 1
11 1730 1
11 1736 1
11 1767 1
11 1776 1
11 1847 1
11 1929 1
11 1965 1
11 1969 1
11 1996 1
11 2082 1
11 2112 1
11 2279 1
11 2317 1
11 2571 1
11 2646 1
11 2697 1
11 2729 1
11 2738 1
11 2744 1
11 2820 1
11 2828 1
11 2878 1
11 3132 1
11 3134 1
11 3145 1
11 3186 1
11 3187 1
11 3217 1
11 3482 1
11 3492 1
11 3527 1
11 3611 1
11 3643 1
11 3772 1
11 3775 1
11 3835 1
11 3847 1
11 3882 1
11 3908 1
11 3945 1
11 3974 1
11 4034 1
11 4153 1
11 4174 1
11 4291 1
11 4357 1
11 4370 1
11 4371 1
11 4603 1
11 4884 1
11 4981 1
12 1 1
12 6 1
12 7 1
12 8 1
12 16 1
12 34 1
12 35 1
12 52 1
12 65 1
12 76 1
12 88 1
12 97 1
12 129 1
12 133 1
12 150 1
12 154 1
12 173 1
12 206 1
12 259 1
12 273 1
12 303 1
12 334 1
12 369 1
12 394 1
12 412 1
12 428 1
12 453 1
12 491 1
12 525 1
12 539 1
12 545 1
12 567 1
12 584 1
12 631 1
12 688 1
12 768 1
12 779 1
12 783 1
12 879 1
12 918 1
12 960 1
12 1023 1
12 1028 1
12 1104 1
12 1228 1
12 1363 1
12 1428 1
12 1453 1
12 1521 1
12 1590 1
12 1682 1
12 1703 1
12 1834 1
12 1862 1
12 1879 1
12 1899 1
12 1980 1
12 2023 1
12 2027 1
12 2086 1
12 2107 1
12 2155 1
12 2166 1
12 2191 1
12 2202 1
12 2254 1
12 2290 1
12 2368 1
12 2369 1
12 2421 1
12 2425 1
12 2560 1
12 2572 1
12 2626 1
12 2673 1
12 2693 1
12 2743 1
12 2751 1
12 2765 1
12 2782 1
12 2840 1
12 2935 1
12 3052 1
12 3066 1
12 3088 1
12 3215 1
12 3263 1
12 3295 1
12 3312 1
12 3328 1
12 3399 1
12 3676 1
12 3712 1
12 3742 1
12 3800 1
12 3802 1
12 3804 1
12 3931 1
12 3932 1
12 4107 1
12 4115 1
12 4117 1
12 4346 1
12 4409 1
12 4411 1
12 4462 1
12 4863 1
12 4897 1
13 1 1
13 3 1
13 6 1
13 7 1
13 15 1
13 54 1
13 57 1
13 61 1
13 83 1
13 107 1
13 138 1
13 166 1
13 170 1
13 172 1
13 204 1
13 209 1
13 225 1
13 254 1
13 266 1
13 291 1
13 293 1
13 299 1
13 332 1
13 364 1
13 382 1
13 518 1
13 538 1
13 548 1
13 625 1
13 699 1
13 739 1
13 762 1
13 825 1
13 974 1
13 984 1
13 1042 1
13 1098 1
13 1190 1
13 1463 1
13 1495 1
13 1519 1
13 1545 1
13 1703 1
13 1833 1
13 2083 1
13 2447 1
13 2521 1
13 2541 1
13 2884 1
13 2957 1
13 2963 1
13 2976 1
13 3017 1
13 3273 1
13 3312 1
13 3343 1
13 3383 1
13 3827 1
13 3995 1
13 4362 1
13 4384 1
13 4459 1
13 4647 1
13 4717 1
13 4922 1
14 1 1
14 3 1
14 5 1
14 9 1
14 22 1
14 24 1
14 29 1
14 40 1
14 42 1
14 46 1
14 52 1
14 56 1
14 66 1
14 67 1
14 78 1
14 84 1
14 109 1
14 114 1
14 116 1
14 127 1
14 140 1
14 147 1
14 150 1
14 151 1
14 152 1
14 160 1
14 183 1
14 187 1
14 190 1
14 193 1
14 223 1
14 229 1
14 231 1
14 266 1
14 272 1
14 276 1
14 291 1
14 298 1
14 308 1
14 320 1
14 330 1
14 334 1
14 339 1
14 377 1
14 406 1
14 468 1
14 475 1
14 494 1
14 501 1
14 508 1
14 529 1
14 532 1
14 580 1
14 603 1
14 636 1
14 686 1
14 722 1
14 723 1
14 730 1
14 739 1
14 958 1
14 982 1
14 992 1
14 1082 1
14 1086 1
14 1088 1
14 1276 1
14 1297 1
14 1303 1
14 1309 1
14 1326 1
14 1435 1
14 1469 1
14 1474 1
14 1496 1
14 1536 1
14 1579 1
14 1587 1
14 1698 1
14 1768 1
14 1788 1
14 1790 1
14 1797 1
14 1901 1
14 1954 1
14 1999 1
14 2147 1
14 2192 1
14 2194 1
14 2274 1
14 2295 1
14 2301 1
14 2334 1
14 2430 1
14 2458 1
14 2460 1
14 2617 1
14 2753 1
14 2806 1
14 2951 1
14 3006 1
14 3111 1
14 3198 1
14 3223 1
14 3390 1
14 3408 1
14 3437 1
14 3517 1
14 3602 1
14 3636 1
14 3649 1
14 3699 1
14 3704 1
14 3792 1
14 3915 1
14 3930 1
14 3938 1
14 4024 1
14 4183 1
14 4329 1
14 4391 1
14 4467 1
14 4589 1
14 4727 1
14 4822 1
14 4899 1
14 4904 1
14 4997 1
15 1 1
15 3 1
15 5 1
15 13 1
15 17 1
15 62 1
15 140 1
15 164 1
15 211 1
15 271 1
15 274 1
15 393 1
15 492 1
15 586 1
15 803 1
15 894 1
15 919 1
15 987 1
15 1018 1
15 1083 1
15 1737 1
15 1823 1
15 1962 1
15 2264 1
15 2315 1
15 2425 1
15 2445 1
15 2946 1
15 3585 1
15 3609 1
15 3721 1
15 3989 1
15 4118 1
15 4406 1
15 4477 1
15 4480 1
15 4652 1
15 4678 1
15 4840 1
16 1 1
16 3 1
16 9 1
16 12 1
16 33 1
16 43 1
16 93 1
16 99 1
16 136 1
16 164 1
16 165 1
16 200 1
16 208 1
16 231 1
16 232 1
16 311 1
16 354 1
16 370 1
16 382 1
16 444 1
16 459 1
16 565 1
16 569 1
16 626 1
16 664 1
16 667 1
16 681 1
16 827 1
16 835 1
16 857 1
16 946 1
16 1011 1
16 1321 1
16 1336 1
16 1353 1
16 1537 1
16 1632 1
16 1691 1
16 1912 1
16 1971 1
16 2032 1
16 2040 1
16 2255 1
16 2402 1
16 2502 1
16 2515 1
16 2580 1
16 2616 1
16 2624 1
16 2796 1
16 2860 1
16 3009 1
16 3131 1
16 3171 1
16 3267 1
16 3687 1
16 3952 1
16 4026 1
16 4186 1
16 4202 1
16 4267 1
16 4367 1
16 4417 1
16 4431 1
16 4664 1
16 4828 1
16 4865 1
16 4901 1
17 1 1
17 3 1
17 6 1
17 15 1
17 28 1
17 32 1
17 36 1
17 38 1
17 41 1
17 48 1
17 71 1
17 75 1
17 89 1
17 137 1
17 144 1
17 178 1
17 192 1
17 217 1
17 253 1
17 262 1
17 263 1
17 269 1
17 279 1
17 296 1
17 302 1
17 362 1
17 365 1
17 454 1
17 497 1
17 499 1
17 523 1
17 571 1
17 611 1
17 633 1
17 679 1
17 683 1
17 703 1
17 748 1
17 792 1
17 871 1
17 901 1
17 975 1
17 1078 1
17 1095 1
17 1110 1
17 1169 1
17 1355 1
17 1399 1
17 1406 1
17 1470 1
17 1497 1
17 1514 1
17 1569 1
17 1595 1
17 1728 1
17 1729 1
17 1756 1
17 1874 1
17 1880 1
17 2006 1
17 2077 1
17 2083 1
17 2223 1
17 2318 1
17 2350 1
17 2695 1
17 2736 1
17 2784 1
17 2812 1
17 2892 1
17 2956 1
17 3048 1
17 3171 1
17 3234 1
17 3296 1
17 3359 1
17 3407 1
17 3480 1
17 3497 1
17 3931 1
17 4162 1
17 4245 1
17 4339 1
17 4448 1
17 4451 1
17 4743 1
17 4799 1
17 4883 1
18 6 1
18 8 1
18 9 1
18 11 1
18 19 1
18 24 1
18 52 1
18 88 1
18 90 1
18 92 1
18 105 1
18 125 1
18 126 1
18 143 1
18 146 1
18 148 1
18 154 1
18 165 1
18 185 1
18 249 1
18 280 1
18 345 1
18 359 1
18 411 1
18 413 1
18 449 1
18 513 1
18 570 1
18 576 1
18 594 1
18 606 1
18 643 1
18 649 1
18 731 1
18 780 1
18 849 1
18 944 1
18 1001 1
18 1022 1
18 1082 1
18 1197 1
18 1256 1
18 1267 1
18 1268 1
18 1284 1
18 1453 1
18 1460 1
18 1489 1
18 1635 1
18 1643 1
18 1669 1
18 1769 1
18 1833 1
18 1927 1
18 2111 1
18 2118 1
18 2199 1
18 2463 1
18 2530 1
18 2554 1
18 2669 1
18 2686 1
18 2964 1
18 3012 1
18 3100 1
18 3216 1
18 3291 1
18 3322 1
18 3355 1
18 3385 1
18 3468 1
18 4012 1
18 4120 1
18 4164 1
18 4255 1
18 4280 1
18 4283 1
18 4416 1
18 4484 1
18 4491 1
18 4632 1
18 4661 1
18 4674 1
18 4739 1
18 4742 1
18 4840 1
18 4875 1
18 4998 1
19 2 1
19 6 1
19 8 1
19 18 1
19 23 1
19 30 1
19 84 1
19 85 1
19 292 1
19 311 1
19 467 1
19 536 1
19 574 1
19 698 1
19 712 1
19 956 1
19 1294 1
19 1615 1
19 1622 1
19 1653 1
19 1783 1
19 2337 1
19 2756 1
19 3004 1
19 3341 1
19 3888 1
19 3903 1
19 3953 1
19 3955 1
19 3974 1
19 3976 1
19 4028 1
19 4041 1
20 3 1
20 5 1
20 7 1
20 9 1
20 51 1
20 53 1
20 69 1
20 70 1
20 103 1
20 111 1
20 135 1
20 221 1
20 316 1
20 370 1
20 383 1
20 397 1
20 598 1
20 618 1
20 776 1
20 820 1
20 846 1
20 1036 1
20 1111 1
20 1150 1
20 1257 1
20 1321 1
20 1563 1
20 1680 1
20 1705 1
20 1809 1
20 1824 1
20 2098 1
20 2203 1
20 2235 1
20 2401 1
20 2513 1
20 2773 1
20 3026 1
20 3272 1
20 3463 1
20 3480 1
20 4695 1
20 4855 1
21 5 1
21 6 1
21 7 1
21 8 1
21 29 1
21 67 1
21 68 1
21 88 1
21 107 1
21 204 1
21 215 1
21 218 1
21 223 1
21 268 1
21 300 1
21 314 1
21 335 1
21 407 1
21 418 1
21 495 1
21 578 1
21 626 1
21 631 1
21 696 1
21 713 1
21 740 1
21 887 1
21 929 1
21 1061 1
21 1099 1
21 1382 1
21 1407 1
21 1411 1
21 1534 1
21 1596 1
21 1626 1
21 1784 1
21 1843 1
21 1874 1
21 1892 1
21 1957 1
21 2071 1
21 2186 1
21 2461 1
21 2615 1
21 2788 1
21 2811 1
21 2834 1
21 2968 1
21 3063 1
21 3350 1
21 3354 1
21 3769 1
21 4062 1
21 4270 1
21 4286 1
21 4332 1
21 4452 1
21 4816 1
21 4887 1
21 4898 1
21 4985 1
22 1 1
22 6 1
22 7 1
22 14 1
22 25 1
22 32 1
22 45 1
22 58 1
22 71 1
22 159 1
22 175 1
22 190 1
22 366 1
22 373 1
22 624 1
22 721 1
22 982 1
22 1061 1
22 1249 1
22 1280 1
22 1337 1
22 1551 1
22 1626 1
22 1642 1
22 1677 1
22 1715 1
22 1830 1
22 1944 1
22 2123 1
22 2555 1
22 2572 1
22 2587 1
22 3071 1
22 3108 1
22 3262 1
22 3686 1
22 3805 1
22 3878 1
22 3942 1
22 4194 1
22 4218 1
22 4414 1
22 4439 1
22 4822 1
22 4839 1
23 1 1
23 6 1
23 7 1
23 19 1
23 26 1
23 36 1
23 51 1
23 53 1
23 81 1
23 84 1
23 86 1
23 103 1
23 113 1
23 114 1
23 139 1
23 156 1
23 159 1
23 169 1
23 176 1
23 183 1
23 231 1
23 257 1
23 264 1
23 294 1
23 306 1
23 310 1
23 356 1
23 433 1
23 435 1
23 470 1
23 542 1
23 546 1
23 556 1
23 558 1
23 627 1
23 765 1
23 788 1
23 836 1
23 842 1
23 853 1
23 886 1
23 952 1
23 996 1
23 1013 1
23 1020 1
23 1050 1
23 1051 1
23 1117 1
23 1120 1
23 1143 1
23 1144 1
23 1170 1
23 1205 1
23 1228 1
23 1278 1
23 1282 1
23 1318 1
23 1505 1
23 1511 1
23 1710 1
23 1953 1
23 1999 1
23 2001 1
23 2103 1
23 2131 1
23 2218 1
23 2250 1
23 2294 1
23 2327 1
23 2331 1
23 2357 1
23 2382 1
23 2537 1
23 2621 1
23 2667 1
23 2681 1
23 2696 1
23 2810 1
23 2887 1
23 2944 1
23 2973 1
23 2986 1
23 2992 1
23 3045 1
23 3144 1
23 3249 1
23 3256 1
23 3372 1
23 3391 1
23 3440 1
23 3571 1
23 3706 1
23 3798 1
23 3836 1
23 3955 1
23 4060 1
23 4084 1
23 4207 1
23 4281 1
23 4297 1
23 4319 1
23 4486 1
23 4500 1
23 4713 1
23 4876 1
23 4949 1
24 7 1
24 10 1
24 14 1
24 18 1
24 49 1
24 104 1
24 120 1
24 135 1
24 137 1
24 166 1
24 170 1
24 226 1
24 274 1
24 303 1
24 336 1
24 480 1
24 526 1
24 659 1
24 703 1
24 784 1
24 787 1
24 798 1
24 969 1
24 1055 1
24 1067 1
24 1294 1
24 1322 1
24 1407 1
24 1635 1
24 1704 1
24 1743 1
24 2127 1
24 2150 1
24 2197 1
24 2525 1
24 2721 1
24 2727 1
24 2854 1
24 3047 1
24 3111 1
24 3227 1
24 3249 1
24 3264 1
24 3305 1
24 3430 1
24 3436 1
24 3634 1
24 3917 1
24 3942 1
24 3959 1
24 4183 1
24 4263 1
24 4404 1
24 4405 1
24 4608 1
24 4724 1
24 4821 1
24 4858 1
24 4869 1
24 4905 1
25 1 1
25 3 1
25 6 1
25 22 1
25 124 1
25 240 1
25 248 1
25 310 1
25 343 1
25 366 1
25 485 1
25 498 1
25 533 1
25 585 1
25 678 1
25 719 1
25 798 1
25 864 1
25 880 1
25 1166 1
25 1219 1
25 1336 1
25 1436 1
25 1518 1
25 1535 1
25 1657 1
25 1752 1
25 1875 1
25 2163 1
25 2258 1
25 2260 1
25 2380 1
25 2430 1
25 2969 1
25 2972 1
25 2991 1
25 3239 1
25 3522 1
25 3547 1
25 3556 1
25 3643 1
25 4064 1
25 4478 1
25 4542 1
25 4900 1
26 1 1
26 5 1
26 9 1
26 23 1
26 42 1
26 115 1
26 122 1
26 160 1
26 296 1
26 349 1
26 590 1
26 698 1
26 861 1
26 977 1
26 989 1
26 1004 1
26 1135 1
26 1390 1
26 1746 1
26 1768 1
26 1870 1
26 1910 1
26 1940 1
26 2177 1
26 2524 1
26 2855 1
26 2914 1
26 2942 1
26 3412 1
26 3903 1
26 3980 1
26 4318 1
26 4611 1
26 4650 1
26 4858 1
27 2 1
27 3 1
27 6 1
27 7 1
27 39 1
27 47 1
27 63 1
27 64 1
27 69 1
27 70 1
27 75 1
27 82 1
27 112 1
27 114 1
27 140 1
27 146 1
27 155 1
27 168 1
27 172 1
27 240 1
27 242 1
27 268 1
27 306 1
27 310 1
27 329 1
27 463 1
27 488 1
27 519 1
27 531 1
27 702 1
27 735 1
27 739 1
27 859 1
27 886 1
27 976 1
27 1008 1
27 1013 1
27 1029 1
27 1066 1
27 1221 1
27 1233 1
27 1234 1
27 1292 1
27 1414 1
27 1462 1
27 1467 1
27 1507 1
27 1510 1
27 1659 1
27 1672 1
27 1681 1
27 1697 1
27 1998 1
27 2099 1
27 2167 1
27 2210 1
27 2241 1
27 2361 1
27 2409 1
27 2608 1
27 2628 1
27 2635 1
27 2739 1
27 2756 1
27 2772 1
27 2832 1
27 2963 1
27 3101 1
27 3281 1
27 3563 1
27 3633 1
27 3720 1
27 3834 1
27 4037 1
27 4124 1
27 4165 1
27 4342 1
27 4455 1
27 4516 1
27 4634 1
27 4829 1
27 4880 1
28 1 1
28 5 1
28 6 1
28 17 1
28 33 1
28 68 1
28 107 1
28 108 1
28 132 1
28 157 1
28 364 1
28 372 1
28 388 1
28 455 1
28 470 1
28 481 1
28 492 1
28 547 1
28 698 1
28 752 1
28 755 1
28 785 1
28 842 1
28 1016 1
28 1060 1
28 1116 1
28 1161 1
28 1228 1
28 1316 1
28 1334 1
28 1482 1
28 1666 1
28 1809 1
28 1852 1
28 2178 1
28 2528 1
28 2616 1
28 2754 1
28 2938 1
28 3142 1
28 3197 1
28 3229 1
28 3295 1
28 3303 1
28 3411 1
28 3755 1
28 4114 1
28 4392 1
28 4709 1
28 4732 1
29 3 1
29 6 1
29 14 1
29 21 1
29 30 1
29 76 1
29 89 1
29 92 1
29 124 1
29 185 1
29 216 1
29 230 1
29 237 1
29 253 1
29 273 1
29 297 1
29 347 1
29 349 1
29 451 1
29 464 1
29 480 1
29 487 1
29 566 1
29 648 1
29 866 1
29 978 1
29 1106 1
29 1121 1
29 1265 1
29 1351 1
29 1397 1
29 1507 1
29 1562 1
29 1564 1
29 1699 1
29 1791 1
29 2283 1
29 2353 1
29 2454 1
29 2544 1
29 2569 1
29 2709 1
29 2826 1
29 2895 1
29 2936 1
29 2938 1
29 3080 1
29 3514 1
29 3674 1
29 3803 1
29 3806 1
29 3925 1
29 4268 1
29 4269 1
29 4415 1
29 4612 1
29 4932 1
30 1 1
30 8 1
30 19 1
30 29 1
30 31 1
30 33 1
30 40 1
30 44 1
30 45 1
30 47 1
30 51 1
30 59 1
30 84 1
30 112 1
30 128 1
30 161 1
30 200 1
30 201 1
30 205 1
30 218 1
30 255 1
30 300 1
30 312 1
30 367 1
30 377 1
30 411 1
30 431 1
30 452 1
30 465 1
30 547 1
30 551 1
30 554 1
30 603 1
30 613 1
30 616 1
30 621 1
30 626 1
30 645 1
30 661 1
30 675 1
30 704 1
30 769 1
30 836 1
30 849 1
30 853 1
30 893 1
30 956 1
30 1157 1
30 1224 1
30 1242 1
30 1273 1
30 1285 1
30 1324 1
30 1438 1
30 1485 1
30 1510 1
30 1517 1
30 1525 1
30 1541 1
30 1566 1
30 1627 1
30 1685 1
30 1713 1
30 1742 1
30 1802 1
30 1842 1
30 1844 1
30 1872 1
30 2031 1
30 2037 1
30 2088 1
30 2099 1
30 2315 1
30 2398 1
30 2452 1
30 2471 1
30 2502 1
30 2536 1
30 2567 1
30 2596 1
30 2657 1
30 2719 1
30 2720 1
30 2726 1
30 2785 1
30 2847 1
30 2861 1
30 2864 1
30 2904 1
30 2934 1
30 2997 1
30 3060 1
30 3200 1
30 3268 1
30 3270 1
30 3377 1
30 3484 1
30 3573 1
30 3641 1
30 3847 1
30 3879 1
30 3964 1
30 4075 1
30 4080 1
30 4126 1
30 4350 1
30 4354 1
30 4403 1
30 4437 1
30 4554 1
30 4615 1
30 4666 1
30 4685 1
30 4766 1
31 1 1
31 3 1
31 6 1
31 30 1
31 38 1
31 67 1
31 81 1
31 121 1
31 149 1
31 221 1
31 235 1
31 236 1
31 244 1
31 262 1
31 290 1
31 415 1
31 533 1
31 587 1
31 675 1
31 905 1
31 1124 1
31 1146 1
31 1151 1
31 1159 1
31 1168 1
31 1201 1
31 1317 1
31 1325 1
31 1335 1
31 1499 1
31 1567 1
31 1840 1
31 1878 1
31 1931 1
31 1957 1
31 1989 1
31 2190 1
31 2233 1
31 2287 1
31 2623 1
31 2661 1
31 2724 1
31 2803 1
31 3451 1
31 3649 1
31 3722 1
31 3748 1
31 3786 1
31 3898 1
31 3982 1
31 4050 1
31 4073 1
31 4247 1
31 4334 1
31 4420 1
31 4814 1
32 1 1
32 5 1
32 17 1
32 22 1
32 54 1
32 73 1
32 80 1
32 85 1
32 110 1
32 148 1
32 154 1
32 171 1
32 184 1
32 216 1
32 241 1
32 247 1
32 324 1
32 410 1
32 477 1
32 682 1
32 745 1
32 782 1
32 825 1
32 826 1
32 873 1
32 882 1
32 1062 1
32 1410 1
32 1622 1
32 1658 1
32 1724 1
32 1857 1
32 1869 1
32 2011 1
32 2495 1
32 3056 1
32 3099 1
32 3223 1
32 3233 1
32 3242 1
32 3288 1
32 3335 1
32 3349 1
32 3445 1
32 3448 1
32 3621 1
32 3656 1
32 3914 1
32 4246 1
32 4290 1
32 4414 1
32 4432 1
32 4665 1
32 4699 1
32 4792 1
32 4805 1
32 4931 1
33 3 1
33 16 1
33 28 1
33 30 1
33 37 1
33 93 1
33 100 1
33 271 1
33 484 1
33 1163 1
33 1198 1
33 1371 1
33 1543 1
33 1868 1
33 2169 1
33 2181 1
33 3359 1
33 4790 1
34 5 1
34 7 1
34 8 1
34 12 1
34 35 1
34 40 1
34 59 1
34 63 1
34 74 1
34 76 1
34 119 1
34 152 1
34 155 1
34 179 1
34 195 1
34 198 1
34 203 1
34 217 1
34 222 1
34 226 1
34 260 1
34 263 1
34 417 1
34 437 1
34 462 1
34 499 1
34 502 1
34 522 1
34 532 1
34 563 1
34 598 1
34 618 1
34 671 1
34 675 1
34 692 1
34 704 1
34 768 1
34 779 1
34 803 1
34 957 1
34 990 1
34 991 1
34 1038 1
34 1039 1
34 1043 1
34 1065 1
34 1108 1
34 1234 1
34 1353 1
34 1389 1
34 1441 1
34 1506 1
34 1522 1
34 1635 1
34 1648 1
34 1859 1
34 1905 1
34 1985 1
34 1990 1
34 2051 1
34 2221 1
34 2239 1
34 2331 1
34 2442 1
34 2503 1
34 2534 1
34 2621 1
34 2625 1
34 2677 1
34 2733 1
34 2793 1
34 2798 1
34 2828 1
34 2910 1
34 3065 1
34 3162 1
34 3167 1
34 3172 1
34 3176 1
34 3210 1
34 3265 1
34 3289 1
34 3309 1
34 3557 1
34 3615 1
34 3654 1
34 3689 1
34 3743 1
34 3784 1
34 4009 1
34 4177 1
34 4222 1
34 4422 1
34 4473 1
34 4538 1
34 4569 1
34 4611 1
34 4629 1
34 4677 1
34 4685 1
34 4747 1
34 4944 1
34 4949 1
34 4959 1
34 4994 1
35 1 1
35 8 1
35 12 1
35 34 1
35 43 1
35 505 1
35 857 1
35 2317 1
35 2552 1
35 3117 1
35 3203 1
35 3977 1
35 4352 1
36 6 1
36 11 1
36 17 1
36 23 1
36 42 1
36 48 1
36 50 1
36 70 1
36 77 1
36 81 1
36 89 1
36 97 1
36 108 1
36 116 1
36 133 1
36 136 1
36 163 1
36 200 1
36 207 1
36 241 1
36 256 1
36 267 1
36 327 1
36 337 1
36 348 1
36 389 1
36 430 1
36 440 1
36 441 1
36 493 1
36 520 1
36 532 1
36 559 1
36 560 1
36 645 1
36 700 1
36 711 1
36 766 1
36 843 1
36 856 1
36 861 1
36 940 1
36 943 1
36 957 1
36 964 1
36 1001 1
36 1171 1
36 1178 1
36 1238 1
36 1247 1
36 1263 1
36 1264 1
36 1313 1
36 1319 1
36 1335 1
36 1364 1
36 1370 1
36 1375 1
36 1380 1
36 1385 1
36 1395 1
36 1437 1
36 1442 1
36 1451 1
36 1479 1
36 1556 1
36 1602 1
36 1605 1
36 1623 1
36 1697 1
36 1700 1
36 1757 1
36 1838 1
36 1983 1
36 2054 1
36 2176 1
36 2220 1
36 2265 1
36 2291 1
36 2344 1
36 2354 1
36 2374 1
36 2379 1
36 2497 1
36 2702 1
36 2927 1
36 2969 1
36 3011 1
36 3055 1
36 3069 1
36 3091 1
36 3102 1
36 3116 1
36 3217 1
36 3443 1
36 3585 1
36 3699 1
36 3724 1
36 3733 1
36 3753 1
36 3859 1
36 3861 1
36 4096 1
36 4116 1
36 4189 1
36 4341 1
36 4410 1
36 4683 1
36 4711 1
36 4762 1
36 4783 1
36 4814 1
36 4918 1
36 4997 1
37 6 1
37 7 1
37 11 1
37 33 1
37 66 1
37 128 1
37 185 1
37 214 1
37 216 1
37 272 1
37 301 1
37 306 1
37 466 1
37 573 1
37 678 1
37 690 1
37 742 1
37 890 1
37 1034 1
37 1570 1
37 1577 1
37 1613 1
37 1619 1
37 1722 1
37 1990 1
37 2050 1
37 2458 1
37 3510 1
37 3826 1
37 4082 1
37 4239 1
37 4290 1
37 4482 1
37 4675 1
37 4923 1
38 6 1
38 10 1
38 17 1
38 31 1
38 55 1
38 65 1
38 77 1
38 95 1
38 121 1
38 180 1
38 194 1
38 203 1
38 207 1
38 213 1
38 227 1
38 264 1
38 297 1
38 398 1
38 409 1
38 426 1
38 462 1
38 489 1
38 524 1
38 534 1
38 557 1
38 582 1
38 596 1
38 600 1
38 644 1
38 647 1
38 659 1
38 720 1
38 730 1
38 765 1
38 817 1
38 840 1
38 896 1
38 978 1
38 1022 1
38 1050 1
38 1059 1
38 1069 1
38 1189 1
38 1204 1
38 1224 1
38 1272 1
38 1306 1
38 1342 1
38 1451 1
38 1546 1
38 1719 1
38 1799 1
38 1808 1
38 1948 1
38 1974 1
38 2167 1
38 2210 1
38 2514 1
38 2557 1
38 2593 1
38 2636 1
38 2658 1
38 2666 1
38 2719 1
38 2773 1
38 2827 1
38 2957 1
38 3306 1
38 3352 1
38 3520 1
38 3521 1
38 3741 1
38 3933 1
38 4121 1
38 4151 1
38 4248 1
38 4255 1
38 4465 1
38 4479 1
38 4481 1
38 4534 1
38 4743 1
39 1 1
39 2 1
39 8 1
39 27 1
39 41 1
39 71 1
39 73 1
39 174 1
39 298 1
39 313 1
39 345 1
39 361 1
39 580 1
39 594 1
39 787 1
39 937 1
39 939 1
39 1231 1
39 1349 1
39 1496 1
39 1707 1
39 1919 1
39 2116 1
39 3140 1
39 3815 1
39 3962 1
39 4206 1
39 4533 1
39 4688 1
39 4923 1
40 1 1
40 14 1
40 30 1
40 34 1
40 47 1
40 58 1
40 61 1
40 85 1
40 104 1
40 113 1
40 126 1
40 127 1
40 128 1
40 219 1
40 317 1
40 342 1
40 350 1
40 494 1
40 508 1
40 511 1
40 564 1
40 591 1
40 633 1
40 647 1
40 874 1
40 924 1
40 976 1
40 1220 1
40 1226 1
40 1245 1
40 1282 1
40 1624 1
40 1637 1
40 1829 1
40 1871 1
40 1956 1
40 2057 1
40 2070 1
40 2216 1
40 2356 1
40 2451 1
40 2482 1
40 2537 1
40 2571 1
40 2581 1
40 2715 1
40 2750 1
40 2809 1
40 2843 1
40 3014 1
40 3049 1
40 3196 1
40 3226 1
40 3471 1
40 3774 1
40 4082 1
40 4162 1
40 4279 1
40 4335 1
40 4436 1
40 4451 1
40 4663 1
40 4774 1
40 4810 1
41 1 1
41 3 1
41 17 1
41 39 1
41 43 1
41 64 1
41 92 1
41 204 1
41 239 1
41 244 1
41 270 1
41 703 1
41 983 1
41 1051 1
41 1192 1
41 1244 1
41 1603 1
41 1755 1
41 2744 1
41 2749 1
41 2877 1
41 3060 1
41 3224 1
41 3326 1
41 3464 1
41 3509 1
41 3610 1
41 3694 1
41 3810 1
42 3 1
42 14 1
42 26 1
42 36 1
42 44 1
42 89 1
42 163 1
42 182 1
42 211 1
42 230 1
42 454 1
42 462 1
42 640 1
42 682 1
42 723 1
42 771 1
42 1375 1
42 1725 1
42 2051 1
42 2147 1
42 2219 1
42 2357 1
42 2887 1
42 3297 1
42 3371 1
42 3589 1
42 3942 1
42 4442 1
42 4549 1
42 4551 1
42 4839 1
43 10 1
43 16 1
43 35 1
43 41 1
43 57 1
43 61 1
43 158 1
43 181 1
43 250 1
43 251 1
43 262 1
43 337 1
43 359 1
43 403 1
43 420 1
43 449 1
43 483 1
43 511 1
43 548 1
43 549 1
43 652 1
43 796 1
43 808 1
43 825 1
43 891 1
43 966 1
43 1053 1
43 1157 1
43 1172 1
43 1276 1
43 1290 1
43 1389 1
43 1466 1
43 1509 1
43 1641 1
43 1664 1
43 2036 1
43 2096 1
43 2107 1
43 2322 1
43 2339 1
43 2799 1
43 2824 1
43 3284 1
43 3346 1
43 3395 1
43 3483 1
43 3779 1
43 4046 1
43 4126 1
43 4406 1
43 4431 1
43 4519 1
43 4680 1
43 4719 1
43 4784 1
44 1 1
44 6 1
44 30 1
44 42 1
44 45 1
44 60 1
44 73 1
44 109 1
44 117 1
44 143 1
44 202 1
44 246 1
44 251 1
44 272 1
44 426 1
44 450 1
44 491 1
44 615 1
44 695 1
44 890 1
44 1504 1
44 1696 1
44 2047 1
44 2825 1
44 3558 1
44 3792 1
44 4111 1
44 4125 1
44 4563 1
45 1 1
45 22 1
45 30 1
45 44 1
45 58 1
45 104 1
45 151 1
45 156 1
45 160 1
45 178 1
45 197 1
45 209 1
45 230 1
45 233 1
45 245 1
45 283 1
45 299 1
45 304 1
45 313 1
45 374 1
45 383 1
45 390 1
45 391 1
45 449 1
45 471 1
45 503 1
45 570 1
45 593 1
45 627 1
45 653 1
45 655 1
45 669 1
45 721 1
45 772 1
45 896 1
45 898 1
45 968 1
45 1194 1
45 1198 1
45 1413 1
45 1530 1
45 1639 1
45 1654 1
45 1701 1
45 1715 1
45 1740 1
45 1858 1
45 1888 1
45 1910 1
45 1943 1
45 2067 1
45 2110 1
45 2114 1
45 2119 1
45 2178 1
45 2316 1
45 2570 1
45 2613 1
45 2708 1
45 2714 1
45 2956 1
45 3024 1
45 3120 1
45 3212 1
45 3313 1
45 3532 1
45 3535 1
45 3582 1
45 3590 1
45 3629 1
45 3720 1
45 3768 1
45 3807 1
45 3824 1
45 3876 1
45 3943 1
45 3975 1
45 4097 1
45 4155 1
45 4159 1
45 4201 1
45 4450 1
45 4759 1
45 4804 1
45 4825 1
45 4860 1
45 4864 1
45 4957 1
46 1 1
46 3 1
46 8 1
46 14 1
46 78 1
46 87 1
46 98 1
46 101 1
46 102 1
46 133 1
46 148 1
46 149 1
46 210 1
46 211 1
46 229 1
46 261 1
46 278 1
46 448 1
46 495 1
46 541 1
46 617 1
46 628 1
46 642 1
46 652 1
46 715 1
46 801 1
46 832 1
46 833 1
46 862 1
46 960 1
46 975 1
46 1017 1
46 1087 1
46 1132 1
46 1141 1
46 1173 1
46 1317 1
46 1347 1
46 1481 1
46 1506 1
46 1616 1
46 1730 1
46 1988 1
46 1998 1
46 2001 1
46 2006 1
46 2019 1
46 2084 1
46 2260 1
46 2261 1
46 2275 1
46 2378 1
46 2409 1
46 2462 1
46 2559 1
46 2661 1
46 2682 1
46 2801 1
46 2885 1
46 2960 1
46 3356 1
46 3406 1
46 3445 1
46 3491 1
46 3531 1
46 3779 1
46 3850 1
46 4008 1
46 4189 1
46 4197 1
46 4345 1
46 4435 1
46 4484 1
46 4686 1
47 8 1
47 27 1
47 30 1
47 40 1
47 56 1
47 94 1
47 239 1
47 287 1
47 323 1
47 1253 1
47 1560 1
47 1648 1
47 1885 1
47 1909 1
47 1926 1
47 2443 1
47 4109 1
47 4535 1
47 4881 1
47 4983 1
48 7 1
48 9 1
48 17 1
48 36 1
48 66 1
48 72 1
48 132 1
48 138 1
48 212 1
48 355 1
48 496 1
48 566 1
48 1036 1
48 1135 1
48 1337 1
48 1368 1
48 1690 1
48 1710 1
48 1818 1
48 2190 1
48 2400 1
48 2453 1
48 2662 1
48 3190 1
48 3263 1
48 3369 1
48 3517 1
48 3607 1
48 3987 1
48 3995 1
48 4029 1
48 4662 1
48 4780 1
49 1 1
49 6 1
49 7 1
49 24 1
49 87 1
49 94 1
49 101 1
49 180 1
49 224 1
49 318 1
49 441 1
49 444 1
49 726 1
49 1160 1
49 1510 1
49 1612 1
49 1961 1
49 2114 1
49 2478 1
49 2601 1
49 3084 1
50 3 1
50 6 1
50 9 1
50 36 1
50 62 1
50 82 1
50 110 1
50 176 1
50 288 1
50 381 1
50 807 1
50 895 1
50 1435 1
50 1632 1
50 2080 1
50 2214 1
50 2391 1
50 2606 1
50 2712 1
50 2875 1
50 2965 1
50 3059 1
50 3078 1
50 3479 1
50 4902 1
50 4937 1
51 7 1
51 20 1
51 23 1
51 30 1
51 52 1
51 78 1
51 83 1
51 129 1
51 133 1
51 153 1
51 164 1
51 352 1
51 359 1
51 585 1
51 589 1
51 619 1
51 669 1
51 767 1
51 773 1
51 892 1
51 904 1
51 1265 1
51 1309 1
51 1334 1
51 1348 1
51 1383 1
51 1532 1
51 1587 1
51 1658 1
51 1735 1
51 1861 1
51 1968 1
51 2128 1
51 2139 1
51 2189 1
51 2394 1
51 2562 1
51 2649 1
51 2741 1
51 2766 1
51 2896 1
51 3126 1
51 3229 1
51 3254 1
51 3259 1
51 3284 1
51 3347 1
51 3809 1
51 3896 1
51 3935 1
51 3937 1
51 4028 1
51 4228 1
51 4284 1
51 4326 1
51 4658 1
52 12 1
52 14 1
52 18 1
52 51 1
52 76 1
52 95 1
52 211 1
52 447 1
52 479 1
52 609 1
52 683 1
52 936 1
52 938 1
52 1027 1
52 1088 1
52 1129 1
52 1596 1
52 1667 1
52 1760 1
52 1764 1
52 1875 1
52 2065 1
52 2243 1
52 2557 1
52 2560 1
52 2696 1
52 2850 1
52 3017 1
52 3185 1
52 3355 1
52 3586 1
52 4128 1
52 4141 1
52 4283 1
52 4375 1
52 4665 1
52 4827 1
53 6 1
53 10 1
53 20 1
53 23 1
53 79 1
53 90 1
53 219 1
53 300 1
53 344 1
53 356 1
53 375 1
53 427 1
53 448 1
53 478 1
53 525 1
53 545 1
53 547 1
53 562 1
53 677 1
53 881 1
53 912 1
53 919 1
53 928 1
53 964 1
53 1066 1
53 1076 1
53 1184 1
53 1260 1
53 1472 1
53 1493 1
53 1584 1
53 1857 1
53 1950 1
53 2124 1
53 2204 1
53 2235 1
53 2236 1
53 2237 1
53 2345 1
53 2436 1
53 2467 1
53 2660 1
53 2694 1
53 2710 1
53 2724 1
53 3148 1
53 3207 1
53 3771 1
53 3833 1
53 3891 1
53 3921 1
53 4030 1
53 4353 1
53 4458 1
53 4613 1
53 4779 1
53 4831 1
53 4852 1
53 4964 1
53 4989 1
54 7 1
54 11 1
54 13 1
54 32 1
54 79 1
54 115 1
54 123 1
54 220 1
54 285 1
54 316 1
54 336 1
54 381 1
54 384 1
54 424 1
54 439 1
54 443 1
54 457 1
54 483 1
54 537 1
54 651 1
54 675 1
54 689 1
54 695 1
54 710 1
54 836 1
54 1070 1
54 1190 1
54 1302 1
54 1397 1
54 1609 1
54 1929 1
54 1939 1
54 2189 1
54 2215 1
54 2253 1
54 2352 1
54 2406 1
54 2460 1
54 2645 1
54 2919 1
54 3098 1
54 3191 1
54 3617 1
54 3786 1
54 3794 1
54 3815 1
54 4039 1
54 4040 1
54 4047 1
54 4092 1
54 4330 1
54 4440 1
54 4587 1
54 4780 1
54 4883 1
54 4985 1
55 1 1
55 6 1
55 9 1
55 38 1
55 94 1
55 98 1
55 106 1
55 121 1
55 139 1
55 145 1
55 214 1
55 338 1
55 417 1
55 705 1
55 1137 1
55 1139 1
55 1308 1
55 1575 1
55 2157 1
55 2160 1
55 2421 1
55 2491 1
55 2621 1
55 3008 1
55 3301 1
55 3462 1
55 3838 1
55 3862 1
55 4309 1
55 4890 1
56 5 1
56 10 1
56 14 1
56 47 1
56 63 1
56 74 1
56 85 1
56 154 1
56 296 1
56 346 1
56 430 1
56 471 1
56 685 1
56 706 1
56 749 1
56 842 1
56 902 1
56 913 1
56 968 1
56 1005 1
56 1129 1
56 1181 1
56 1210 1
56 1243 1
56 1265 1
56 1269 1
56 1316 1
56 1338 1
56 1403 1
56 1423 1
56 1434 1
56 1680 1
56 1767 1
56 1769 1
56 1794 1
56 1845 1
56 1966 1
56 1997 1
56 2029 1
56 2068 1
56 2116 1
56 2121 1
56 2156 1
56 2191 1
56 2224 1
56 2474 1
56 2600 1
56 2996 1
56 3317 1
56 3358 1
56 3399 1
56 3494 1
56 3960 1
56 4072 1
56 4866 1
56 4923 1
56 4973 1
57 5 1
57 9 1
57 13 1
57 43 1
57 119 1
57 147 1
57 523 1
57 527 1
57 931 1
57 1625 1
57 2203 1
57 2338 1
57 2361 1
57 2448 1
57 2470 1
57 2688 1
57 2883 1
57 3102 1
57 3972 1
57 4648 1
57 4915 1
58 8 1
58 22 1
58 40 1
58 45 1
58 65 1
58 91 1
58 97 1
58 114 1
58 123 1
58 136 1
58 143 1
58 177 1
58 196 1
58 236 1
58 259 1
58 301 1
58 321 1
58 385 1
58 416 1
58 473 1
58 558 1
58 580 1
58 600 1
58 614 1
58 657 1
58 742 1
58 786 1
58 1128 1
58 1154 1
58 1177 1
58 1227 1
58 1275 1
58 1302 1
58 1310 1
58 1330 1
58 1448 1
58 1581 1
58 1599 1
58 1651 1
58 1652 1
58 1677 1
58 1915 1
58 2142 1
58 2202 1
58 2267 1
58 2362 1
58 2426 1
58 2567 1
58 2809 1
58 2859 1
58 3023 1
58 3434 1
58 3729 1
58 3751 1
58 3759 1
58 3979 1
58 3983 1
58 3993 1
58 4244 1
58 4284 1
58 4848 1
58 4939 1
59 6 1
59 11 1
59 30 1
59 34 1
59 234 1
59 370 1
59 705 1
59 1784 1
59 2391 1
59 2626 1
59 2862 1
59 3120 1
59 3232 1
59 3577 1
59 3842 1
59 4219 1
59 4652 1
60 1 1
60 2 1
60 6 1
60 44 1
60 206 1
60 225 1
60 335 1
60 434 1
60 1129 1
60 1298 1
60 1515 1
60 1795 1
60 1817 1
60 2123 1
60 2240 1
60 3038 1
60 3070 1
60 3143 1
60 3450 1
60 3523 1
60 3530 1
60 3775 1
60 3939 1
60 4366 1
60 4580 1
61 1 1
61 13 1
61 40 1
61 43 1
61 80 1
61 93 1
61 96 1
61 186 1
61 243 1
61 252 1
61 254 1
61 290 1
61 309 1
61 315 1
61 371 1
61 400 1
61 405 1
61 427 1
61 450 1
61 463 1
61 568 1
61 638 1
61 661 1
61 704 1
61 715 1
61 732 1
61 771 1
61 786 1
61 809 1
61 817 1
61 834 1
61 874 1
61 891 1
61 1052 1
61 1055 1
61 1107 1
61 1127 1
61 1146 1
61 1226 1
61 1415 1
61 1448 1
61 1572 1
61 1614 1
61 1974 1
61 2002 1
61 2024 1
61 2264 1
61 2321 1
61 2336 1
61 2382 1
61 2424 1
61 2670 1
61 2700 1
61 2874 1
61 3122 1
61 3192 1
61 3321 1
61 3339 1
61 3358 1
61 3532 1
61 3612 1
61 3648 1
61 3731 1
61 4003 1
61 4012 1
61 4052 1
61 4129 1
61 4258 1
61 4276 1
61 4341 1
61 4870 1
62 1 1
62 3 1
62 15 1
62 50 1
62 90 1
62 156 1
62 212 1
62 249 1
62 365 1
62 508 1
62 636 1
62 800 1
62 907 1
62 1065 1
62 1563 1
62 1572 1
62 1602 1
62 1749 1
62 1949 1
62 2200 1
62 2214 1
62 2965 1
62 3069 1
62 3212 1
62 3296 1
62 3429 1
62 3659 1
62 3703 1
62 3921 1
62 4130 1
62 4216 1
62 4294 1
62 4298 1
62 4457 1
63 5 1
63 27 1
63 34 1
63 56 1
63 166 1
63 235 1
63 286 1
63 768 1
63 834 1
63 1104 1
63 1130 1
63 1604 1
63 1711 1
63 2209 1
63 2260 1
63 2439 1
63 2830 1
63 3005 1
63 3101 1
63 3432 1
63 3526 1
63 3555 1
63 3875 1
63 3913 1
63 4288 1
64 3 1
64 7 1
64 27 1
64 41 1
64 107 1
64 109 1
64 171 1
64 181 1
64 779 1
64 900 1
64 961 1
64 1222 1
64 1331 1
64 1456 1
64 1974 1
64 2092 1
64 2411 1
64 2666 1
64 3194 1
64 3534 1
64 3968 1
64 4227 1
65 8 1
65 12 1
65 38 1
65 58 1
65 97 1
65 153 1
65 203 1
65 241 1
65 253 1
65 583 1
65 624 1
65 1013 1
65 1068 1
65 1087 1
65 1250 1
65 1299 1
65 1344 1
65 1386 1
65 1557 1
65 1610 1
65 1613 1
65 1863 1
65 1879 1
65 1942 1
65 2173 1
65 2263 1
65 2492 1
65 2529 1
65 2559 1
65 2565 1
65 2648 1
65 2849 1
65 2934 1
65 3127 1
65 3267 1
65 3614 1
65 3770 1
65 4657 1
65 4723 1
65 4795 1
66 7 1
66 14 1
66 37 1
66 48 1
66 82 1
66 83 1
66 162 1
66 267 1
66 289 1
66 397 1
66 398 1
66 457 1
66 466 1
66 578 1
66 580 1
66 581 1
66 592 1
66 617 1
66 672 1
66 681 1
66 763 1
66 764 1
66 1136 1
66 1166 1
66 1331 1
66 1429 1
66 1512 1
66 1582 1
66 1594 1
66 1626 1
66 1675 1
66 1689 1
66 1966 1
66 2016 1
66 2332 1
66 2580 1
66 2831 1
66 3798 1
66 4027 1
66 4083 1
66 4449 1
66 4530 1
66 4650 1
66 4927 1
66 4983 1
67 7 1
67 14 1
67 21 1
67 31 1
67 119 1
67 170 1
67 890 1
67 1334 1
67 1452 1
67 1521 1
67 1644 1
67 2254 1
67 2892 1
67 2897 1
67 3061 1
67 3161 1
67 4081 1
67 4252 1
67 4512 1
67 4597 1
68 5 1
68 6 1
68 21 1
68 28 1
68 151 1
68 208 1
68 325 1
68 408 1
68 411 1
68 699 1
68 710 1
68 1053 1
68 1975 1
68 2086 1
68 2140 1
68 2345 1
68 3616 1
68 3677 1
68 3881 1
68 4144 1
69 5 1
69 6 1
69 20 1
69 27 1
69 80 1
69 219 1
69 275 1
69 336 1
69 569 1
69 628 1
69 1116 1
69 1339 1
69 1353 1
69 1670 1
69 2418 1
69 3007 1
69 4444 1
70 1 1
70 20 1
70 27 1
70 36 1
70 121 1
70 309 1
70 382 1
70 651 1
70 799 1
70 939 1
70 1019 1
70 1261 1
70 1525 1
70 3878 1
70 4050 1
71 1 1
71 17 1
71 22 1
71 39 1
71 238 1
71 260 1
71 284 1
71 446 1
71 499 1
71 512 1
71 674 1
71 750 1
71 835 1
71 955 1
71 980 1
71 1033 1
71 1402 1
71 1544 1
71 1558 1
71 1727 1
71 2144 1
71 2148 1
71 2466 1
71 2648 1
71 2851 1
71 2880 1
71 3122 1
71 3313 1
71 3410 1
71 3476 1
71 3530 1
71 3943 1
71 3978 1
71 4145 1
71 4308 1
71 4320 1
71 4812 1
72 1 1
72 2 1
72 3 1
72 48 1
72 99 1
72 101 1
72 116 1
72 145 1
72 233 1
72 304 1
72 320 1
72 696 1
72 785 1
72 831 1
72 1251 1
72 1338 1
72 1341 1
72 1351 1
72 1368 1
72 1370 1
72 1467 1
72 2077 1
72 2199 1
72 2246 1
72 2319 1
72 2618 1
72 2667 1
72 2765 1
72 2872 1
72 3062 1
72 3119 1
72 3155 1
72 3381 1
72 3386 1
72 3406 1
72 3422 1
72 3567 1
72 3693 1
72 3803 1
72 3996 1
72 4232 1
72 4663 1
72 4944 1
73 6 1
73 32 1
73 39 1
73 44 1
73 93 1
73 132 1
73 242 1
73 251 1
73 258 1
73 339 1
73 408 1
73 465 1
73 535 1
73 660 1
73 1181 1
73 1512 1
73 1709 1
73 1866 1
73 1907 1
73 2310 1
73 2517 1
73 3157 1
73 3279 1
73 3293 1
73 3971 1
73 4018 1
74 6 1
74 9 1
74 34 1
74 56 1
74 75 1
74 79 1
74 111 1
74 117 1
74 137 1
74 146 1
74 167 1
74 194 1
74 279 1
74 287 1
74 335 1
74 341 1
74 353 1
74 363 1
74 418 1
74 451 1
74 595 1
74 664 1
74 724 1
74 791 1
74 822 1
74 838 1
74 1147 1
74 1166 1
74 1186 1
74 1285 1
74 1288 1
74 1312 1
74 1376 1
74 1580 1
74 1725 1
74 2141 1
74 2194 1
74 2332 1
74 2428 1
74 2454 1
74 2457 1
74 2501 1
74 2682 1
74 2994 1
74 3156 1
74 3168 1
74 3282 1
74 3662 1
74 3753 1
74 3778 1
74 3956 1
74 4025 1
74 4550 1
74 4624 1
74 4660 1
74 4985 1
75 6 1
75 17 1
75 27 1
75 74 1
75 106 1
75 168 1
75 221 1
75 294 1
75 311 1
75 411 1
75 427 1
75 519 1
75 644 1
75 679 1
75 805 1
75 1005 1
75 1064 1
75 1232 1
75 1461 1
75 1519 1
75 1887 1
75 1896 1
75 1970 1
75 1980 1
75 2042 1
75 2100 1
75 2396 1
75 2440 1
75 2495 1
75 2572 1
75 2585 1
75 2635 1
75 2940 1
75 3225 1
75 3392 1
75 3935 1
75 4085 1
75 4420 1
75 4562 1
75 4651 1
76 12 1
76 29 1
76 34 1
76 52 1
76 127 1
76 129 1
76 139 1
76 312 1
76 330 1
76 386 1
76 403 1
76 421 1
76 432 1
76 436 1
76 445 1
76 613 1
76 630 1
76 638 1
76 662 1
76 753 1
76 1072 1
76 1098 1
76 1229 1
76 1279 1
76 1343 1
76 1417 1
76 1438 1
76 1511 1
76 1552 1
76 1628 1
76 1665 1
76 1876 1
76 1924 1
76 2032 1
76 2226 1
76 2242 1
76 2265 1
76 2318 1
76 2435 1
76 2467 1
76 2622 1
76 2630 1
76 2632 1
76 2685 1
76 2820 1
76 2844 1
76 3012 1
76 3103 1
76 3209 1
76 3508 1
76 3567 1
76 3764 1
76 3782 1
76 3913 1
76 4068 1
76 4088 1
76 4105 1
76 4187 1
76 4290 1
76 4340 1
76 4400 1
76 4525 1
76 4610 1
77 2 1
77 3 1
77 36 1
77 38 1
77 91 1
77 100 1
77 115 1
77 117 1
77 156 1
77 203 1
77 220 1
77 227 1
77 414 1
77 773 1
77 933 1
77 1225 1
77 1486 1
77 1851 1
77 1877 1
77 1878 1
77 2221 1
77 2353 1
77 2380 1
77 2466 1
77 2701 1
77 3184 1
77 3618 1
77 3656 1
77 3706 1
77 3766 1
77 3832 1
77 3843 1
77 4228 1
77 4910 1
78 6 1
78 14 1
78 46 1
78 51 1
78 189 1
78 192 1
78 255 1
78 308 1
78 325 1
78 361 1
78 557 1
78 590 1
78 657 1
78 658 1
78 830 1
78 885 1
78 922 1
78 952 1
78 998 1
78 1012 1
78 1048 1
78 1263 1
78 1313 1
78 1491 1
78 1554 1
78 1644 1
78 1665 1
78 1718 1
78 1893 1
78 2053 1
78 2205 1
78 2285 1
78 2293 1
78 2413 1
78 2511 1
78 2543 1
78 2637 1
78 2676 1
78 3019 1
78 3087 1
78 3137 1
78 3181 1
78 3326 1
78 3392 1
78 3651 1
78 3685 1
78 3741 1
78 3821 1
78 3948 1
78 4070 1
78 4150 1
78 4195 1
78 4265 1
78 4532 1
78 4621 1
78 4936 1
79 8 1
79 53 1
79 54 1
79 74 1
79 96 1
79 283 1
79 1056 1
79 2780 1
79 2991 1
79 3338 1
79 3631 1
79 4462 1
80 3 1
80 32 1
80 61 1
80 69 1
80 122 1
80 173 1
80 349 1
80 402 1
80 715 1
80 824 1
80 915 1
80 970 1
80 1520 1
80 1535 1
80 1607 1
80 1625 1
80 2271 1
80 2482 1
80 2571 1
80 2707 1
80 3225 1
80 3561 1
80 3574 1
80 4259 1
81 8 1
81 23 1
81 31 1
81 36 1
81 179 1
81 205 1
81 232 1
81 278 1
81 316 1
81 327 1
81 586 1
81 941 1
81 990 1
81 1042 1
81 1061 1
81 1109 1
81 1155 1
81 1263 1
81 1369 1
81 1482 1
81 1538 1
81 1793 1
81 2196 1
81 2222 1
81 2232 1
81 2247 1
81 2304 1
81 2323 1
81 2456 1
81 2486 1
81 2655 1
81 2677 1
81 3153 1
81 3340 1
81 3494 1
81 3728 1
81 3933 1
81 4090 1
81 4121 1
81 4130 1
81 4601 1
81 4741 1
82 6 1
82 27 1
82 50 1
82 66 1
82 99 1
82 102 1
82 122 1
82 184 1
82 246 1
82 254 1
82 284 1
82 324 1
82 389 1
82 596 1
82 601 1
82 606 1
82 663 1
82 680 1
82 685 1
82 850 1
82 883 1
82 1055 1
82 1125 1
82 1285 1
82 1523 1
82 1524 1
82 1576 1
82 1648 1
82 1849 1
82 1854 1
82 2178 1
82 2738 1
82 3185 1
82 4199 1
82 4364 1
82 4456 1
82 4719 1
83 10 1
83 13 1
83 51 1
83 66 1
83 228 1
83 325 1
83 391 1
83 1199 1
83 1436 1
83 2615 1
83 2940 1
83 3215 1
83 3311 1
83 3425 1
84 14 1
84 19 1
84 23 1
84 30 1
84 197 1
84 219 1
84 326 1
84 395 1
84 579 1
84 864 1
84 950 1
84 973 1
84 1196 1
84 1441 1
84 1572 1
84 1673 1
84 2702 1
84 3638 1
84 4592 1
84 4662 1
85 19 1
85 32 1
85 40 1
85 56 1
85 136 1
85 158 1
85 237 1
85 245 1
85 270 1
85 291 1
85 294 1
85 352 1
85 358 1
85 535 1
85 574 1
85 576 1
85 593 1
85 605 1
85 714 1
85 733 1
85 897 1
85 1026 1
85 1034 1
85 1145 1
85 1149 1
85 1193 1
85 1223 1
85 1778 1
85 1788 1
85 1821 1
85 1893 1
85 1913 1
85 2060 1
85 2248 1
85 2313 1
85 2423 1
85 2438 1
85 2780 1
85 2793 1
85 2834 1
85 2872 1
85 3014 1
85 3114 1
85 3204 1
85 3286 1
85 3610 1
85 3969 1
85 4353 1
85 4384 1
85 4430 1
85 4482 1
85 4612 1
85 4634 1
85 4636 1
85 4940 1
86 2 1
86 3 1
86 7 1
86 23 1
86 91 1
86 276 1
86 299 1
86 369 1
86 396 1
86 597 1
86 690 1
86 727 1
86 790 1
86 912 1
86 1467 1
86 1693 1
86 2369 1
86 2519 1
86 3631 1
86 4316 1
86 4426 1
87 1 1
87 11 1
87 46 1
87 49 1
87 105 1
87 127 1
87 128 1
87 181 1
87 213 1
87 231 1
87 239 1
87 264 1
87 386 1
87 555 1
87 625 1
87 719 1
87 957 1
87 1324 1
87 1474 1
87 1542 1
87 1692 1
87 1746 1
87 2025 1
87 2997 1
87 3082 1
87 3360 1
87 3735 1
87 3855 1
87 4332 1
87 4408 1
87 4516 1
87 4741 1
87 4873 1
88 2 1
88 12 1
88 18 1
88 21 1
88 90 1
88 102 1
88 103 1
88 222 1
88 238 1
88 479 1
88 485 1
88 601 1
88 792 1
88 820 1
88 936 1
88 979 1
88 981 1
88 1044 1
88 1058 1
88 1121 1
88 1253 1
88 1293 1
88 1461 1
88 1603 1
88 1793 1
88 1899 1
88 2266 1
88 2350 1
88 2553 1
88 2623 1
88 2758 1
88 2877 1
88 2879 1
88 3416 1
88 3547 1
88 3630 1
88 4031 1
88 4126 1
88 4459 1
89 17 1
89 29 1
89 36 1
89 42 1
89 110 1
89 206 1
89 271 1
89 568 1
89 720 1
89 1588 1
89 1868 1
89 1871 1
89 1901 1
89 2040 1
89 2147 1
89 2691 1
89 3039 1
89 4574 1
90 18 1
90 53 1
90 62 1
90 88 1
90 169 1
90 182 1
90 224 1
90 282 1
90 289 1
90 318 1
90 400 1
90 483 1
90 540 1
90 642 1
90 709 1
90 914 1
90 1054 1
90 1831 1
90 1936 1
90 1940 1
90 2574 1
90 3060 1
90 3075 1
90 3247 1
90 3281 1
90 3964 1
90 4534 1
90 4813 1
90 4938 1
90 4941 1
91 8 1
91 58 1
91 77 1
91 86 1
91 145 1
91 174 1
91 201 1
91 209 1
91 255 1
91 304 1
91 358 1
91 390 1
91 414 1
91 431 1
91 475 1
91 505 1
91 528 1
91 554 1
91 604 1
91 655 1
91 677 1
91 886 1
91 911 1
91 1149 1
91 1195 1
91 1242 1
91 1262 1
91 1415 1
91 1456 1
91 1657 1
91 1676 1
91 1699 1
91 1999 1
91 2235 1
91 2270 1
91 2328 1
91 2427 1
91 2539 1
91 2727 1
91 2745 1
91 2810 1
91 2817 1
91 2954 1
91 3125 1
91 3160 1
91 3271 1
91 3390 1
91 3424 1
91 3440 1
91 3521 1
91 3602 1
91 3618 1
91 3780 1
91 3788 1
91 4259 1
91 4791 1
91 4904 1
92 9 1
92 18 1
92 29 1
92 41 1
92 113 1
92 343 1
92 375 1
92 662 1
92 782 1
92 833 1
92 982 1
92 1123 1
92 1668 1
92 1937 1
92 1979 1
92 2017 1
92 2902 1
92 3099 1
92 3126 1
92 3988 1
92 3996 1
92 4970 1
93 16 1
93 33 1
93 61 1
93 73 1
93 124 1
93 199 1
93 236 1
93 351 1
93 410 1
93 583 1
93 770 1
93 1182 1
93 1366 1
93 1568 1
93 1751 1
93 1753 1
93 2099 1
93 2151 1
93 2238 1
93 2266 1
93 2333 1
93 2683 1
93 3174 1
93 3220 1
93 3484 1
93 3531 1
93 3672 1
93 4021 1
93 4117 1
93 4253 1
93 4320 1
93 4388 1
93 4673 1
93 4749 1
94 7 1
94 47 1
94 49 1
94 55 1
94 141 1
94 170 1
94 295 1
94 327 1
94 339 1
94 404 1
94 424 1
94 450 1
94 887 1
94 909 1
94 1025 1
94 1394 1
94 1426 1
94 1433 1
94 1444 1
94 1540 1
94 1785 1
94 1854 1
94 1911 1
94 1975 1
94 2014 1
94 2179 1
94 2460 1
94 2476 1
94 3250 1
94 3829 1
94 3925 1
94 4039 1
94 4666 1
94 4844 1
94 4929 1
95 6 1
95 7 1
95 38 1
95 52 1
95 100 1
95 192 1
95 258 1
95 265 1
95 274 1
95 288 1
95 305 1
95 328 1
95 354 1
95 371 1
95 464 1
95 490 1
95 507 1
95 526 1
95 542 1
95 878 1
95 897 1
95 1287 1
95 1373 1
95 1518 1
95 1661 1
95 2298 1
95 2428 1
95 2582 1
95 2981 1
95 3155 1
95 3397 1
95 3681 1
95 3782 1
95 3864 1
95 4491 1
95 4692 1
95 4693 1
96 1 1
96 11 1
96 61 1
96 79 1
96 139 1
96 144 1
96 168 1
96 213 1
96 243 1
96 343 1
96 408 1
96 684 1
96 984 1
96 1161 1
96 1230 1
96 1264 1
96 1379 1
96 1444 1
96 1750 1
96 1873 1
96 1915 1
96 2049 1
96 2198 1
96 3138 1
96 4059 1
96 4504 1
96 4596 1
96 4796 1
96 4808 1
97 12 1
97 36 1
97 58 1
97 65 1
97 118 1
97 169 1
97 425 1
97 431 1
97 551 1
97 597 1
97 752 1
97 1156 1
97 1797 1
97 1865 1
97 2071 1
97 2189 1
97 2398 1
97 2412 1
97 2792 1
97 2816 1
97 3071 1
97 3404 1
98 6 1
98 7 1
98 46 1
98 55 1
98 162 1
98 188 1
98 384 1
98 433 1
98 471 1
98 506 1
98 572 1
98 625 1
98 728 1
98 731 1
98 771 1
98 865 1
98 898 1
98 949 1
98 1333 1
98 1383 1
98 1466 1
98 1646 1
98 1753 1
98 1802 1
98 1827 1
98 1887 1
98 1900 1
98 2633 1
98 2647 1
98 2722 1
98 2796 1
98 2933 1
98 2995 1
98 3399 1
98 3444 1
98 3532 1
98 3602 1
98 3682 1
98 3737 1
98 4147 1
98 4174 1
98 4446 1
98 4690 1
98 4837 1
99 6 1
99 16 1
99 72 1
99 82 1
99 111 1
99 113 1
99 123 1
99 171 1
99 179 1
99 238 1
99 256 1
99 473 1
99 547 1
99 597 1
99 778 1
99 909 1
99 1071 1
99 1087 1
99 1158 1
99 1350 1
99 1404 1
99 1522 1
99 1576 1
99 1645 1
99 1759 1
99 1814 1
99 1916 1
99 2244 1
99 2703 1
99 2963 1
99 3594 1
99 3894 1
99 3971 1
99 4467 1
99 4841 1
99 4885 1
100 9 1
100 33 1
100 77 1
100 95 1
100 135 1
100 141 1
100 142 1
100 299 1
100 328 1
100 342 1
100 373 1
100 432 1
100 494 1
100 790 1
100 860 1
100 1076 1
100 1339 1
100 1488 1
100 1524 1
100 1684 1
100 1801 1
100 1921 1
100 2139 1
100 2335 1
100 2386 1
100 2600 1
100 3105 1
100 3202 1
100 3695 1
100 4216 1
100 4419 1
100 4645 1
100 4896 1
101 9 1
101 46 1
101 49 1
101 72 1
101 161 1
101 188 1
101 208 1
101 209 1
101 225 1
101 423 1
101 505 1
101 815 1
101 865 1
101 1040 1
101 1120 1
101 1271 1
101 1702 1
101 2054 1
101 2163 1
101 2654 1
101 2662 1
101 2760 1
101 3213 1
101 3529 1
101 3797 1
101 3934 1
102 11 1
102 46 1
102 82 1
102 88 1
102 122 1
102 131 1
102 157 1
102 160 1
102 177 1
102 247 1
102 270 1
102 301 1
102 495 1
102 561 1
102 576 1
102 712 1
102 863 1
102 1258 1
102 1446 1
102 1617 1
102 2282 1
102 2378 1
102 2426 1
102 2710 1
102 2913 1
102 2953 1
102 3034 1
102 3628 1
102 3799 1
102 4043 1
102 4443 1
102 4744 1
102 4886 1
103 8 1
103 20 1
103 23 1
103 88 1
103 141 1
103 183 1
103 184 1
103 188 1
103 257 1
103 280 1
103 351 1
103 377 1
103 630 1
103 689 1
103 718 1
103 1297 1
103 1424 1
103 1554 1
103 1620 1
103 1786 1
103 1813 1
103 1897 1
103 2059 1
103 2183 1
103 2403 1
103 2477 1
103 2664 1
103 3066 1
103 3083 1
103 3816 1
103 4107 1
103 4312 1
103 4328 1
103 4742 1
103 4994 1
104 7 1
104 24 1
104 40 1
104 45 1
104 295 1
104 450 1
104 461 1
104 496 1
104 1197 1
104 1698 1
104 2552 1
104 2793 1
104 2959 1
104 3355 1
104 3362 1
104 4514 1
104 4616 1
105 1 1
105 6 1
105 18 1
105 87 1
105 112 1
105 141 1
105 163 1
105 174 1
105 199 1
105 346 1
105 406 1
105 417 1
105 444 1
105 562 1
105 727 1
105 781 1
105 1026 1
105 1041 1
105 1113 1
105 1187 1
105 1561 1
105 1729 1
105 1766 1
105 1813 1
105 2108 1
105 2268 1
105 2641 1
105 2825 1
105 2890 1
105 4585 1
105 4691 1
105 4846 1
106 6 1
106 8 1
106 55 1
106 75 1
106 137 1
106 144 1
106 186 1
106 197 1
106 206 1
106 249 1
106 283 1
106 328 1
106 338 1
106 388 1
106 397 1
106 543 1
106 697 1
106 734 1
106 775 1
106 784 1
106 900 1
106 945 1
106 997 1
106 1046 1
106 1109 1
106 1192 1
106 1237 1
106 1271 1
106 1322 1
106 1461 1
106 1652 1
106 1771 1
106 1788 1
106 1796 1
106 1846 1
106 2108 1
106 2138 1
106 2197 1
106 2287 1
106 2568 1
106 2580 1
106 2657 1
106 2804 1
106 2850 1
106 2907 1
106 3155 1
106 3231 1
106 3499 1
106 3506 1
106 3509 1
106 3706 1
106 3806 1
107 13 1
107 21 1
107 28 1
107 64 1
107 148 1
107 152 1
107 155 1
107 226 1
107 418 1
107 689 1
107 1259 1
107 1273 1
107 1411 1
107 1558 1
107 2099 1
107 2664 1
107 2868 1
107 3186 1
107 3708 1
107 3713 1
107 3740 1
107 3764 1
107 4509 1
107 4686 1
107 4750 1
107 4885 1
108 5 1
108 6 1
108 28 1
108 36 1
108 130 1
108 145 1
108 147 1
108 202 1
108 305 1
108 394 1
108 403 1
108 866 1
108 1192 1
108 1322 1
108 1401 1
108 1413 1
108 1500 1
108 1505 1
108 1509 1
108 1592 1
108 1837 1
108 1947 1
108 1971 1
108 2134 1
108 2343 1
108 2384 1
108 2812 1
108 2831 1
108 2914 1
108 3371 1
108 3469 1
108 3711 1
108 3715 1
108 4245 1
108 4382 1
108 4478 1
108 4627 1
108 4701 1
108 4754 1
108 4789 1
109 7 1
109 14 1
109 44 1
109 64 1
109 120 1
109 229 1
109 237 1
109 316 1
109 440 1
109 446 1
109 459 1
109 475 1
109 501 1
109 516 1
109 630 1
109 807 1
109 858 1
109 877 1
109 977 1
109 1087 1
109 1224 1
109 1462 1
109 1924 1
109 2354 1
109 2707 1
109 2754 1
109 2773 1
109 2826 1
109 2905 1
109 2952 1
109 3040 1
109 3067 1
109 3075 1
109 3489 1
109 4093 1
109 4152 1
109 4197 1
109 4397 1
109 4408 1
109 4425 1
109 4559 1
110 1 1
110 32 1
110 50 1
110 89 1
110 274 1
110 331 1
110 360 1
110 443 1
110 459 1
110 476 1
110 608 1
110 983 1
110 1235 1
110 1279 1
110 1376 1
110 2086 1
110 2276 1
110 3183 1
110 3243 1
110 4466 1
110 4646 1
111 6 1
111 20 1
111 74 1
111 99 1
111 116 1
111 117 1
111 126 1
111 130 1
111 210 1
111 321 1
111 323 1
111 346 1
111 474 1
111 476 1
111 616 1
111 1115 1
111 1607 1
111 1752 1
111 2023 1
111 2282 1
111 2329 1
111 2340 1
111 2362 1
111 2398 1
111 2501 1
111 2557 1
111 2717 1
111 3069 1
111 3164 1
111 3204 1
111 3411 1
111 3565 1
111 4240 1
112 11 1
112 27 1
112 30 1
112 105 1
112 315 1
112 686 1
112 764 1
112 1072 1
112 1384 1
112 3209 1
112 3857 1
112 4287 1
112 4770 1
113 23 1
113 40 1
113 92 1
113 99 1
113 134 1
113 307 1
113 484 1
113 617 1
113 736 1
113 791 1
113 800 1
113 1179 1
113 1250 1
113 1300 1
113 1517 1
113 1582 1
113 1707 1
113 1898 1
113 1901 1
113 1981 1
113 2051 1
113 2144 1
113 2276 1
113 2314 1
113 2364 1
113 3104 1
113 3396 1
113 3752 1
113 4011 1
113 4196 1
113 4988 1
114 14 1
114 23 1
114 27 1
114 58 1
114 131 1
114 262 1
114 716 1
114 929 1
114 1021 1
114 1205 1
114 1327 1
114 1455 1
114 1813 1
114 3011 1
114 3144 1
114 3440 1
114 3579 1
114 3632 1
114 4464 1
115 7 1
115 26 1
115 54 1
115 77 1
115 131 1
115 201 1
115 202 1
115 214 1
115 294 1
115 731 1
115 741 1
115 769 1
115 876 1
115 974 1
115 1053 1
115 1215 1
115 1254 1
115 1369 1
115 1377 1
115 1416 1
115 1686 1
115 2232 1
115 2298 1
115 2659 1
115 2734 1
115 2793 1
115 2948 1
115 2967 1
115 3016 1
115 3146 1
115 3258 1
115 3433 1
115 4501 1
116 14 1
116 36 1
116 72 1
116 111 1
116 123 1
116 205 1
116 252 1
116 624 1
116 744 1
116 748 1
116 806 1
116 993 1
116 1120 1
116 1468 1
116 1489 1
116 2264 1
116 2530 1
116 2643 1
116 2861 1
116 3848 1
116 3887 1
116 3927 1
116 4655 1
116 4818 1
117 44 1
117 74 1
117 77 1
117 111 1
117 119 1
117 120 1
117 166 1
117 198 1
117 241 1
117 267 1
117 322 1
117 376 1
117 458 1
117 498 1
117 546 1
117 590 1
117 692 1
117 701 1
117 708 1
117 804 1
117 827 1
117 918 1
117 1069 1
117 1235 1
117 1244 1
117 1270 1
117 1317 1
117 1393 1
117 1396 1
117 1459 1
117 1551 1
117 1593 1
117 1613 1
117 1817 1
117 1882 1
117 1927 1
117 2156 1
117 2385 1
117 2739 1
117 2829 1
117 2835 1
117 2853 1
117 2918 1
117 3007 1
117 3269 1
117 3597 1
117 3646 1
117 3767 1
117 3800 1
117 4042 1
117 4117 1
117 4124 1
117 4179 1
117 4229 1
117 4568 1
117 4834 1
117 4840 1
117 4911 1
117 4950 1
117 4965 1
118 1 1
118 9 1
118 11 1
118 97 1
118 167 1
118 190 1
118 276 1
118 318 1
118 324 1
118 409 1
118 858 1
118 943 1
118 1084 1
118 1477 1
118 1498 1
118 1517 1
118 1616 1
118 1673 1
118 1836 1
118 1863 1
118 1889 1
118 1978 1
118 2101 1
118 2128 1
118 2135 1
118 2186 1
118 2408 1
118 2534 1
118 2562 1
118 2661 1
118 2674 1
118 2794 1
118 3404 1
118 3823 1
118 4131 1
118 4136 1
119 34 1
119 57 1
119 67 1
119 117 1
119 165 1
119 379 1
119 599 1
119 712 1
119 746 1
119 979 1
119 1112 1
119 3152 1
119 3365 1
119 4667 1
119 4888 1
120 8 1
120 24 1
120 109 1
120 117 1
120 296 1
120 348 1
120 395 1
120 541 1
120 573 1
120 640 1
120 827 1
120 833 1
120 981 1
120 1221 1
120 1301 1
120 1815 1
120 1864 1
120 2046 1
120 2103 1
120 2544 1
120 2650 1
120 2728 1
120 2998 1
120 3054 1
120 3164 1
120 3514 1
120 3670 1
120 4078 1
120 4438 1
120 4618 1
121 31 1
121 38 1
121 55 1
121 70 1
121 158 1
121 190 1
121 240 1
121 259 1
121 260 1
121 286 1
121 470 1
121 620 1
121 700 1
121 863 1
121 906 1
121 1382 1
121 1554 1
121 1612 1
121 1718 1
121 1776 1
121 1851 1
121 2100 1
121 2533 1
121 3397 1
121 3576 1
121 4531 1
121 4604 1
122 26 1
122 80 1
122 82 1
122 102 1
122 146 1
122 222 1
122 448 1
122 498 1
122 526 1
122 572 1
122 683 1
122 904 1
122 1014 1
122 1073 1
122 1626 1
122 1805 1
122 1806 1
122 2464 1
122 2637 1
122 3275 1
122 3326 1
122 3415 1
122 3486 1
122 4563 1
123 54 1
123 58 1
123 99 1
123 116 1
123 129 1
123 149 1
123 195 1
123 204 1
123 285 1
123 325 1
123 335 1
123 345 1
123 363 1
123 364 1
123 372 1
123 584 1
123 588 1
123 634 1
123 730 1
123 742 1
123 796 1
123 813 1
123 823 1
123 853 1
123 944 1
123 953 1
123 969 1
123 974 1
123 1064 1
123 1126 1
123 1143 1
123 1187 1
123 1189 1
123 1210 1
123 1352 1
123 1458 1
123 1483 1
123 1580 1
123 1582 1
123 1689 1
123 1713 1
123 2008 1
123 2058 1
123 2062 1
123 2081 1
123 2215 1
123 2309 1
123 2579 1
123 2629 1
123 2652 1
123 2771 1
123 2875 1
123 2918 1
123 3170 1
123 3598 1
123 3613 1
123 3690 1
123 3698 1
123 3795 1
123 3936 1
123 4005 1
123 4148 1
123 4306 1
123 4402 1
123 4407 1
123 4427 1
123 4469 1
123 4476 1
123 4766 1
123 4773 1
123 4792 1
123 4808 1
123 4977 1
124 7 1
124 25 1
124 29 1
124 93 1
124 322 1
124 570 1
124 743 1
124 1345 1
124 1402 1
124 1463 1
124 1541 1
124 2253 1
124 2617 1
124 2886 1
124 3285 1
124 3951 1
124 4201 1
125 6 1
125 9 1
125 10 1
125 18 1
125 223 1
125 326 1
125 458 1
125 521 1
125 602 1
125 761 1
125 880 1
125 882 1
125 1013 1
125 1217 1
125 1586 1
125 1728 1
125 2031 1
125 2303 1
125 2422 1
125 2501 1
125 2858 1
125 4184 1
125 4207 1
125 4589 1
126 11 1
126 18 1
126 40 1
126 111 1
126 207 1
126 242 1
126 310 1
126 333 1
126 347 1
126 401 1
126 630 1
126 1131 1
126 2108 1
126 2397 1
126 2817 1
126 2912 1
126 3241 1
126 3837 1
126 4261 1
126 4320 1
126 4673 1
126 4787 1
127 14 1
127 40 1
127 76 1
127 87 1
127 172 1
127 282 1
127 467 1
127 719 1
127 815 1
127 1073 1
127 2079 1
127 2261 1
127 3226 1
127 3538 1
128 30 1
128 37 1
128 40 1
128 87 1
128 135 1
128 2180 1
128 2403 1
128 3615 1
128 3647 1
128 4518 1
129 12 1
129 51 1
129 76 1
129 123 1
129 752 1
129 799 1
129 948 1
129 1182 1
129 1459 1
129 1754 1
129 1889 1
129 1933 1
129 2015 1
129 2027 1
129 2750 1
129 3041 1
129 3131 1
129 3670 1
129 4064 1
129 4203 1
129 4307 1
130 7 1
130 11 1
130 108 1
130 111 1
130 142 1
130 153 1
130 283 1
130 300 1
130 330 1
130 366 1
130 568 1
130 848 1
130 1148 1
130 1395 1
130 1979 1
130 2215 1
130 2602 1
130 3680 1
130 3747 1
130 4286 1
131 6 1
131 102 1
131 114 1
131 115 1
131 150 1
131 173 1
131 183 1
131 235 1
131 236 1
131 250 1
131 279 1
131 286 1
131 320 1
131 333 1
131 343 1
131 349 1
131 384 1
131 415 1
131 436 1
131 507 1
131 567 1
131 676 1
131 737 1
131 796 1
131 926 1
131 967 1
131 1002 1
131 1033 1
131 1062 1
131 1074 1
131 1222 1
131 1261 1
131 1392 1
131 1430 1
131 1570 1
131 1633 1
131 1676 1
131 1741 1
131 1853 1
131 1935 1
131 2053 1
131 2242 1
131 2390 1
131 2512 1
131 2532 1
131 2550 1
131 2612 1
131 2632 1
131 2655 1
131 2674 1
131 2783 1
131 2883 1
131 3150 1
131 3461 1
131 3499 1
131 3819 1
131 3875 1
131 3934 1
131 4155 1
131 4544 1
131 4597 1
131 4716 1
131 4908 1
131 4966 1
132 6 1
132 28 1
132 48 1
132 73 1
132 134 1
132 164 1
132 191 1
132 233 1
132 350 1
132 441 1
132 481 1
132 508 1
132 750 1
132 861 1
132 992 1
132 1211 1
132 1281 1
132 1711 1
132 1733 1
132 1761 1
132 1826 1
132 2000 1
132 2056 1
132 2435 1
132 2507 1
132 2509 1
132 2730 1
132 3032 1
132 3277 1
132 3454 1
132 3473 1
132 4307 1
132 4558 1
132 4860 1
133 12 1
133 36 1
133 46 1
133 51 1
133 438 1
133 759 1
133 1257 1
133 1299 1
133 1925 1
133 2593 1
133 3451 1
134 6 1
134 7 1
134 113 1
134 132 1
134 256 1
134 447 1
134 640 1
134 752 1
134 828 1
134 923 1
134 1016 1
134 1119 1
134 1425 1
134 1668 1
134 2334 1
134 2561 1
134 2637 1
134 3070 1
134 3154 1
134 3593 1
134 4394 1
135 20 1
135 24 1
135 100 1
135 128 1
135 709 1
135 1235 1
135 1464 1
135 3263 1
136 16 1
136 36 1
136 58 1
136 85 1
136 158 1
136 442 1
136 1993 1
136 2035 1
136 3762 1
136 3872 1
136 4623 1
137 17 1
137 24 1
137 74 1
137 106 1
137 259 1
137 305 1
137 348 1
137 677 1
137 733 1
137 803 1
137 982 1
137 1015 1
137 1027 1
137 1218 1
137 1352 1
137 1532 1
137 1603 1
137 1804 1
137 1841 1
137 2289 1
137 2291 1
137 2538 1
137 2578 1
137 2636 1
137 3112 1
137 3211 1
137 3394 1
137 3421 1
137 3642 1
137 3668 1
137 3884 1
137 4008 1
137 4009 1
137 4162 1
137 4456 1
137 4565 1
137 4622 1
137 4695 1
138 2 1
138 8 1
138 13 1
138 48 1
138 186 1
138 201 1
138 381 1
138 460 1
138 749 1
138 856 1
138 893 1
138 1259 1
138 1663 1
138 2008 1
138 2112 1
138 2330 1
138 2410 1
138 3293 1
138 3388 1
138 3620 1
138 4528 1
139 23 1
139 55 1
139 76 1
139 96 1
139 213 1
139 576 1
139 643 1
139 666 1
139 791 1
139 1638 1
139 1748 1
139 2148 1
139 2249 1
139 2281 1
139 2464 1
139 2889 1
139 2932 1
139 2956 1
139 3236 1
139 3403 1
139 4242 1
139 4283 1
139 4738 1
140 3 1
140 14 1
140 15 1
140 27 1
140 288 1
140 809 1
140 1774 1
140 2005 1
140 2030 1
140 2815 1
141 94 1
141 100 1
141 103 1
141 105 1
141 275 1
141 362 1
141 439 1
141 539 1
141 583 1
141 1048 1
141 1092 1
141 1171 1
141 1350 1
141 1441 1
141 1650 1
141 1656 1
141 1672 1
141 1816 1
141 1818 1
141 1905 1
141 1914 1
141 2067 1
141 2097 1
141 2130 1
141 2277 1
141 2465 1
141 2599 1
141 3144 1
141 3168 1
141 3515 1
141 3552 1
141 3588 1
141 3673 1
141 3773 1
141 4274 1
141 4486 1
141 4505 1
142 1 1
142 6 1
142 100 1
142 130 1
142 525 1
142 700 1
142 1175 1
142 1404 1
142 1546 1
142 1631 1
142 1926 1
142 2254 1
142 3253 1
142 3458 1
142 3605 1
142 4026 1
142 4194 1
142 4223 1
142 4348 1
142 4351 1
142 4639 1
143 6 1
143 18 1
143 44 1
143 58 1
143 152 1
143 350 1
143 372 1
143 446 1
143 479 1
143 670 1
143 841 1
143 947 1
143 1595 1
143 1885 1
143 1911 1
143 2074 1
143 2361 1
143 2581 1
143 2609 1
143 2725 1
143 3454 1
143 3718 1
143 3736 1
143 3990 1
144 8 1
144 17 1
144 96 1
144 106 1
144 569 1
144 679 1
144 1102 1
144 1371 1
144 1853 1
144 2447 1
144 2601 1
144 2708 1
144 3200 1
144 3296 1
144 3922 1
144 4013 1
144 4045 1
145 55 1
145 72 1
145 91 1
145 108 1
145 217 1
145 266 1
145 281 1
145 309 1
145 345 1
145 490 1
145 641 1
145 822 1
145 940 1
145 1049 1
145 1104 1
145 1122 1
145 1150 1
145 1185 1
145 1200 1
145 1278 1
145 1449 1
145 1516 1
145 1623 1
145 1720 1
145 2132 1
145 2526 1
145 2606 1
145 2663 1
145 2886 1
145 3330 1
145 3432 1
145 3580 1
145 3894 1
145 4204 1
145 4535 1
145 4781 1
145 4824 1
146 18 1
146 27 1
146 74 1
146 122 1
146 189 1
146 218 1
146 1104 1
146 2044 1
146 2425 1
146 2843 1
146 3328 1
146 3589 1
146 3622 1
146 4769 1
147 1 1
147 14 1
147 57 1
147 108 1
147 176 1
147 210 1
147 224 1
147 269 1
147 340 1
147 385 1
147 425 1
147 619 1
147 634 1
147 695 1
147 732 1
147 757 1
147 868 1
147 928 1
147 1046 1
147 1067 1
147 1165 1
147 1303 1
147 1594 1
147 1609 1
147 1737 1
147 1886 1
147 1891 1
147 1944 1
147 2005 1
147 2028 1
147 2079 1
147 2119 1
147 2190 1
147 2192 1
147 2386 1
147 2523 1
147 2542 1
147 2619 1
147 2715 1
147 2720 1
147 2751 1
147 2906 1
147 3062 1
147 3094 1
147 3151 1
147 3311 1
147 3570 1
147 3613 1
147 3736 1
147 3945 1
147 4030 1
147 4545 1
147 4791 1
147 4880 1
148 18 1
148 32 1
148 46 1
148 107 1
148 249 1
148 321 1
148 948 1
148 3477 1
148 3698 1
148 4983 1
149 11 1
149 31 1
149 46 1
149 123 1
149 179 1
149 180 1
149 251 1
149 357 1
149 456 1
149 633 1
149 642 1
149 648 1
149 663 1
149 828 1
149 830 1
149 1020 1
149 1202 1
149 1209 1
149 1439 1
149 1452 1
149 1839 1
149 2041 1
149 2283 1
149 2600 1
149 2758 1
149 2811 1
149 2883 1
149 2890 1
149 2935 1
149 2990 1
149 3502 1
149 3788 1
149 4122 1
149 4334 1
149 4380 1
149 4559 1
149 4648 1
149 4713 1
150 8 1
150 12 1
150 14 1
150 131 1
150 326 1
150 728 1
150 778 1
150 1487 1
150 3177 1
150 4555 1
151 5 1
151 14 1
151 45 1
151 68 1
151 277 1
151 577 1
151 594 1
151 626 1
151 1140 1
151 1723 1
151 2797 1
151 4109 1
152 14 1
152 34 1
152 107 1
152 143 1
152 298 1
152 351 1
152 422 1
152 899 1
152 1268 1
152 1344 1
152 1483 1
152 1641 1
152 1762 1
152 1920 1
152 2112 1
152 2140 1
152 2173 1
152 2674 1
152 3149 1
152 3242 1
152 3765 1
152 3821 1
152 3831 1
152 3963 1
152 4232 1
152 4280 1
152 4753 1
153 1 1
153 51 1
153 65 1
153 130 1
153 405 1
153 460 1
153 687 1
153 1110 1
153 1275 1
153 1825 1
153 1934 1
153 2172 1
153 3184 1
153 3382 1
153 3543 1
153 4459 1
153 4973 1
154 12 1
154 18 1
154 32 1
154 56 1
154 232 1
154 242 1
154 248 1
154 266 1
154 293 1
154 482 1
154 510 1
154 556 1
154 649 1
154 1048 1
154 1273 1
154 1311 1
154 1578 1
154 1614 1
154 1678 1
154 1717 1
154 2036 1
154 2078 1
154 2141 1
154 2386 1
154 2653 1
154 3133 1
154 3384 1
154 3696 1
154 3989 1
154 4084 1
154 4114 1
154 4689 1
154 4896 1
155 1 1
155 27 1
155 34 1
155 107 1
155 175 1
155 344 1
155 437 1
155 500 1
155 606 1
155 694 1
155 1026 1
155 1133 1
155 1566 1
155 1599 1
155 2241 1
155 3175 1
155 3781 1
155 3805 1
155 4276 1
155 4368 1
155 4593 1
156 23 1
156 45 1
156 62 1
156 77 1
156 383 1
156 451 1
156 687 1
156 749 1
156 978 1
156 1553 1
156 1750 1
156 2646 1
156 2755 1
156 3758 1
156 4671 1
157 2 1
157 8 1
157 28 1
157 102 1
157 167 1
157 250 1
157 256 1
157 295 1
157 386 1
157 434 1
157 497 1
157 596 1
157 598 1
157 663 1
157 714 1
157 729 1
157 818 1
157 830 1
157 840 1
157 858 1
157 868 1
157 869 1
157 927 1
157 1063 1
157 1085 1
157 1132 1
157 1150 1
157 1302 1
157 1304 1
157 1319 1
157 1354 1
157 1738 1
157 1857 1
157 1932 1
157 2375 1
157 2378 1
157 2510 1
157 2650 1
157 2907 1
157 2969 1
157 3049 1
157 3233 1
157 3325 1
157 3588 1
157 4099 1
157 4103 1
157 4218 1
157 4401 1
157 4455 1
157 4485 1
157 4664 1
157 4706 1
157 4850 1
157 4871 1
158 43 1
158 85 1
158 121 1
158 136 1
158 175 1
158 281 1
158 402 1
158 512 1
158 519 1
158 828 1
158 1249 1
158 1288 1
158 1489 1
158 1527 1
158 1807 1
158 1870 1
158 2133 1
158 2418 1
158 2476 1
158 2556 1
158 2924 1
158 3025 1
158 3154 1
158 3181 1
158 3193 1
158 3276 1
158 3333 1
158 3614 1
158 3711 1
158 4607 1
159 8 1
159 10 1
159 22 1
159 23 1
159 220 1
159 353 1
159 551 1
159 812 1
159 1540 1
159 1800 1
159 2279 1
159 2738 1
159 2807 1
159 3112 1
159 4426 1
159 4865 1
160 14 1
160 26 1
160 45 1
160 102 1
160 172 1
160 244 1
160 257 1
160 419 1
160 461 1
160 477 1
160 572 1
160 603 1
160 610 1
160 729 1
160 740 1
160 844 1
160 986 1
160 1021 1
160 1035 1
160 1203 1
160 1359 1
160 1424 1
160 1674 1
160 1835 1
160 2064 1
160 2476 1
160 2943 1
160 2964 1
160 2976 1
160 3321 1
160 3728 1
160 3771 1
160 3919 1
160 4166 1
160 4400 1
160 4790 1
161 1 1
161 7 1
161 30 1
161 101 1
161 191 1
161 238 1
161 292 1
161 331 1
161 513 1
161 550 1
161 565 1
161 725 1
161 1001 1
161 1024 1
161 1126 1
161 1240 1
161 1555 1
161 1741 1
161 2248 1
161 2489 1
161 3042 1
161 3168 1
161 3514 1
161 3644 1
161 4266 1
161 4348 1
162 10 1
162 11 1
162 66 1
162 98 1
162 193 1
162 202 1
162 422 1
162 465 1
162 851 1
162 4182 1
162 4609 1
163 6 1
163 36 1
163 42 1
163 105 1
163 308 1
163 1372 1
163 2412 1
163 2423 1
163 4140 1
163 4939 1
164 15 1
164 16 1
164 51 1
164 132 1
164 187 1
164 355 1
164 399 1
164 735 1
164 1431 1
164 2487 1
164 2936 1
164 2983 1
164 3398 1
165 11 1
165 16 1
165 18 1
165 119 1
165 197 1
165 353 1
165 645 1
165 684 1
165 777 1
165 1350 1
165 1432 1
165 2034 1
165 2089 1
165 3548 1
165 4081 1
166 13 1
166 24 1
166 63 1
166 117 1
166 281 1
166 302 1
166 303 1
166 419 1
166 616 1
166 665 1
166 789 1
166 867 1
166 1031 1
166 1543 1
166 1662 1
166 1699 1
166 1702 1
166 1731 1
166 1950 1
166 2654 1
166 2770 1
166 4143 1
166 4300 1
166 4767 1
166 4937 1
167 5 1
167 74 1
167 118 1
167 157 1
167 513 1
167 545 1
167 612 1
167 615 1
167 678 1
167 968 1
167 997 1
167 2306 1
167 2492 1
167 2850 1
167 4333 1
167 4825 1
167 4965 1
168 9 1
168 27 1
168 75 1
168 96 1
168 795 1
168 965 1
168 1353 1
168 2225 1
168 3438 1
168 3796 1
168 3999 1
169 6 1
169 23 1
169 90 1
169 97 1
169 228 1
169 591 1
169 881 1
169 1128 1
169 1675 1
169 2115 1
169 2619 1
169 3256 1
169 3272 1
169 3588 1
169 3994 1
169 4259 1
169 4306 1
169 4629 1
169 4660 1
169 4846 1
170 13 1
170 24 1
170 67 1
170 94 1
170 186 1
170 195 1
170 224 1
170 263 1
170 534 1
170 541 1
170 591 1
170 694 1
170 758 1
170 779 1
170 834 1
170 1000 1
170 1014 1
170 1044 1
170 1256 1
170 1400 1
170 1445 1
170 1455 1
170 1863 1
170 1880 1
170 1891 1
170 2131 1
170 2151 1
170 2994 1
170 3035 1
170 3193 1
170 3644 1
170 3862 1
170 3985 1
170 4024 1
170 4035 1
170 4175 1
170 4229 1
170 4393 1
170 4605 1
170 4721 1
171 6 1
171 32 1
171 64 1
171 99 1
171 378 1
171 431 1
171 507 1
171 609 1
171 636 1
171 670 1
171 701 1
171 1189 1
171 1340 1
171 1374 1
171 1511 1
171 1788 1
171 1936 1
171 2037 1
171 2117 1
171 2205 1
171 2480 1
171 2569 1
171 2668 1
171 2969 1
171 3003 1
171 3587 1
171 4022 1
171 4289 1
172 13 1
172 27 1
172 127 1
172 160 1
172 227 1
172 395 1
172 456 1
172 558 1
172 839 1
172 921 1
172 923 1
172 936 1
172 1242 1
172 1254 1
172 1273 1
172 1464 1
172 1777 1
172 2020 1
172 2697 1
172 3935 1
172 3987 1
172 4679 1
173 6 1
173 12 1
173 80 1
173 131 1
173 341 1
173 541 1
173 683 1
173 909 1
173 1038 1
173 1062 1
173 1421 1
173 1716 1
173 1864 1
173 2420 1
173 2422 1
173 2741 1
173 3000 1
173 3836 1
173 4034 1
173 4062 1
174 6 1
174 39 1
174 91 1
174 105 1
174 359 1
174 1030 1
174 1096 1
174 1180 1
174 1427 1
174 1916 1
174 2422 1
174 3828 1
174 4187 1
174 4635 1
175 6 1
175 22 1
175 155 1
175 158 1
175 215 1
175 393 1
175 443 1
175 487 1
175 620 1
175 757 1
175 907 1
175 941 1
175 1003 1
175 1006 1
175 1009 1
175 1279 1
175 1293 1
175 1493 1
175 1750 1
175 1902 1
175 1976 1
175 2073 1
175 2372 1
175 2446 1
175 2459 1
175 2578 1
175 2680 1
175 2983 1
175 3158 1
175 3636 1
175 3861 1
175 4077 1
175 4194 1
175 4221 1
175 4528 1
175 4568 1
175 4868 1
175 4907 1
176 10 1
176 23 1
176 50 1
176 147 1
176 268 1
176 280 1
176 341 1
176 567 1
176 584 1
176 599 1
176 650 1
176 686 1
176 721 1
176 741 1
176 986 1
176 1156 1
176 1392 1
176 1494 1
176 1495 1
176 1504 1
176 1587 1
176 1619 1
176 1678 1
176 1828 1
176 1834 1
176 1877 1
176 1909 1
176 2122 1
176 2362 1
176 2443 1
176 2538 1
176 2625 1
176 2762 1
176 2889 1
176 2953 1
176 3123 1
176 3335 1
176 3402 1
176 3687 1
176 4029 1
176 4319 1
176 4330 1
176 4735 1
177 6 1
177 7 1
177 58 1
177 102 1
177 365 1
177 799 1
177 817 1
177 840 1
177 955 1
177 975 1
177 1470 1
177 1598 1
177 1825 1
177 2116 1
177 2204 1
177 2560 1
177 2630 1
177 3005 1
177 3474 1
177 4731 1
178 1 1
178 6 1
178 17 1
178 45 1
178 247 1
178 319 1
178 329 1
178 396 1
178 476 1
178 496 1
178 657 1
178 842 1
178 1322 1
178 1778 1
178 2309 1
178 3989 1
178 4119 1
178 4254 1
178 4788 1
178 4906 1
179 34 1
179 81 1
179 99 1
179 149 1
179 194 1
179 726 1
179 733 1
179 852 1
179 4280 1
179 4581 1
180 7 1
180 38 1
180 49 1
180 149 1
180 293 1
180 321 1
180 734 1
180 1060 1
180 1084 1
180 1160 1
180 1171 1
180 1291 1
180 1323 1
180 1660 1
180 2013 1
180 2066 1
180 2164 1
180 2243 1
180 2272 1
180 3000 1
180 3012 1
180 3028 1
180 3058 1
180 3369 1
180 4112 1
180 4205 1
180 4891 1
181 8 1
181 43 1
181 64 1
181 87 1
181 554 1
181 766 1
181 2350 1
181 2755 1
181 4974 1
182 1 1
182 8 1
182 42 1
182 90 1
182 198 1
182 326 1
182 718 1
182 829 1
182 837 1
182 923 1
182 970 1
182 1043 1
182 1237 1
182 1328 1
182 1372 1
182 2610 1
182 2643 1
182 2850 1
182 3176 1
182 3373 1
182 3667 1
182 3735 1
182 4521 1
182 4685 1
183 14 1
183 23 1
183 103 1
183 131 1
183 212 1
183 314 1
183 393 1
183 423 1
183 428 1
183 472 1
183 644 1
183 792 1
183 924 1
183 1094 1
183 1112 1
183 1127 1
183 1295 1
183 1431 1
183 1924 1
183 2046 1
183 2146 1
183 2502 1
183 2590 1
183 2615 1
183 2837 1
183 2974 1
183 3180 1
183 3647 1
183 3993 1
183 4169 1
184 7 1
184 32 1
184 82 1
184 103 1
184 317 1
184 432 1
184 559 1
184 589 1
184 874 1
184 910 1
184 1225 1
184 1248 1
184 1490 1
184 2208 1
184 2732 1
184 2979 1
185 1 1
185 18 1
185 29 1
185 37 1
185 285 1
185 291 1
185 1061 1
185 1304 1
185 1316 1
185 1499 1
185 2484 1
185 3202 1
185 3796 1
185 4055 1
185 4302 1
185 4936 1
186 61 1
186 106 1
186 138 1
186 170 1
186 188 1
186 217 1
186 229 1
186 263 1
186 348 1
186 392 1
186 529 1
186 691 1
186 785 1
186 800 1
186 1370 1
186 1414 1
186 1814 1
186 1815 1
186 1977 1
186 2370 1
186 2806 1
186 2838 1
186 2939 1
186 3004 1
186 3054 1
186 3130 1
186 3141 1
186 3195 1
186 3201 1
186 3323 1
186 4591 1
186 4682 1
187 2 1
187 7 1
187 14 1
187 164 1
187 632 1
187 689 1
187 958 1
187 1401 1
187 1419 1
187 1704 1
187 1732 1
187 1958 1
187 2162 1
187 2338 1
187 2576 1
187 2694 1
187 2815 1
187 3212 1
187 3842 1
187 3984 1
187 4427 1
187 4750 1
187 4909 1
187 4919 1
188 98 1
188 101 1
188 103 1
188 186 1
188 436 1
188 478 1
188 496 1
188 550 1
188 673 1
188 702 1
188 717 1
188 931 1
188 1015 1
188 1047 1
188 1075 1
188 1531 1
188 1804 1
188 1813 1
188 1922 1
188 1952 1
188 2823 1
188 2899 1
188 3247 1
188 3344 1
188 3405 1
188 3616 1
188 4241 1
188 4322 1
188 4478 1
188 4560 1
188 4561 1
189 3 1
189 11 1
189 78 1
189 146 1
189 252 1
189 385 1
189 520 1
189 543 1
189 612 1
189 666 1
189 716 1
189 738 1
189 1091 1
189 1180 1
189 1195 1
189 1392 1
189 1425 1
189 1465 1
189 1544 1
189 1583 1
189 1953 1
189 1983 1
189 2394 1
189 2403 1
189 2613 1
189 2823 1
189 3097 1
189 3651 1
189 3886 1
189 3934 1
189 3953 1
189 4590 1
190 14 1
190 22 1
190 118 1
190 121 1
191 1 1
191 6 1
191 132 1
191 161 1
191 361 1
191 528 1
191 1694 1
191 1719 1
191 2005 1
191 2214 1
191 2496 1
191 2614 1
191 3207 1
191 3714 1
191 4863 1
192 6 1
192 17 1
192 78 1
192 95 1
192 410 1
192 502 1
192 527 1
192 805 1
192 1478 1
192 1537 1
192 1881 1
192 2162 1
192 2490 1
192 2535 1
192 3327 1
192 4091 1
192 4242 1
193 1 1
193 7 1
193 14 1
193 162 1
193 250 1
193 342 1
193 412 1
193 994 1
193 1025 1
193 1089 1
193 1283 1
193 1614 1
193 2255 1
193 3573 1
193 3616 1
193 3667 1
194 7 1
194 38 1
194 74 1
194 179 1
194 443 1
194 459 1
194 562 1
194 668 1
194 676 1
194 761 1
194 825 1
194 1153 1
194 1312 1
194 1410 1
194 1745 1
194 1778 1
194 1963 1
194 2035 1
194 2209 1
194 2252 1
194 2550 1
194 3279 1
194 3855 1
194 4265 1
194 4330 1
194 4386 1
194 4636 1
195 7 1
195 34 1
195 123 1
195 170 1
195 248 1
195 330 1
195 384 1
195 534 1
195 586 1
195 935 1
195 1118 1
195 1143 1
195 1398 1
195 2177 1
195 2380 1
195 2542 1
195 2808 1
195 3127 1
195 3231 1
195 3438 1
195 3468 1
195 4126 1
195 4574 1
196 2 1
196 3 1
196 6 1
196 58 1
196 1424 1
196 1766 1
196 3397 1
196 4359 1
196 4944 1
197 45 1
197 84 1
197 106 1
197 165 1
197 462 1
197 502 1
197 2970 1
197 4254 1
198 9 1
198 34 1
198 117 1
198 182 1
198 282 1
198 319 1
198 355 1
198 501 1
198 862 1
198 865 1
198 920 1
198 1012 1
198 1212 1
198 3791 1
198 3816 1
198 4994 1
199 6 1
199 7 1
199 93 1
199 105 1
199 504 1
199 518 1
199 755 1
199 758 1
199 910 1
199 919 1
199 1045 1
199 1282 1
199 1292 1
199 1387 1
199 1506 1
199 1604 1
199 1677 1
199 1684 1
199 1756 1
199 1810 1
199 1988 1
199 2616 1
199 3103 1
199 3556 1
199 4016 1
199 4298 1
199 4451 1
200 1 1
200 16 1
200 30 1
200 36 1
200 226 1
200 391 1
200 602 1
200 646 1
200 729 1
200 1579 1
200 2268 1
200 3878 1
201 30 1
201 91 1
201 115 1
201 138 1
201 654 1
201 805 1
201 918 1
201 941 1
201 1588 1
201 2379 1
201 3689 1
202 44 1
202 108 1
202 115 1
202 162 1
202 269 1
202 434 1
202 469 1
202 973 1
202 1163 1
202 1339 1
202 1722 1
202 2685 1
202 2769 1
202 3961 1
203 34 1
203 38 1
203 65 1
203 77 1
203 368 1
203 634 1
203 813 1
203 1495 1
203 1940 1
203 2319 1
203 3327 1
203 3645 1
203 3905 1
204 13 1
204 21 1
204 41 1
204 123 1
204 237 1
204 272 1
204 356 1
204 560 1
204 613 1
204 1077 1
204 1157 1
204 1426 1
204 1511 1
204 1997 1
204 2078 1
204 2229 1
204 2313 1
204 2422 1
204 2605 1
204 2663 1
204 2988 1
204 3124 1
204 3299 1
204 3871 1
204 4104 1
204 4297 1
204 4334 1
205 1 1
205 30 1
205 81 1
205 116 1
205 223 1
205 234 1
205 365 1
205 369 1
205 452 1
205 506 1
205 537 1
205 770 1
205 787 1
205 808 1
205 854 1
205 946 1
205 1144 1
205 1214 1
205 1343 1
205 2417 1
205 2556 1
205 2849 1
205 2858 1
205 3051 1
205 3135 1
205 3462 1
205 4014 1
205 4483 1
205 4490 1
205 4659 1
205 4853 1
206 12 1
206 60 1
206 89 1
206 106 1
206 421 1
206 435 1
206 480 1
206 522 1
206 1173 1
206 1340 1
206 1450 1
206 1942 1
206 2344 1
206 2347 1
206 2701 1
206 2722 1
206 2783 1
206 3506 1
206 3616 1
206 4208 1
206 4373 1
207 8 1
207 36 1
207 38 1
207 126 1
207 208 1
207 212 1
207 416 1
207 1217 1
207 1744 1
207 1891 1
207 1918 1
207 2248 1
207 2593 1
207 2882 1
207 3278 1
207 3389 1
207 3540 1
207 4058 1
207 4271 1
207 4667 1
207 4791 1
208 16 1
208 68 1
208 101 1
208 207 1
208 521 1
208 539 1
208 928 1
208 1056 1
208 2176 1
208 2584 1
208 4749 1
209 13 1
209 45 1
209 91 1
209 101 1
209 271 1
209 461 1
209 582 1
209 621 1
209 631 1
209 690 1
209 735 1
209 831 1
209 1102 1
209 1149 1
209 1270 1
209 1383 1
209 1668 1
209 1839 1
209 1849 1
209 1912 1
209 2702 1
209 2706 1
209 3298 1
209 3452 1
209 3558 1
209 3676 1
209 3770 1
209 4185 1
209 4521 1
209 4592 1
210 6 1
210 46 1
210 111 1
210 147 1
210 407 1
210 435 1
210 448 1
210 466 1
210 577 1
210 629 1
210 673 1
210 797 1
210 806 1
210 893 1
210 995 1
210 1037 1
210 1083 1
210 1168 1
210 1326 1
210 1331 1
210 1441 1
210 1562 1
210 1589 1
210 1843 1
210 1892 1
210 1982 1
210 2085 1
210 2093 1
210 2239 1
210 2363 1
210 2585 1
210 2602 1
210 2689 1
210 2703 1
210 2995 1
210 3136 1
210 3289 1
210 3658 1
210 3811 1
210 4808 1
211 15 1
211 42 1
211 46 1
211 52 1
211 430 1
211 1237 1
211 1328 1
211 1386 1
211 1589 1
211 1630 1
211 2848 1
211 3257 1
211 3267 1
212 48 1
212 62 1
212 183 1
212 207 1
212 308 1
212 357 1
212 439 1
212 509 1
212 772 1
212 847 1
212 962 1
212 1000 1
212 1148 1
212 1349 1
212 1564 1
212 1598 1
212 1744 1
212 1781 1
212 1840 1
212 2195 1
212 2211 1
212 2288 1
212 2368 1
212 2652 1
212 3070 1
212 3344 1
212 3597 1
212 4004 1
212 4128 1
213 38 1
213 87 1
213 96 1
213 139 1
213 360 1
213 405 1
213 482 1
213 728 1
213 743 1
213 787 1
213 1045 1
213 1213 1
213 1312 1
213 1476 1
213 1568 1
213 1808 1
213 1900 1
213 2514 1
213 2602 1
213 3051 1
213 3749 1
213 4022 1
213 4198 1
213 4538 1
213 4608 1
214 6 1
214 37 1
214 55 1
214 115 1
214 530 1
214 2122 1
215 9 1
215 10 1
215 21 1
215 175 1
215 315 1
215 490 1
215 511 1
215 895 1
215 1812 1
215 3870 1
216 6 1
216 29 1
216 32 1
216 37 1
216 265 1
216 328 1
216 375 1
216 452 1
216 571 1
216 594 1
216 661 1
216 724 1
216 855 1
216 868 1
216 1195 1
216 1278 1
216 1357 1
216 1454 1
216 1508 1
216 1543 1
216 1686 1
216 1787 1
216 1869 1
216 2306 1
216 2950 1
216 3281 1
216 3537 1
216 3701 1
216 3954 1
216 4135 1
216 4413 1
216 4702 1
216 4720 1
217 17 1
217 34 1
217 145 1
217 186 1
217 297 1
217 302 1
217 318 1
217 357 1
217 387 1
217 429 1
217 451 1
217 469 1
217 488 1
217 493 1
217 532 1
217 549 1
217 697 1
217 706 1
217 816 1
217 863 1
217 895 1
217 1095 1
217 1097 1
217 1176 1
217 1183 1
217 1389 1
217 1415 1
217 1427 1
217 1484 1
217 1493 1
217 1688 1
217 1712 1
217 1836 1
217 1838 1
217 2198 1
217 2405 1
217 2505 1
217 2651 1
217 2704 1
217 2812 1
217 2873 1
217 3022 1
217 3058 1
217 3278 1
217 3524 1
217 3979 1
217 4078 1
217 4141 1
217 4202 1
217 4233 1
217 4363 1
217 4503 1
217 4616 1
217 4617 1
217 4737 1
217 4742 1
218 8 1
218 21 1
218 30 1
218 146 1
218 273 1
218 307 1
218 331 1
218 374 1
218 660 1
218 954 1
218 1112 1
218 1166 1
218 1430 1
218 1867 1
218 1971 1
218 2064 1
218 2137 1
218 2286 1
218 2611 1
218 3453 1
218 4304 1
218 4447 1
218 4473 1
218 4864 1
219 40 1
219 53 1
219 69 1
219 84 1
219 364 1
219 458 1
219 521 1
219 531 1
219 761 1
219 1089 1
219 1333 1
219 1380 1
219 1619 1
219 1756 1
219 1973 1
219 2060 1
219 2131 1
219 2352 1
219 2489 1
219 2875 1
219 3100 1
219 3188 1
219 3543 1
220 3 1
220 54 1
220 77 1
220 159 1
220 851 1
220 1725 1
220 2394 1
220 3341 1
220 3375 1
220 3536 1
220 4798 1
221 3 1
221 20 1
221 31 1
221 75 1
221 284 1
221 376 1
221 380 1
221 393 1
221 489 1
221 565 1
221 812 1
221 832 1
221 1298 1
221 1382 1
221 1981 1
221 2016 1
221 2212 1
221 2751 1
221 2855 1
221 4067 1
221 4843 1
222 5 1
222 34 1
222 88 1
222 122 1
222 332 1
222 652 1
222 655 1
222 671 1
222 905 1
222 1115 1
222 1227 1
222 1997 1
222 3586 1
222 3906 1
222 4216 1
222 4503 1
223 14 1
223 21 1
223 125 1
223 205 1
223 244 1
223 398 1
223 412 1
223 1023 1
223 1028 1
223 2550 1
223 2638 1
223 2774 1
223 3363 1
223 3434 1
223 3609 1
223 3936 1
224 49 1
224 90 1
224 147 1
224 170 1
224 234 1
224 265 1
224 406 1
224 734 1
224 829 1
224 890 1
224 966 1
224 1197 1
224 1537 1
224 1616 1
224 2373 1
224 2454 1
224 2520 1
224 3033 1
224 3817 1
224 3904 1
224 3912 1
224 4490 1
224 4641 1
225 1 1
225 13 1
225 60 1
225 101 1
225 277 1
225 509 1
225 789 1
225 845 1
225 981 1
225 1017 1
225 1114 1
225 1203 1
225 1446 1
225 1840 1
225 2110 1
225 3434 1
225 4142 1
225 4156 1
225 4246 1
225 4354 1
226 24 1
226 34 1
226 107 1
226 200 1
226 276 1
226 297 1
226 340 1
226 380 1
226 554 1
226 623 1
226 852 1
226 1003 1
226 1195 1
226 1220 1
226 1245 1
226 1321 1
226 1352 1
226 1386 1
226 1486 1
226 2312 1
226 2858 1
226 3266 1
226 3442 1
226 3707 1
226 4035 1
226 4854 1
227 8 1
227 38 1
227 77 1
227 172 1
227 254 1
227 645 1
227 706 1
227 914 1
227 985 1
227 1159 1
227 1290 1
227 1390 1
227 1395 1
227 1427 1
227 1758 1
227 2281 1
227 2363 1
227 2756 1
227 3783 1
227 4946 1
227 4958 1
228 5 1
228 9 1
228 83 1
228 169 1
228 304 1
228 595 1
228 915 1
228 1774 1
228 2062 1
228 2351 1
228 3158 1
228 3215 1
228 4189 1
229 14 1
229 46 1
229 109 1
229 186 1
229 415 1
229 1361 1
229 1542 1
229 1764 1
229 1918 1
229 2034 1
229 2567 1
229 2687 1
229 3052 1
229 3271 1
229 3283 1
229 3722 1
229 3791 1
229 4844 1
230 9 1
230 29 1
230 42 1
230 45 1
230 311 1
230 426 1
230 482 1
230 543 1
230 1434 1
230 1962 1
230 1967 1
230 2143 1
230 2908 1
230 3013 1
230 3566 1
230 4092 1
230 4147 1
230 4894 1
231 14 1
231 16 1
231 23 1
231 87 1
231 388 1
231 871 1
231 903 1
231 1004 1
231 1079 1
231 1238 1
231 1428 1
231 1463 1
231 1716 1
231 2068 1
231 2081 1
231 2747 1
231 2859 1
231 3269 1
231 3619 1
231 3876 1
231 4765 1
232 6 1
232 16 1
232 81 1
232 154 1
232 423 1
232 604 1
232 622 1
232 638 1
232 760 1
232 1645 1
232 1828 1
232 2500 1
232 3419 1
232 3461 1
233 6 1
233 45 1
233 72 1
233 132 1
233 491 1
233 519 1
233 569 1
233 701 1
233 819 1
233 1958 1
233 2024 1
233 2147 1
233 2921 1
233 4534 1
234 1 1
234 59 1
234 205 1
234 224 1
234 243 1
234 394 1
234 1548 1
234 2095 1
234 3583 1
234 4505 1
235 6 1
235 31 1
235 63 1
235 131 1
235 551 1
235 701 1
235 1214 1
235 1888 1
235 1896 1
235 1917 1
235 3496 1
235 3608 1
235 4439 1
235 4816 1
235 4843 1
236 31 1
236 58 1
236 93 1
236 131 1
236 290 1
236 413 1
236 1049 1
236 1318 1
236 1360 1
236 1530 1
236 2318 1
236 3509 1
236 4415 1
237 29 1
237 85 1
237 109 1
237 204 1
237 453 1
237 607 1
237 643 1
237 1297 1
237 1434 1
237 1669 1
237 1708 1
237 1918 1
237 2229 1
237 2263 1
237 2778 1
237 2824 1
237 3498 1
237 3878 1
237 4086 1
237 4466 1
237 4746 1
237 4795 1
237 4940 1
238 71 1
238 88 1
238 99 1
238 161 1
238 368 1
238 762 1
238 877 1
238 1289 1
238 1423 1
238 1627 1
238 2105 1
238 2305 1
238 2957 1
238 3029 1
238 3469 1
238 3740 1
238 4569 1
239 1 1
239 41 1
239 47 1
239 87 1
239 270 1
239 315 1
239 386 1
239 524 1
239 650 1
239 697 1
239 710 1
239 815 1
239 1162 1
239 1204 1
239 1308 1
239 1387 1
239 1477 1
239 1573 1
239 1634 1
239 1664 1
239 2022 1
239 2084 1
239 2115 1
239 2174 1
239 2263 1
239 2406 1
239 2453 1
239 2681 1
239 2717 1
239 3177 1
239 3388 1
239 3796 1
239 4285 1
239 4492 1
239 4662 1
239 4686 1
239 4703 1
239 4849 1
239 4995 1
240 7 1
240 25 1
240 27 1
240 121 1
240 273 1
240 327 1
240 397 1
240 486 1
240 774 1
240 1037 1
240 1296 1
240 1323 1
240 1444 1
240 1594 1
240 1682 1
240 1914 1
240 2483 1
240 2876 1
240 2898 1
240 3086 1
240 3135 1
240 3145 1
240 3195 1
240 3811 1
240 4293 1
240 4528 1
240 4659 1
240 4812 1
241 32 1
241 36 1
241 65 1
241 117 1
241 246 1
241 287 1
241 293 1
241 524 1
241 1416 1
241 1808 1
241 1858 1
241 2322 1
241 2361 1
241 2993 1
241 4226 1
241 4754 1
241 4877 1
241 4995 1
242 27 1
242 73 1
242 126 1
242 154 1
242 378 1
242 660 1
242 810 1
242 987 1
242 1365 1
242 1449 1
242 1822 1
242 2086 1
242 2880 1
242 2943 1
242 3362 1
242 3418 1
242 3975 1
242 4009 1
242 4779 1
243 8 1
243 61 1
243 96 1
243 234 1
243 246 1
243 468 1
243 670 1
243 695 1
243 2324 1
243 2372 1
243 2503 1
243 2657 1
243 3183 1
243 3311 1
243 3544 1
243 3696 1
243 4002 1
243 4486 1
243 4654 1
244 31 1
244 41 1
244 160 1
244 223 1
244 358 1
244 410 1
244 486 1
244 1025 1
244 1202 1
244 1239 1
244 1492 1
244 1645 1
244 2104 1
244 2114 1
244 4097 1
244 4404 1
244 4429 1
244 4963 1
245 6 1
245 7 1
245 45 1
245 85 1
245 632 1
245 938 1
245 1363 1
245 1586 1
245 2227 1
245 3446 1
245 3774 1
245 3832 1
245 4347 1
245 4630 1
246 44 1
246 82 1
246 241 1
246 243 1
246 387 1
246 433 1
246 442 1
246 515 1
246 798 1
246 934 1
246 947 1
246 1169 1
246 1447 1
246 1688 1
246 2182 1
246 2237 1
246 2379 1
246 2502 1
246 2803 1
246 3655 1
246 3838 1
246 4654 1
246 4698 1
247 3 1
247 32 1
247 102 1
247 178 1
247 658 1
247 1106 1
247 1155 1
247 1196 1
247 1606 1
247 1690 1
247 1968 1
247 2360 1
247 2583 1
247 2770 1
247 2844 1
247 3167 1
247 3191 1
247 3295 1
247 3715 1
247 3773 1
247 4057 1
247 4264 1
247 4775 1
248 1 1
248 25 1
248 154 1
248 195 1
248 371 1
248 1314 1
248 2251 1
248 3996 1
248 4487 1
249 18 1
249 62 1
249 106 1
249 148 1
249 307 1
249 372 1
249 801 1
249 1076 1
249 1268 1
249 1293 1
249 1761 1
249 2387 1
249 2654 1
249 3034 1
249 3387 1
249 3460 1
249 3716 1
249 4781 1
250 43 1
250 131 1
250 157 1
250 193 1
250 366 1
250 409 1
250 424 1
250 433 1
250 623 1
250 696 1
250 875 1
250 1015 1
250 1620 1
250 1690 1
250 1994 1
250 3099 1
250 3876 1
250 3992 1
250 4613 1
250 4739 1
251 43 1
251 44 1
251 73 1
251 149 1
251 332 1
251 404 1
251 429 1
251 438 1
251 516 1
251 587 1
251 633 1
251 754 1
251 764 1
251 810 1
251 1844 1
251 1897 1
251 1936 1
251 2055 1
251 2287 1
251 2480 1
251 3202 1
251 3224 1
251 3433 1
251 3824 1
251 3933 1
251 4101 1
251 4276 1
251 4616 1
251 4699 1
252 6 1
252 61 1
252 116 1
252 189 1
252 342 1
252 420 1
252 1391 1
252 2171 1
252 3295 1
252 3484 1
252 3666 1
253 11 1
253 17 1
253 29 1
253 65 1
253 643 1
253 783 1
253 860 1
253 864 1
253 978 1
253 1003 1
253 1297 1
253 1357 1
253 1396 1
253 1651 1
253 2784 1
253 3500 1
253 3571 1
253 4409 1
254 13 1
254 61 1
254 82 1
254 227 1
254 313 1
254 746 1
254 1009 1
254 1053 1
254 1550 1
254 1806 1
254 2053 1
254 2175 1
254 3305 1
254 3358 1
254 4455 1
254 4991 1
255 3 1
255 30 1
255 78 1
255 91 1
255 537 1
255 568 1
255 809 1
255 1908 1
255 2306 1
255 2468 1
255 4174 1
255 4434 1
256 36 1
256 99 1
256 134 1
256 157 1
256 275 1
256 396 1
256 567 1
256 1842 1
256 2044 1
256 2401 1
256 2928 1
257 5 1
257 23 1
257 103 1
257 160 1
257 438 1
257 1422 1
257 1451 1
257 1951 1
257 2059 1
257 2143 1
257 2405 1
257 2609 1
257 2656 1
257 2802 1
257 3961 1
257 4496 1
258 1 1
258 5 1
258 73 1
258 95 1
258 305 1
258 447 1
258 472 1
258 843 1
258 865 1
258 1332 1
258 1837 1
258 1925 1
258 2216 1
258 2429 1
258 2494 1
258 3896 1
258 4143 1
258 4368 1
258 4564 1
258 4862 1
259 12 1
259 58 1
259 121 1
259 137 1
259 1753 1
260 6 1
260 34 1
260 71 1
260 121 1
260 1064 1
260 1196 1
260 1568 1
260 1602 1
260 2707 1
260 3979 1
261 2 1
261 7 1
261 10 1
261 46 1
261 674 1
261 857 1
261 1193 1
261 2903 1
261 3180 1
261 3525 1
261 4990 1
262 17 1
262 31 1
262 43 1
262 114 1
262 398 1
262 504 1
262 620 1
262 1015 1
262 1229 1
262 1240 1
262 1404 1
262 2421 1
262 3407 1
262 3445 1
262 3639 1
262 3862 1
262 4180 1
262 4954 1
263 17 1
263 34 1
263 170 1
263 186 1
263 419 1
263 1035 1
263 1385 1
263 2446 1
263 2835 1
263 3481 1
263 3604 1
263 4008 1
263 4305 1
264 10 1
264 23 1
264 38 1
264 87 1
264 430 1
264 795 1
264 2212 1
264 4156 1
265 7 1
265 95 1
265 216 1
265 224 1
265 289 1
265 423 1
265 503 1
265 812 1
265 821 1
265 853 1
265 872 1
265 1231 1
265 1408 1
265 2075 1
265 2208 1
265 2452 1
265 2508 1
265 2658 1
265 2910 1
265 3237 1
265 3588 1
265 3666 1
265 3673 1
265 3827 1
265 3907 1
265 4227 1
265 4254 1
265 4713 1
265 4817 1
266 13 1
266 14 1
266 145 1
266 154 1
266 338 1
266 402 1
266 746 1
266 1126 1
266 2283 1
266 2438 1
267 8 1
267 36 1
267 66 1
267 117 1
267 477 1
267 538 1
267 1052 1
267 1090 1
267 1912 1
267 2741 1
267 2753 1
267 3367 1
267 3419 1
267 4264 1
267 4769 1
267 4839 1
268 3 1
268 21 1
268 27 1
268 176 1
268 942 1
268 1019 1
268 1025 1
268 1093 1
268 1783 1
268 2813 1
268 3003 1
268 3057 1
269 6 1
269 17 1
269 147 1
269 202 1
269 585 1
269 821 1
269 859 1
269 1538 1
269 1850 1
269 2022 1
269 2111 1
269 2388 1
269 2441 1
269 3641 1
269 3969 1
269 4209 1
269 4440 1
269 4621 1
270 41 1
270 85 1
270 102 1
270 239 1
270 286 1
270 399 1
270 925 1
270 1182 1
270 1223 1
270 2347 1
270 3513 1
270 3866 1
270 3939 1
271 15 1
271 33 1
271 89 1
271 209 1
271 319 1
271 395 1
271 1012 1
271 1580 1
271 1652 1
271 2184 1
271 2533 1
271 2589 1
271 2705 1
271 2809 1
271 2853 1
271 2944 1
271 3608 1
271 3884 1
271 4650 1
271 4913 1
272 14 1
272 37 1
272 44 1
272 204 1
272 546 1
272 1960 1
272 2462 1
272 3040 1
272 4086 1
272 4195 1
273 12 1
273 29 1
273 218 1
273 240 1
273 614 1
273 618 1
273 655 1
273 686 1
273 711 1
273 857 1
273 940 1
273 1062 1
273 1093 1
273 1122 1
273 1615 1
273 2119 1
273 2221 1
273 2341 1
273 2401 1
273 2496 1
273 3013 1
273 3063 1
273 3519 1
273 4875 1
274 15 1
274 24 1
274 95 1
274 110 1
274 387 1
274 528 1
274 581 1
274 688 1
274 1019 1
274 1194 1
274 1387 1
274 1993 1
274 2126 1
274 2536 1
274 2985 1
274 3520 1
274 3766 1
274 3911 1
274 3995 1
274 4015 1
274 4772 1
275 3 1
275 69 1
275 141 1
275 256 1
275 419 1
275 624 1
275 666 1
275 843 1
275 1498 1
275 3620 1
276 14 1
276 86 1
276 118 1
276 226 1
276 329 1
276 352 1
276 1981 1
276 2039 1
276 2109 1
276 2863 1
276 3080 1
276 3273 1
276 3457 1
276 4782 1
277 1 1
277 9 1
277 151 1
277 225 1
277 288 1
277 1868 1
277 2762 1
277 2879 1
277 2904 1
277 3292 1
277 3527 1
278 1 1
278 9 1
278 46 1
278 81 1
278 287 1
278 454 1
278 457 1
278 654 1
278 724 1
278 1208 1
278 1662 1
278 1919 1
278 2009 1
278 2341 1
278 3516 1
278 3693 1
278 3764 1
278 3909 1
279 1 1
279 17 1
279 74 1
279 131 1
279 362 1
279 421 1
279 803 1
279 1407 1
279 1827 1
279 2138 1
279 2466 1
279 3804 1
280 1 1
280 18 1
280 103 1
280 176 1
280 420 1
280 609 1
280 960 1
280 996 1
280 1149 1
280 2008 1
280 2909 1
280 4955 1
281 6 1
281 145 1
281 158 1
281 166 1
281 361 1
281 582 1
281 636 1
281 673 1
281 887 1
281 911 1
281 1109 1
281 1348 1
281 1418 1
281 2416 1
281 2705 1
281 3369 1
281 3642 1
281 3718 1
281 4279 1
281 4605 1
282 3 1
282 90 1
282 127 1
282 198 1
282 317 1
282 672 1
282 1811 1
283 45 1
283 79 1
283 106 1
283 130 1
283 646 1
283 743 1
283 750 1
283 2597 1
283 3427 1
283 4924 1
284 8 1
284 71 1
284 82 1
284 221 1
284 452 1
284 457 1
284 987 1
284 1097 1
284 1447 1
284 1967 1
284 2174 1
284 2868 1
284 4148 1
285 5 1
285 54 1
285 123 1
285 185 1
285 490 1
285 811 1
285 1029 1
285 1611 1
285 1948 1
285 2042 1
285 2459 1
285 2537 1
285 3233 1
285 3546 1
285 3646 1
285 3684 1
285 4413 1
285 4447 1
285 4502 1
285 4647 1
286 63 1
286 121 1
286 131 1
286 270 1
286 445 1
286 455 1
286 1985 1
286 2025 1
286 2862 1
286 3304 1
286 3750 1
286 4716 1
287 47 1
287 74 1
287 241 1
287 278 1
287 312 1
287 332 1
287 371 1
287 485 1
287 611 1
287 1468 1
287 1712 1
287 1743 1
287 1744 1
287 1884 1
287 1938 1
287 2814 1
287 3018 1
287 3218 1
287 3889 1
287 4229 1
288 50 1
288 95 1
288 140 1
288 277 1
288 1081 1
288 1604 1
288 2759 1
289 8 1
289 66 1
289 90 1
289 265 1
289 1048 1
289 1167 1
289 1232 1
289 1503 1
289 2684 1
289 3053 1
289 3398 1
289 3816 1
289 3895 1
290 10 1
290 31 1
290 61 1
290 236 1
290 356 1
290 422 1
290 639 1
290 790 1
290 885 1
290 933 1
290 999 1
290 1131 1
290 2125 1
290 2172 1
290 2261 1
290 2919 1
290 3283 1
290 3866 1
290 4129 1
290 4564 1
291 13 1
291 14 1
291 85 1
291 185 1
291 313 1
291 517 1
291 592 1
291 680 1
291 967 1
291 1042 1
291 1135 1
291 1161 1
291 1341 1
291 1643 1
291 1657 1
291 1970 1
291 1996 1
291 2033 1
291 2073 1
291 2076 1
291 2368 1
291 2392 1
291 2591 1
291 2781 1
291 3336 1
291 3877 1
291 3891 1
291 4005 1
291 4479 1
291 4487 1
291 4489 1
291 4500 1
291 4870 1
292 1 1
292 8 1
292 19 1
292 161 1
292 516 1
292 671 1
292 818 1
292 897 1
292 1023 1
292 1124 1
292 1144 1
292 1215 1
292 1685 1
292 1706 1
292 1873 1
292 1890 1
292 1957 1
292 2003 1
292 2250 1
292 2404 1
292 2696 1
292 3006 1
292 3129 1
292 3348 1
292 3570 1
292 3777 1
292 3781 1
292 4199 1
292 4609 1
292 4665 1
292 4709 1
292 4892 1
293 13 1
293 154 1
293 180 1
293 241 1
293 363 1
293 412 1
293 1172 1
293 1430 1
293 1484 1
293 1748 1
293 4805 1
294 23 1
294 75 1
294 85 1
294 115 1
294 309 1
294 741 1
294 920 1
294 1255 1
294 1316 1
294 1436 1
294 1475 1
294 1790 1
294 1996 1
294 2247 1
294 2980 1
294 3564 1
294 3634 1
295 2 1
295 94 1
295 104 1
295 157 1
295 623 1
295 888 1
295 1879 1
295 2545 1
295 3010 1
295 4816 1
295 4924 1
296 17 1
296 26 1
296 56 1
296 120 1
296 616 1
296 1154 1
296 1236 1
296 1736 1
296 2162 1
297 29 1
297 38 1
297 217 1
297 226 1
297 346 1
297 369 1
297 413 1
297 783 1
297 818 1
297 1033 1
297 1097 1
297 1544 1
297 1591 1
297 2020 1
297 2311 1
297 2872 1
297 3730 1
297 3901 1
297 4016 1
297 4086 1
297 4577 1
298 3 1
298 14 1
298 39 1
298 152 1
298 1060 1
298 1091 1
298 1179 1
298 1280 1
298 1937 1
298 2335 1
298 2389 1
298 2948 1
298 3568 1
298 3692 1
298 4788 1
298 4871 1
299 13 1
299 45 1
299 86 1
299 100 1
299 884 1
299 1050 1
299 1124 1
299 1140 1
299 1659 1
299 1681 1
299 2303 1
299 2519 1
299 2671 1
299 3225 1
299 3627 1
299 4571 1
300 21 1
300 30 1
300 53 1
300 130 1
300 362 1
300 691 1
300 1071 1
300 1266 1
300 1448 1
300 1837 1
300 2028 1
300 2161 1
300 3624 1
300 3956 1
300 4113 1
300 4559 1
301 1 1
301 37 1
301 58 1
301 102 1
301 878 1
301 2004 1
301 2400 1
301 2779 1
301 3743 1
301 4067 1
302 5 1
302 17 1
302 166 1
302 217 1
302 322 1
302 344 1
302 379 1
302 609 1
302 856 1
302 924 1
302 1252 1
302 1277 1
302 1558 1
302 1830 1
302 1949 1
302 2229 1
302 2528 1
302 2675 1
302 2729 1
302 2796 1
302 3185 1
302 3361 1
302 3478 1
302 3735 1
302 4061 1
302 4824 1
303 1 1
303 12 1
303 24 1
303 166 1
303 351 1
303 355 1
303 561 1
303 691 1
303 878 1
303 916 1
303 1372 1
303 1457 1
303 1640 1
303 1755 1
303 1804 1
303 1997 1
303 2100 1
303 3074 1
303 3823 1
303 4102 1
304 45 1
304 72 1
304 91 1
304 228 1
304 352 1
304 571 1
304 591 1
304 895 1
304 955 1
304 1056 1
304 1060 1
304 1139 1
304 1487 1
304 1536 1
304 1625 1
304 1803 1
304 2007 1
304 2266 1
304 2282 1
304 2406 1
304 3375 1
304 3395 1
304 3914 1
304 4132 1
304 4395 1
304 4536 1
304 4770 1
305 95 1
305 108 1
305 137 1
305 258 1
305 323 1
305 340 1
305 399 1
305 435 1
305 555 1
305 610 1
305 707 1
305 808 1
305 905 1
305 1077 1
305 1406 1
305 1687 1
305 1691 1
305 2441 1
305 2459 1
305 2792 1
305 3213 1
305 3748 1
305 3909 1
305 4192 1
305 4881 1
306 3 1
306 23 1
306 27 1
306 37 1
306 3334 1
307 10 1
307 113 1
307 218 1
307 249 1
307 751 1
307 786 1
307 1248 1
307 1513 1
307 1890 1
307 1983 1
307 2077 1
307 2284 1
307 2325 1
307 3542 1
307 3835 1
307 4536 1
307 4544 1
308 14 1
308 78 1
308 163 1
308 212 1
308 552 1
308 564 1
308 767 1
308 1140 1
308 1471 1
308 1695 1
308 2097 1
308 2800 1
308 3149 1
308 3318 1
308 4018 1
308 4348 1
309 61 1
309 70 1
309 145 1
309 294 1
309 409 1
309 559 1
309 797 1
309 1070 1
309 1443 1
309 2048 1
309 2533 1
309 3021 1
309 3386 1
309 3524 1
309 3627 1
309 3657 1
309 4451 1
309 4476 1
309 4866 1
310 23 1
310 25 1
310 27 1
310 126 1
310 324 1
310 2104 1
310 2358 1
310 2683 1
310 3654 1
310 3718 1
310 4836 1
311 16 1
311 19 1
311 75 1
311 230 1
311 465 1
311 1908 1
311 2484 1
311 2543 1
311 3314 1
311 3767 1
311 4171 1
312 6 1
312 30 1
312 76 1
312 287 1
312 331 1
312 610 1
312 892 1
312 3477 1
312 4227 1
312 4548 1
313 39 1
313 45 1
313 254 1
313 291 1
313 503 1
313 666 1
313 836 1
313 841 1
313 859 1
313 1074 1
313 1186 1
313 1911 1
313 2234 1
313 2302 1
313 2795 1
313 3065 1
313 3071 1
313 4476 1
314 5 1
314 7 1
314 21 1
314 183 1
315 61 1
315 112 1
315 215 1
315 239 1
315 600 1
315 601 1
315 637 1
315 760 1
315 930 1
315 1165 1
315 1421 1
315 1515 1
315 2891 1
315 2957 1
315 3163 1
315 3253 1
315 3654 1
315 3938 1
315 4168 1
315 4318 1
315 4520 1
316 20 1
316 54 1
316 81 1
316 109 1
316 575 1
316 625 1
316 1147 1
316 1231 1
316 1823 1
316 2087 1
316 2145 1
316 2865 1
317 7 1
317 40 1
317 184 1
317 282 1
317 497 1
317 663 1
317 1063 1
317 3580 1
317 3582 1
318 49 1
318 90 1
318 118 1
318 217 1
318 360 1
318 429 1
318 441 1
318 455 1
318 484 1
318 563 1
318 611 1
318 757 1
318 804 1
318 900 1
318 904 1
318 1052 1
318 1206 1
318 1248 1
318 1373 1
318 1405 1
318 1610 1
318 1698 1
318 1873 1
318 1897 1
318 1951 1
318 2061 1
318 2639 1
318 3248 1
318 3352 1
318 3663 1
318 4507 1
319 1 1
319 178 1
319 198 1
319 271 1
319 839 1
319 1016 1
319 1052 1
319 1054 1
319 1099 1
319 1963 1
319 2493 1
319 2709 1
319 2946 1
319 3174 1
319 3195 1
319 3895 1
319 4044 1
319 4442 1
319 4715 1
320 6 1
320 14 1
320 72 1
320 131 1
320 323 1
320 647 1
320 755 1
320 759 1
320 776 1
320 935 1
320 997 1
320 1022 1
320 1197 1
320 1409 1
320 1646 1
320 2036 1
320 2507 1
320 2820 1
320 3729 1
320 3772 1
320 3863 1
320 4230 1
321 58 1
321 111 1
321 148 1
321 180 1
321 474 1
321 502 1
321 595 1
321 833 1
321 889 1
321 932 1
321 1137 1
321 1422 1
321 2441 1
321 2784 1
321 3025 1
321 3409 1
321 4096 1
322 5 1
322 117 1
322 124 1
322 302 1
322 1006 1
322 2082 1
322 2159 1
322 4001 1
322 4499 1
322 4757 1
323 47 1
323 111 1
323 305 1
323 320 1
323 471 1
323 703 1
323 814 1
323 1153 1
323 1438 1
323 1759 1
323 1809 1
323 2491 1
323 3287 1
323 3310 1
324 32 1
324 82 1
324 118 1
324 310 1
324 401 1
324 527 1
324 614 1
324 782 1
324 858 1
324 883 1
324 1033 1
324 2012 1
324 2170 1
324 3678 1
324 3772 1
324 4013 1
324 4093 1
324 4192 1
324 4827 1
325 68 1
325 78 1
325 83 1
325 123 1
325 542 1
325 1351 1
325 3401 1
326 84 1
326 125 1
326 150 1
326 182 1
326 769 1
326 808 1
326 1027 1
326 1082 1
326 1120 1
326 1521 1
326 1663 1
326 1900 1
326 2148 1
326 2578 1
326 2909 1
326 2929 1
326 3205 1
326 3352 1
326 4196 1
326 4237 1
326 4346 1
326 4857 1
327 36 1
327 81 1
327 94 1
327 240 1
327 855 1
327 924 1
327 1207 1
327 1272 1
327 1904 1
327 2307 1
327 2384 1
327 2546 1
327 3128 1
327 3236 1
327 3288 1
327 3533 1
327 3705 1
327 3830 1
328 95 1
328 100 1
328 106 1
328 216 1
328 2240 1
328 3320 1
329 10 1
329 27 1
329 178 1
329 276 1
329 506 1
329 1327 1
329 1903 1
329 1994 1
329 2494 1
329 2554 1
329 3055 1
329 4173 1
330 14 1
330 76 1
330 130 1
330 195 1
330 354 1
330 875 1
330 937 1
330 1103 1
330 1368 1
330 1488 1
330 1833 1
330 4786 1
331 110 1
331 161 1
331 218 1
331 312 1
331 500 1
331 785 1
331 1107 1
331 1170 1
331 1267 1
331 1332 1
331 1641 1
331 1707 1
331 2096 1
331 2893 1
331 3046 1
331 3048 1
331 3390 1
331 3874 1
332 13 1
332 222 1
332 251 1
332 287 1
332 588 1
332 1011 1
332 2574 1
333 9 1
333 10 1
333 126 1
333 131 1
333 544 1
333 797 1
333 869 1
333 879 1
333 1174 1
333 1209 1
333 1881 1
333 3802 1
333 4595 1
334 1 1
334 11 1
334 12 1
334 14 1
334 461 1
334 623 1
334 2324 1
334 2382 1
334 2390 1
334 3455 1
334 3992 1
335 21 1
335 60 1
335 74 1
335 123 1
335 469 1
335 706 1
335 933 1
335 1158 1
335 1162 1
335 1212 1
335 1565 1
335 1743 1
335 2103 1
335 2316 1
335 2488 1
335 2697 1
335 3007 1
335 3916 1
335 4527 1
336 1 1
336 24 1
336 54 1
336 69 1
336 653 1
336 1212 1
336 1952 1
336 3498 1
337 1 1
337 7 1
337 36 1
337 43 1
337 357 1
337 672 1
337 1284 1
337 1309 1
337 1314 1
337 1405 1
337 1545 1
337 2234 1
337 2278 1
337 2303 1
337 2377 1
337 2445 1
337 2775 1
337 4615 1
337 4784 1
337 4859 1
338 7 1
338 55 1
338 106 1
338 266 1
338 424 1
338 480 1
338 799 1
338 802 1
338 916 1
338 969 1
338 1151 1
338 1172 1
338 1508 1
338 1556 1
338 1775 1
338 2928 1
338 3591 1
338 4076 1
338 4616 1
338 4862 1
339 3 1
339 14 1
339 73 1
339 94 1
339 436 1
339 439 1
339 676 1
339 751 1
339 784 1
339 870 1
339 1177 1
339 1506 1
339 1517 1
339 2137 1
339 2181 1
339 2527 1
339 2640 1
339 3633 1
339 4829 1
340 10 1
340 147 1
340 226 1
340 305 1
340 499 1
340 563 1
340 642 1
340 680 1
340 758 1
340 840 1
340 877 1
340 1044 1
340 1162 1
340 1476 1
340 3627 1
340 3897 1
340 3898 1
340 4219 1
341 6 1
341 74 1
341 173 1
341 176 1
341 420 1
341 879 1
341 1114 1
341 1257 1
341 1838 1
341 2019 1
341 2453 1
341 2719 1
341 3378 1
341 4071 1
341 4531 1
341 4791 1
342 40 1
342 100 1
342 193 1
342 252 1
342 601 1
342 781 1
342 822 1
342 1091 1
342 3221 1
342 3428 1
342 4116 1
342 4498 1
343 25 1
343 92 1
343 96 1
343 131 1
343 529 1
343 649 1
343 736 1
343 1041 1
343 1310 1
343 1488 1
343 1560 1
343 1760 1
343 2246 1
343 2444 1
343 2681 1
343 3218 1
343 3710 1
343 3845 1
343 4291 1
344 6 1
344 53 1
344 155 1
344 302 1
344 510 1
344 528 1
344 763 1
344 814 1
344 1115 1
344 1361 1
344 1439 1
344 1749 1
344 2018 1
344 2239 1
344 3801 1
344 4216 1
344 4722 1
345 18 1
345 39 1
345 123 1
345 145 1
345 378 1
345 544 1
345 641 1
345 802 1
345 1662 1
345 1768 1
345 1781 1
345 1867 1
345 1899 1
345 1990 1
345 2790 1
345 2813 1
345 2899 1
345 3123 1
345 3674 1
345 4143 1
345 4277 1
345 4630 1
346 56 1
346 105 1
346 111 1
346 297 1
346 405 1
346 538 1
346 745 1
346 1364 1
346 2486 1
346 2500 1
346 2601 1
346 4134 1
347 1 1
347 11 1
347 29 1
347 126 1
347 385 1
347 650 1
347 878 1
347 973 1
347 1473 1
347 2774 1
347 3946 1
348 36 1
348 120 1
348 137 1
348 186 1
348 831 1
348 1670 1
348 2728 1
348 2774 1
348 2802 1
348 2808 1
348 2865 1
348 2886 1
348 3512 1
348 4188 1
349 26 1
349 29 1
349 80 1
349 131 1
349 720 1
349 1101 1
349 1311 1
349 1958 1
349 2772 1
349 4309 1
350 1 1
350 40 1
350 132 1
350 143 1
350 367 1
350 523 1
350 766 1
350 876 1
350 1241 1
350 1330 1
350 3248 1
350 4882 1
351 93 1
351 103 1
351 152 1
351 303 1
351 694 1
351 776 1
351 1164 1
351 1286 1
351 1386 1
351 1818 1
351 2052 1
351 2993 1
351 3076 1
351 4072 1
351 4137 1
351 4293 1
351 4821 1
352 51 1
352 85 1
352 276 1
352 304 1
352 483 1
352 534 1
352 651 1
352 717 1
352 860 1
352 926 1
352 971 1
352 1931 1
352 1944 1
352 2383 1
352 2732 1
352 2915 1
352 3058 1
352 3617 1
352 3921 1
352 4108 1
352 4212 1
352 4582 1
352 4781 1
352 4842 1
353 6 1
353 74 1
353 159 1
353 165 1
353 495 1
353 1250 1
353 1413 1
353 1945 1
353 2268 1
353 2676 1
353 3755 1
353 4456 1
353 4764 1
354 9 1
354 16 1
354 95 1
354 330 1
354 400 1
354 492 1
354 622 1
354 687 1
354 764 1
354 835 1
354 905 1
354 1021 1
354 1203 1
354 1275 1
354 1483 1
354 1585 1
354 1588 1
354 1597 1
354 1717 1
354 1752 1
354 1800 1
354 1991 1
354 2143 1
354 2153 1
354 2505 1
354 2632 1
354 3505 1
354 4192 1
354 4295 1
354 4353 1
354 4468 1
354 4540 1
354 4740 1
355 48 1
355 164 1
355 198 1
355 303 1
355 376 1
355 549 1
355 702 1
355 747 1
355 872 1
355 1084 1
355 1154 1
355 1469 1
355 1498 1
355 1531 1
355 2205 1
355 2776 1
355 2855 1
355 3218 1
355 3380 1
355 3756 1
355 3947 1
355 4350 1
355 4823 1
355 4865 1
355 4957 1
356 23 1
356 53 1
356 204 1
356 290 1
356 375 1
356 763 1
356 902 1
356 934 1
356 1057 1
356 1217 1
356 1319 1
356 1378 1
356 1444 1
356 2010 1
356 2749 1
356 2768 1
356 2887 1
356 3194 1
356 3345 1
356 3417 1
356 3845 1
356 4181 1
357 149 1
357 212 1
357 217 1
357 337 1
357 373 1
357 671 1
357 838 1
357 1724 1
357 2766 1
357 3214 1
357 4081 1
357 4469 1
358 6 1
358 85 1
358 91 1
358 244 1
358 468 1
358 603 1
358 812 1
358 1068 1
358 1682 1
358 1770 1
358 3115 1
359 18 1
359 43 1
359 51 1
359 174 1
359 485 1
359 518 1
359 854 1
359 946 1
359 1490 1
359 2152 1
359 2743 1
359 3800 1
360 6 1
360 110 1
360 213 1
360 318 1
360 641 1
360 690 1
360 962 1
360 1234 1
360 1337 1
360 1502 1
360 1606 1
360 2097 1
360 2307 1
360 2468 1
361 39 1
361 78 1
361 191 1
361 281 1
361 517 1
361 604 1
361 1004 1
361 1089 1
361 1779 1
361 2226 1
361 2442 1
361 2588 1
361 2734 1
361 3599 1
361 3834 1
361 4165 1
361 4587 1
361 4740 1
362 17 1
362 141 1
362 279 1
362 300 1
362 473 1
362 524 1
362 1405 1
362 2010 1
362 2247 1
362 3853 1
362 3865 1
362 4855 1
363 9 1
363 74 1
363 123 1
363 293 1
363 883 1
363 885 1
363 1562 1
363 1748 1
363 1767 1
363 2494 1
363 3524 1
363 4053 1
363 4106 1
364 13 1
364 28 1
364 123 1
364 219 1
364 578 1
364 1039 1
364 1252 1
364 2284 1
364 2862 1
364 3382 1
364 3539 1
364 3869 1
365 17 1
365 62 1
365 177 1
365 205 1
365 377 1
365 401 1
365 447 1
365 491 1
365 570 1
365 818 1
365 962 1
365 1586 1
365 2025 1
365 2755 1
365 3221 1
365 4799 1
366 22 1
366 25 1
366 130 1
366 250 1
366 669 1
366 1482 1
366 3512 1
367 2 1
367 6 1
367 30 1
367 350 1
367 684 1
367 3437 1
367 3546 1
367 4125 1
368 1 1
368 8 1
368 203 1
368 238 1
368 481 1
368 738 1
368 790 1
368 1550 1
368 1808 1
368 2185 1
368 2410 1
368 3951 1
368 4851 1
369 12 1
369 86 1
369 205 1
369 297 1
369 2989 1
369 3284 1
370 1 1
370 16 1
370 20 1
370 59 1
370 575 1
370 765 1
370 3526 1
370 4109 1
371 61 1
371 95 1
371 248 1
371 287 1
371 374 1
371 456 1
371 473 1
371 712 1
371 754 1
371 1151 1
371 1333 1
371 1473 1
371 1536 1
371 1571 1
371 1628 1
371 2070 1
371 2150 1
371 2208 1
371 3157 1
371 3179 1
371 3217 1
371 3618 1
371 3785 1
372 28 1
372 123 1
372 143 1
372 249 1
372 432 1
372 466 1
372 900 1
372 1001 1
372 1051 1
372 1118 1
372 1227 1
372 2597 1
372 2819 1
372 3597 1
372 3932 1
373 1 1
373 22 1
373 100 1
373 357 1
373 421 1
373 586 1
373 641 1
373 696 1
373 800 1
373 884 1
373 888 1
373 1188 1
373 1557 1
373 1989 1
373 2103 1
373 2442 1
373 2450 1
373 2633 1
373 3290 1
373 3630 1
373 3883 1
373 4040 1
373 4252 1
373 4694 1
373 4772 1
374 6 1
374 45 1
374 218 1
374 371 1
374 474 1
374 553 1
374 619 1
374 620 1
374 691 1
374 1105 1
374 1503 1
374 1584 1
374 1597 1
374 1643 1
374 2462 1
374 3707 1
375 53 1
375 92 1
375 216 1
375 356 1
375 955 1
375 1487 1
375 2364 1
375 2396 1
375 2989 1
376 6 1
376 117 1
376 221 1
376 355 1
376 1318 1
376 2480 1
376 2606 1
376 2917 1
376 3407 1
376 3495 1
376 4251 1
376 4504 1
376 4710 1
377 14 1
377 30 1
377 103 1
377 365 1
377 1130 1
377 1845 1
377 2278 1
377 3019 1
377 3853 1
377 4461 1
378 8 1
378 171 1
378 242 1
378 345 1
378 434 1
378 453 1
378 760 1
378 1811 1
378 4209 1
378 4263 1
378 4882 1
379 6 1
379 10 1
379 119 1
379 302 1
379 396 1
379 477 1
379 1827 1
379 4567 1
380 1 1
380 2 1
380 221 1
380 226 1
380 854 1
380 1329 1
381 1 1
381 50 1
381 54 1
381 138 1
381 867 1
381 2039 1
381 2136 1
381 3417 1
381 3968 1
382 11 1
382 13 1
382 16 1
382 70 1
382 440 1
382 628 1
382 629 1
382 770 1
382 1672 1
382 1841 1
382 2706 1
382 2718 1
382 3210 1
382 3435 1
383 7 1
383 20 1
383 45 1
383 156 1
383 494 1
383 1283 1
383 2814 1
384 54 1
384 98 1
384 131 1
384 195 1
384 995 1
384 1127 1
384 1530 1
384 1593 1
384 2714 1
384 2964 1
384 3241 1
384 3761 1
384 4607 1
384 4638 1
385 58 1
385 147 1
385 189 1
385 347 1
385 474 1
385 670 1
385 730 1
385 980 1
385 1330 1
385 1403 1
385 1437 1
385 1935 1
385 1947 1
385 2130 1
385 2165 1
385 2257 1
385 2698 1
385 2900 1
385 3027 1
385 3070 1
385 3108 1
385 3140 1
385 3142 1
385 4342 1
385 4368 1
386 76 1
386 87 1
386 157 1
386 239 1
386 555 1
386 560 1
386 572 1
386 753 1
386 1092 1
386 1528 1
386 1702 1
386 1853 1
386 1965 1
386 3450 1
386 3454 1
386 3519 1
386 3718 1
386 3844 1
386 4337 1
387 11 1
387 217 1
387 246 1
387 274 1
387 407 1
387 788 1
387 881 1
387 967 1
387 990 1
387 1065 1
387 1216 1
387 2029 1
387 2213 1
387 2434 1
387 2672 1
387 3140 1
387 3300 1
387 3691 1
387 3702 1
387 4175 1
387 4695 1
387 4751 1
387 4947 1
388 6 1
388 28 1
388 106 1
388 231 1
388 487 1
388 500 1
388 693 1
388 715 1
388 766 1
388 880 1
388 958 1
388 1380 1
388 1556 1
388 1683 1
388 2346 1
388 3059 1
388 3148 1
388 3818 1
388 4157 1
388 4338 1
389 3 1
389 11 1
389 36 1
389 82 1
389 507 1
389 4606 1
389 4987 1
390 6 1
390 9 1
390 45 1
390 91 1
390 560 1
390 1101 1
390 2236 1
390 3346 1
390 3354 1
390 3812 1
391 1 1
391 45 1
391 83 1
391 200 1
391 747 1
391 2980 1
392 1 1
392 6 1
392 7 1
392 186 1
392 557 1
392 699 1
392 1086 1
392 1459 1
392 1567 1
392 1735 1
392 1933 1
392 2354 1
392 2379 1
392 2471 1
392 2857 1
392 3327 1
392 4994 1
393 15 1
393 175 1
393 183 1
393 221 1
393 578 1
393 1298 1
393 2531 1
393 3777 1
393 3863 1
394 6 1
394 12 1
394 108 1
394 234 1
394 1959 1
394 3601 1
394 4115 1
394 4713 1
395 84 1
395 120 1
395 172 1
395 271 1
395 539 1
395 1070 1
395 1170 1
395 1377 1
395 1633 1
395 2020 1
395 2068 1
395 3655 1
395 3675 1
395 3828 1
395 3850 1
395 3944 1
395 3947 1
395 4435 1
395 4858 1
396 86 1
396 178 1
396 256 1
396 379 1
396 400 1
396 593 1
396 685 1
396 880 1
396 903 1
396 1031 1
396 1964 1
396 2389 1
396 2429 1
396 3026 1
396 3923 1
396 4136 1
396 4618 1
396 4845 1
396 4870 1
397 20 1
397 66 1
397 106 1
397 240 1
397 464 1
397 1612 1
397 3261 1
397 4682 1
398 38 1
398 66 1
398 223 1
398 262 1
398 969 1
398 2297 1
398 3162 1
399 8 1
399 164 1
399 270 1
399 305 1
399 579 1
399 627 1
399 849 1
399 1094 1
399 1239 1
399 1303 1
399 1454 1
399 1694 1
399 2049 1
399 2697 1
399 2727 1
399 2730 1
399 2775 1
399 2891 1
399 2926 1
399 3200 1
399 3368 1
399 3400 1
399 3680 1
399 3814 1
399 3877 1
399 4116 1
399 4416 1
400 61 1
400 90 1
400 354 1
400 396 1
400 845 1
400 988 1
400 1040 1
400 1100 1
400 1176 1
400 1539 1
400 1842 1
400 2031 1
400 2569 1
400 2998 1
401 1 1
401 126 1
401 324 1
401 365 1
401 536 1
401 773 1
401 855 1
401 1458 1
401 1523 1
401 1569 1
401 2014 1
401 2204 1
401 2449 1
401 2452 1
401 2513 1
401 3051 1
401 4438 1
401 4521 1
402 10 1
402 80 1
402 158 1
402 266 1
402 425 1
402 428 1
402 1072 1
402 1499 1
402 1671 1
402 2718 1
402 3388 1
403 7 1
403 43 1
403 76 1
403 108 1
403 414 1
403 1364 1
403 1381 1
403 1539 1
403 2645 1
403 3093 1
403 4305 1
403 4572 1
404 1 1
404 3 1
404 94 1
404 251 1
404 2246 1
404 4425 1
405 61 1
405 153 1
405 213 1
405 346 1
405 454 1
405 548 1
405 754 1
405 1664 1
405 1998 1
405 2764 1
406 1 1
406 14 1
406 105 1
406 224 1
406 553 1
406 577 1
406 646 1
406 899 1
406 1728 1
406 1742 1
406 2556 1
406 2764 1
406 3213 1
406 4285 1
407 1 1
407 21 1
407 210 1
407 387 1
407 714 1
407 927 1
407 3374 1
407 4549 1
408 3 1
408 68 1
408 73 1
408 96 1
408 646 1
408 795 1
408 1281 1
408 1647 1
408 4210 1
408 4409 1
409 38 1
409 118 1
409 250 1
409 309 1
409 416 1
409 513 1
409 522 1
409 967 1
409 1379 1
409 1391 1
409 1609 1
409 1736 1
409 2396 1
409 2477 1
409 3068 1
409 3162 1
409 3594 1
409 4167 1
409 4482 1
410 32 1
410 93 1
410 192 1
410 244 1
410 944 1
410 1164 1
410 1218 1
410 1906 1
410 2353 1
410 3170 1
411 18 1
411 30 1
411 68 1
411 75 1
411 1017 1
411 2713 1
411 4672 1
412 12 1
412 193 1
412 223 1
412 293 1
412 515 1
412 589 1
412 846 1
412 1145 1
412 1923 1
412 1961 1
412 2130 1
412 2711 1
412 3052 1
412 3274 1
412 3700 1
412 4118 1
412 4343 1
413 6 1
413 18 1
413 236 1
413 297 1
413 587 1
413 989 1
413 1345 1
413 2625 1
413 2863 1
413 2891 1
413 2916 1
413 4266 1
413 4464 1
413 4967 1
414 11 1
414 77 1
414 91 1
414 403 1
414 680 1
414 1299 1
414 1557 1
414 2118 1
414 2918 1
415 1 1
415 31 1
415 131 1
415 229 1
415 510 1
415 717 1
415 1305 1
415 1405 1
415 1719 1
415 2003 1
415 2285 1
415 2608 1
415 3366 1
415 3431 1
415 3470 1
415 4273 1
415 4443 1
415 4498 1
415 4670 1
415 4785 1
416 6 1
416 58 1
416 207 1
416 409 1
416 925 1
416 1201 1
416 3305 1
416 3475 1
416 3548 1
416 3928 1
417 10 1
417 34 1
417 55 1
417 105 1
417 588 1
417 1695 1
417 3137 1
417 3559 1
417 4581 1
418 8 1
418 21 1
418 74 1
418 107 1
418 504 1
418 634 1
418 722 1
418 2199 1
418 2258 1
418 2825 1
418 3652 1
418 3893 1
418 4108 1
418 4380 1
418 4931 1
419 160 1
419 166 1
419 263 1
419 275 1
419 535 1
419 685 1
419 828 1
419 1036 1
419 1229 1
419 1246 1
419 1251 1
419 1618 1
419 2006 1
419 2259 1
419 2433 1
419 2680 1
419 3083 1
419 3365 1
419 3833 1
419 3968 1
419 4010 1
419 4125 1
419 4543 1
419 4776 1
420 43 1
420 252 1
420 280 1
420 341 1
420 650 1
420 737 1
420 1194 1
420 1239 1
420 1393 1
420 1413 1
420 1884 1
420 3274 1
420 3684 1
420 4107 1
420 4731 1
420 4759 1
421 76 1
421 206 1
421 279 1
421 373 1
421 463 1
421 574 1
421 838 1
421 894 1
421 1111 1
421 1117 1
421 1241 1
421 1935 1
421 2151 1
421 2167 1
421 3485 1
421 3654 1
421 4070 1
421 4552 1
421 4589 1
422 8 1
422 152 1
422 162 1
422 290 1
422 612 1
422 656 1
422 954 1
422 1268 1
422 1388 1
422 2373 1
422 2407 1
422 2431 1
422 2921 1
422 4546 1
422 4592 1
423 101 1
423 183 1
423 232 1
423 265 1
423 514 1
423 592 1
423 756 1
423 942 1
423 971 1
423 1110 1
423 1275 1
423 1460 1
423 1625 1
423 1858 1
423 1864 1
423 1915 1
423 2345 1
423 2996 1
423 3196 1
423 3248 1
423 3972 1
423 4412 1
423 4899 1
423 4982 1
424 54 1
424 94 1
424 250 1
424 338 1
424 438 1
424 475 1
424 669 1
424 721 1
424 773 1
424 951 1
424 1501 1
424 1918 1
424 2068 1
424 2549 1
424 3910 1
424 3919 1
424 4084 1
424 4170 1
425 6 1
425 97 1
425 147 1
425 402 1
425 741 1
425 991 1
425 1175 1
425 1263 1
425 1296 1
425 1380 1
425 1671 1
425 1773 1
425 2038 1
425 2508 1
425 2717 1
425 3422 1
425 3473 1
425 3495 1
425 3949 1
425 3955 1
426 11 1
426 38 1
426 44 1
426 230 1
426 470 1
426 1524 1
426 2098 1
426 2767 1
426 3446 1
426 3447 1
426 4724 1
426 4961 1
427 8 1
427 53 1
427 61 1
427 75 1
427 458 1
427 545 1
427 765 1
427 1440 1
427 1679 1
427 1911 1
427 3208 1
427 3587 1
427 3929 1
428 1 1
428 12 1
428 183 1
428 402 1
428 537 1
428 575 1
428 870 1
428 1174 1
428 1199 1
428 1452 1
428 1564 1
428 1571 1
428 1797 1
428 2512 1
428 2538 1
428 3880 1
428 4847 1
429 1 1
429 217 1
429 251 1
429 318 1
429 533 1
429 1009 1
429 2040 1
429 3461 1
429 4707 1
430 36 1
430 56 1
430 211 1
430 264 1
430 819 1
430 1565 1
430 1975 1
430 2034 1
430 2318 1
430 2348 1
430 2498 1
430 2591 1
430 2846 1
430 2976 1
430 3817 1
430 3865 1
430 3952 1
430 4650 1
431 30 1
431 91 1
431 97 1
431 171 1
431 488 1
431 531 1
431 1058 1
431 1236 1
431 1306 1
431 1440 1
431 1819 1
431 2514 1
431 3018 1
431 4189 1
431 4983 1
432 76 1
432 100 1
432 184 1
432 372 1
432 517 1
432 574 1
432 708 1
432 848 1
432 889 1
432 2297 1
432 3107 1
432 3659 1
432 4460 1
432 4596 1
432 4730 1
433 23 1
433 98 1
433 246 1
433 250 1
433 599 1
433 1111 1
433 2185 1
433 2209 1
433 2288 1
433 2606 1
433 2620 1
433 2685 1
433 3091 1
433 3694 1
433 4560 1
434 60 1
434 157 1
434 202 1
434 378 1
434 488 1
434 702 1
434 795 1
434 933 1
434 988 1
434 1281 1
434 1780 1
434 2387 1
434 3095 1
434 3190 1
434 3380 1
434 3536 1
434 3983 1
434 3993 1
434 4293 1
434 4587 1
435 23 1
435 206 1
435 210 1
435 305 1
435 596 1
435 693 1
435 789 1
435 1031 1
435 1091 1
435 1101 1
435 1207 1
435 1537 1
435 2035 1
435 2529 1
435 3301 1
435 3856 1
435 4980 1
436 76 1
436 131 1
436 188 1
436 339 1
436 1088 1
436 1089 1
436 1551 1
436 1683 1
436 1959 1
436 2026 1
436 4542 1
436 4758 1
436 4841 1
437 3 1
437 8 1
437 34 1
437 155 1
437 658 1
437 824 1
437 1129 1
437 1552 1
437 1629 1
437 1928 1
437 1967 1
437 2364 1
437 3144 1
437 4299 1
437 4677 1
438 133 1
438 251 1
438 257 1
438 424 1
438 514 1
438 527 1
438 559 1
438 562 1
438 648 1
438 789 1
438 1241 1
438 1709 1
438 3089 1
438 3666 1
438 4153 1
438 4701 1
438 4785 1
439 54 1
439 141 1
439 212 1
439 339 1
439 602 1
439 995 1
439 1258 1
439 1280 1
439 1447 1
439 1627 1
439 1846 1
439 2687 1
439 3287 1
439 3960 1
439 4108 1
439 4257 1
439 4619 1
439 4681 1
439 4725 1
440 7 1
440 36 1
440 109 1
440 382 1
440 713 1
440 1103 1
440 1311 1
440 1412 1
440 2995 1
440 3132 1
440 3551 1
440 4215 1
441 36 1
441 49 1
441 132 1
441 318 1
441 935 1
441 1947 1
441 2152 1
441 2225 1
441 3834 1
441 3863 1
441 4345 1
442 2 1
442 7 1
442 136 1
442 246 1
442 664 1
442 1476 1
442 1674 1
442 1985 1
442 4235 1
442 4752 1
443 54 1
443 110 1
443 175 1
443 194 1
443 869 1
443 914 1
443 1882 1
443 2819 1
443 2915 1
443 3125 1
443 4154 1
444 6 1
444 16 1
444 49 1
444 105 1
444 552 1
444 944 1
444 1900 1
444 2397 1
444 2540 1
444 2782 1
444 3717 1
444 3737 1
444 4444 1
445 6 1
445 9 1
445 76 1
445 286 1
445 1123 1
445 3252 1
446 6 1
446 71 1
446 109 1
446 143 1
446 2982 1
446 4602 1
446 4968 1
447 52 1
447 134 1
447 258 1
447 365 1
447 1179 1
447 1703 1
447 2175 1
447 2322 1
447 2805 1
448 46 1
448 53 1
448 122 1
448 210 1
448 1608 1
449 1 1
449 18 1
449 43 1
449 45 1
449 917 1
449 2289 1
449 2439 1
449 2444 1
449 2620 1
449 2755 1
449 2897 1
449 4582 1
450 44 1
450 61 1
450 94 1
450 104 1
450 521 1
450 682 1
450 1143 1
450 1213 1
450 1443 1
450 2800 1
450 3029 1
450 3105 1
450 4048 1
450 4118 1
450 4247 1
451 29 1
451 74 1
451 156 1
451 217 1
451 590 1
451 2063 1
451 3415 1
451 3874 1
451 4424 1
451 4764 1
452 30 1
452 205 1
452 216 1
452 284 1
452 556 1
452 725 1
452 959 1
452 1277 1
452 2206 1
452 4622 1
453 2 1
453 12 1
453 237 1
453 378 1
453 2127 1
453 2323 1
453 3160 1
453 3584 1
453 3728 1
453 3938 1
453 4237 1
453 4598 1
453 4762 1
454 17 1
454 42 1
454 278 1
454 405 1
454 467 1
454 482 1
454 1462 1
454 2043 1
454 4449 1
455 8 1
455 28 1
455 286 1
455 318 1
455 985 1
455 1057 1
455 1478 1
455 1790 1
455 1796 1
455 1980 1
455 2134 1
455 2339 1
455 2683 1
455 3641 1
455 3730 1
455 3835 1
455 4518 1
455 4658 1
455 4831 1
456 6 1
456 149 1
456 172 1
456 371 1
456 1137 1
456 1552 1
456 1735 1
456 2157 1
456 2413 1
456 4856 1
457 54 1
457 66 1
457 278 1
457 284 1
457 512 1
457 602 1
457 841 1
457 1083 1
457 1259 1
457 1320 1
457 2491 1
457 2493 1
457 2975 1
457 3293 1
457 4347 1
457 4836 1
458 117 1
458 125 1
458 219 1
458 427 1
458 549 1
458 708 1
458 1433 1
458 1438 1
458 1611 1
458 1966 1
458 2310 1
458 2864 1
458 2892 1
458 2971 1
458 3100 1
458 3341 1
458 3717 1
458 3792 1
458 3986 1
458 4155 1
458 4761 1
458 4967 1
459 16 1
459 109 1
459 110 1
459 194 1
459 599 1
459 846 1
459 1863 1
459 3109 1
459 3283 1
459 3367 1
459 3584 1
459 4990 1
460 7 1
460 9 1
460 138 1
460 153 1
460 994 1
460 1063 1
460 1088 1
460 1152 1
460 1205 1
460 1539 1
460 2431 1
460 3247 1
460 3297 1
460 3354 1
460 4185 1
460 4250 1
461 104 1
461 160 1
461 209 1
461 334 1
461 635 1
461 1442 1
461 1843 1
461 1885 1
461 2195 1
461 3126 1
461 3364 1
461 3624 1
461 4500 1
461 4967 1
462 34 1
462 38 1
462 42 1
462 197 1
462 579 1
462 1304 1
462 1902 1
462 3905 1
463 3 1
463 27 1
463 61 1
463 421 1
463 487 1
463 1214 1
463 1653 1
463 1749 1
463 3015 1
463 3324 1
463 4832 1
464 5 1
464 29 1
464 95 1
464 397 1
464 588 1
464 1031 1
464 1136 1
464 1142 1
464 1262 1
464 1560 1
464 1940 1
464 2479 1
464 2669 1
464 2819 1
464 3568 1
464 4982 1
465 30 1
465 73 1
465 162 1
465 311 1
465 617 1
465 639 1
465 753 1
465 874 1
465 911 1
465 920 1
465 1106 1
465 1141 1
465 1266 1
465 1290 1
465 1369 1
465 2299 1
465 2900 1
465 4501 1
465 4728 1
466 37 1
466 66 1
466 210 1
466 372 1
466 506 1
466 514 1
466 899 1
466 1187 1
466 1264 1
466 1553 1
466 2161 1
466 2548 1
466 2594 1
466 2772 1
466 3189 1
466 3352 1
466 3438 1
466 3826 1
466 4033 1
466 4531 1
466 4636 1
467 11 1
467 19 1
467 127 1
467 454 1
467 1069 1
467 1324 1
467 2757 1
468 1 1
468 14 1
468 243 1
468 358 1
468 724 1
468 732 1
468 748 1
468 1185 1
468 3713 1
468 3822 1
468 4815 1
469 6 1
469 202 1
469 217 1
469 335 1
469 640 1
469 1009 1
469 3780 1
469 4120 1
469 4780 1
470 23 1
470 28 1
470 121 1
470 426 1
470 600 1
470 816 1
470 1067 1
470 1310 1
470 1988 1
470 3347 1
471 45 1
471 56 1
471 98 1
471 323 1
471 1134 1
471 1225 1
471 1307 1
471 2720 1
471 3011 1
471 4819 1
472 3 1
472 7 1
472 183 1
472 258 1
472 610 1
472 1244 1
472 1527 1
472 1979 1
472 4832 1
472 4914 1
473 58 1
473 99 1
473 362 1
473 371 1
473 821 1
473 988 1
473 1238 1
473 1461 1
473 1905 1
473 2016 1
473 3864 1
473 4076 1
474 111 1
474 321 1
474 374 1
474 385 1
474 510 1
474 536 1
474 824 1
474 945 1
474 1098 1
474 1228 1
474 1518 1
474 1739 1
474 2582 1
474 3611 1
474 3849 1
474 4054 1
474 4133 1
475 14 1
475 91 1
475 109 1
475 424 1
475 503 1
475 622 1
475 733 1
475 1367 1
475 1450 1
475 1531 1
475 1739 1
475 2085 1
475 2827 1
475 4481 1
476 11 1
476 110 1
476 111 1
476 178 1
476 530 1
476 984 1
476 1153 1
476 1253 1
476 1605 1
476 1991 1
476 2456 1
476 2772 1
476 3041 1
476 3408 1
476 3599 1
476 4176 1
476 4626 1
477 32 1
477 160 1
477 267 1
477 379 1
477 2183 1
478 1 1
478 3 1
478 53 1
478 188 1
478 486 1
478 523 1
478 1093 1
478 1179 1
478 2117 1
478 2230 1
478 2752 1
478 3660 1
478 4291 1
479 7 1
479 52 1
479 88 1
479 143 1
479 520 1
479 1014 1
479 1252 1
479 2071 1
479 2340 1
479 3096 1
479 3110 1
480 24 1
480 29 1
480 206 1
480 338 1
480 615 1
480 1156 1
480 1439 1
480 1520 1
480 1973 1
480 1988 1
480 2276 1
480 3319 1
481 5 1
481 28 1
481 132 1
481 368 1
481 535 1
481 667 1
481 781 1
481 839 1
481 852 1
481 950 1
481 1633 1
481 1772 1
481 2158 1
481 2271 1
481 3095 1
481 3282 1
481 3787 1
481 3959 1
481 4503 1
481 4890 1
481 4956 1
482 154 1
482 213 1
482 230 1
482 454 1
482 605 1
482 848 1
482 1581 1
482 1601 1
482 1966 1
482 1971 1
482 2469 1
482 2925 1
482 3326 1
482 3379 1
482 3765 1
482 4186 1
482 4864 1
482 4945 1
483 43 1
483 54 1
483 90 1
483 352 1
483 826 1
483 1024 1
483 1873 1
483 2350 1
484 10 1
484 33 1
484 113 1
484 318 1
484 632 1
484 2367 1
485 25 1
485 88 1
485 287 1
485 359 1
485 811 1
485 1663 1
485 1710 1
485 2378 1
485 2912 1
485 4208 1
485 4447 1
486 1 1
486 240 1
486 244 1
486 478 1
486 540 1
486 583 1
486 777 1
486 2182 1
486 2436 1
486 2503 1
486 2682 1
486 3137 1
486 3464 1
487 29 1
487 175 1
487 388 1
487 463 1
487 951 1
487 1002 1
487 1470 1
487 1671 1
487 2000 1
487 2053 1
487 2286 1
487 2477 1
487 2767 1
487 3518 1
488 27 1
488 217 1
488 431 1
488 434 1
488 704 1
488 851 1
488 1365 1
488 1673 1
488 2669 1
488 2735 1
488 3075 1
488 3805 1
488 4002 1
488 4389 1
488 4511 1
488 4561 1
488 4567 1
488 4770 1
489 1 1
489 3 1
489 38 1
489 221 1
489 1041 1
489 1257 1
489 1659 1
489 1734 1
489 1746 1
489 3539 1
489 4333 1
490 95 1
490 145 1
490 215 1
490 285 1
490 501 1
490 509 1
490 906 1
490 980 1
490 1047 1
490 1397 1
490 1406 1
490 1513 1
490 2232 1
490 2553 1
490 4780 1
491 12 1
491 44 1
491 233 1
491 365 1
491 566 1
491 737 1
491 794 1
491 835 1
491 991 1
491 1176 1
491 1214 1
491 1598 1
491 1779 1
491 2211 1
491 2223 1
491 2312 1
491 2509 1
491 2815 1
491 3487 1
491 3496 1
491 4350 1
491 4541 1
491 4718 1
492 10 1
492 15 1
492 28 1
492 354 1
492 512 1
492 531 1
492 1243 1
492 1668 1
492 1856 1
492 2366 1
492 2376 1
492 2746 1
492 3692 1
492 4417 1
493 2 1
493 11 1
493 36 1
493 217 1
493 639 1
493 656 1
493 845 1
493 2076 1
493 2126 1
493 3121 1
493 4023 1
493 4048 1
494 14 1
494 40 1
494 100 1
494 383 1
494 665 1
494 854 1
494 1254 1
494 1584 1
494 2123 1
494 2650 1
494 3393 1
494 3474 1
494 4966 1
495 21 1
495 46 1
495 102 1
495 353 1
495 756 1
495 1245 1
495 1923 1
495 2200 1
495 3037 1
495 3081 1
495 3638 1
495 3885 1
495 4594 1
496 48 1
496 104 1
496 178 1
496 188 1
496 611 1
496 778 1
496 1042 1
496 1578 1
496 2357 1
496 2365 1
496 2966 1
496 3147 1
496 3317 1
496 3919 1
497 3 1
497 17 1
497 157 1
497 317 1
497 608 1
497 953 1
497 1045 1
497 1081 1
497 1821 1
497 1830 1
497 1962 1
497 2192 1
497 2455 1
497 2506 1
497 2692 1
497 2838 1
497 3142 1
497 3165 1
497 3457 1
497 3809 1
497 3826 1
497 3865 1
497 4202 1
497 4383 1
497 4694 1
497 4787 1
498 7 1
498 25 1
498 117 1
498 122 1
498 662 1
498 751 1
498 959 1
498 1039 1
498 1341 1
498 1730 1
498 2382 1
498 2524 1
498 2604 1
498 2896 1
498 3400 1
498 4349 1
498 4625 1
498 4628 1
498 4694 1
498 4820 1
498 4847 1
499 17 1
499 34 1
499 71 1
499 340 1
499 575 1
499 587 1
499 647 1
499 648 1
499 762 1
499 784 1
499 1420 1
499 1803 1
499 2458 1
499 2574 1
499 3222 1
499 3770 1
500 9 1
500 155 1
500 331 1
500 388 1
500 667 1
500 1334 1
500 1876 1
500 2789 1
500 3640 1
500 4306 1
500 4528 1
501 14 1
501 109 1
501 198 1
501 490 1
501 841 1
501 847 1
501 1200 1
501 1807 1
501 3090 1
501 4289 1
501 4692 1
502 34 1
502 192 1
502 197 1
502 321 1
502 573 1
502 660 1
502 817 1
502 1339 1
502 1554 1
502 2023 1
502 2046 1
502 3168 1
502 3208 1
502 3405 1
502 4224 1
502 4502 1
503 45 1
503 265 1
503 313 1
503 475 1
503 555 1
503 638 1
503 708 1
503 913 1
503 1128 1
503 1164 1
503 1207 1
503 1218 1
503 1547 1
503 1941 1
503 1968 1
503 2129 1
503 2201 1
503 2331 1
503 2566 1
503 2816 1
503 2818 1
503 2856 1
503 2926 1
503 2938 1
503 3236 1
503 3335 1
503 3340 1
503 4492 1
503 4516 1
503 4668 1
503 4755 1
504 7 1
504 199 1
504 262 1
504 418 1
504 719 1
504 1046 1
504 1210 1
504 1864 1
504 2189 1
504 3015 1
504 3252 1
504 3420 1
505 11 1
505 35 1
505 91 1
505 101 1
505 885 1
505 1168 1
505 1480 1
505 2663 1
505 4256 1
506 98 1
506 205 1
506 329 1
506 466 1
506 693 1
506 807 1
506 938 1
506 1168 1
506 1169 1
506 1274 1
506 1359 1
506 1411 1
506 1781 1
506 1820 1
506 2090 1
506 2137 1
506 2325 1
506 3350 1
506 3497 1
506 3928 1
506 4140 1
506 4448 1
506 4474 1
506 4711 1
507 95 1
507 131 1
507 171 1
507 389 1
507 725 1
507 739 1
507 950 1
507 958 1
507 1005 1
507 1008 1
507 1126 1
507 1147 1
507 1254 1
507 1352 1
507 1417 1
507 3428 1
507 3495 1
507 3837 1
508 14 1
508 40 1
508 62 1
508 132 1
508 887 1
508 1426 1
508 1814 1
508 1926 1
508 2066 1
508 2145 1
508 2572 1
508 2816 1
508 3195 1
508 3663 1
508 4389 1
509 3 1
509 212 1
509 225 1
509 490 1
509 581 1
509 693 1
509 1231 1
509 3292 1
509 3541 1
509 3751 1
510 154 1
510 344 1
510 415 1
510 474 1
510 635 1
510 947 1
510 1566 1
510 2415 1
510 3622 1
510 4594 1
511 3 1
511 40 1
511 43 1
511 215 1
511 672 1
511 793 1
511 862 1
511 931 1
511 1465 1
511 1623 1
511 1964 1
511 2601 1
511 2665 1
511 2821 1
511 3416 1
511 3505 1
511 4038 1
511 4463 1
511 4481 1
511 4593 1
511 4966 1
512 71 1
512 158 1
512 457 1
512 492 1
512 767 1
512 1307 1
512 2652 1
512 3133 1
512 4377 1
513 18 1
513 161 1
513 167 1
513 409 1
513 2499 1
513 2824 1
513 2923 1
514 3 1
514 423 1
514 438 1
514 466 1
514 678 1
514 740 1
514 746 1
514 942 1
514 1246 1
514 1307 1
514 1436 1
514 1772 1
514 1820 1
514 1837 1
514 2061 1
514 2535 1
514 2884 1
515 1 1
515 3 1
515 246 1
515 412 1
515 1307 1
515 1357 1
515 2355 1
515 2554 1
516 5 1
516 109 1
516 251 1
516 292 1
516 566 1
516 629 1
516 1584 1
516 1605 1
516 1758 1
516 2121 1
516 2168 1
516 2179 1
516 2472 1
516 2712 1
516 2945 1
516 3033 1
516 3739 1
516 4313 1
517 6 1
517 291 1
517 361 1
517 432 1
517 542 1
517 561 1
517 954 1
517 965 1
517 998 1
517 1379 1
517 4661 1
518 8 1
518 13 1
518 199 1
518 359 1
518 793 1
518 1152 1
518 3671 1
518 4304 1
519 27 1
519 75 1
519 158 1
519 233 1
519 772 1
519 1056 1
519 1344 1
519 1412 1
519 1847 1
519 2159 1
519 2670 1
519 2761 1
519 3241 1
519 3304 1
519 3459 1
519 3623 1
519 3723 1
519 3809 1
519 3830 1
519 4160 1
519 4190 1
519 4399 1
519 4547 1
519 4869 1
520 6 1
520 36 1
520 189 1
520 479 1
520 2614 1
520 2638 1
520 3364 1
521 125 1
521 208 1
521 219 1
521 450 1
521 816 1
521 1692 1
521 1815 1
521 2076 1
521 3927 1
521 4433 1
522 1 1
522 34 1
522 206 1
522 409 1
522 544 1
522 1366 1
522 1851 1
522 2211 1
522 3057 1
522 3098 1
523 17 1
523 57 1
523 350 1
523 478 1
523 579 1
523 961 1
523 1209 1
523 1274 1
523 1686 1
523 1723 1
523 1741 1
523 1909 1
523 2295 1
523 2715 1
523 3082 1
523 3106 1
523 3980 1
524 38 1
524 239 1
524 241 1
524 362 1
524 873 1
524 1276 1
524 1546 1
524 1794 1
524 2421 1
524 2881 1
524 3199 1
524 3558 1
524 4112 1
524 4411 1
524 4613 1
524 4722 1
525 1 1
525 12 1
525 53 1
525 142 1
525 656 1
525 871 1
525 1065 1
525 1206 1
525 1535 1
525 1590 1
525 3092 1
525 3117 1
525 4274 1
526 11 1
526 24 1
526 95 1
526 122 1
526 1064 1
526 1540 1
526 1827 1
526 2722 1
526 3573 1
526 3984 1
527 57 1
527 192 1
527 324 1
527 438 1
527 607 1
527 918 1
527 937 1
527 1201 1
527 1274 1
527 1402 1
527 1680 1
527 1856 1
527 2845 1
527 3182 1
527 3364 1
527 3712 1
528 91 1
528 191 1
528 274 1
528 344 1
528 657 1
528 1315 1
528 2307 1
528 2586 1
528 2821 1
528 3094 1
528 3216 1
528 3251 1
528 3472 1
528 3552 1
528 3984 1
529 6 1
529 14 1
529 186 1
529 343 1
529 1685 1
529 3694 1
529 3729 1
529 4206 1
529 4207 1
529 4823 1
530 3 1
530 10 1
530 214 1
530 476 1
530 1287 1
530 1476 1
530 1883 1
530 2408 1
530 2574 1
530 2954 1
530 3153 1
530 3516 1
530 3637 1
530 3888 1
530 3990 1
530 4873 1
531 27 1
531 219 1
531 431 1
531 492 1
531 552 1
531 1396 1
531 1479 1
531 2380 1
531 2517 1
531 2866 1
531 3576 1
531 4320 1
532 14 1
532 34 1
532 36 1
532 217 1
532 778 1
532 902 1
532 1574 1
532 2290 1
532 2661 1
532 3020 1
532 3575 1
532 4651 1
532 4772 1
533 1 1
533 25 1
533 31 1
533 429 1
533 540 1
533 635 1
533 653 1
533 776 1
533 839 1
533 972 1
533 1004 1
533 1136 1
533 1387 1
533 1655 1
533 1922 1
533 3037 1
533 3107 1
533 4333 1
534 38 1
534 170 1
534 195 1
534 352 1
534 775 1
534 1860 1
534 2251 1
534 2521 1
534 3871 1
535 73 1
535 85 1
535 419 1
535 481 1
535 917 1
535 1118 1
535 1186 1
535 1412 1
535 1590 1
535 1894 1
535 2680 1
535 3182 1
535 3413 1
535 3757 1
535 3920 1
535 3993 1
535 4296 1
535 4942 1
536 10 1
536 19 1
536 401 1
536 474 1
536 898 1
536 1430 1
536 2859 1
536 4085 1
537 54 1
537 205 1
537 255 1
537 428 1
537 904 1
537 1437 1
537 1467 1
537 2058 1
537 2849 1
537 2854 1
537 4179 1
537 4354 1
538 1 1
538 13 1
538 267 1
538 346 1
538 897 1
538 2120 1
538 3728 1
539 12 1
539 141 1
539 208 1
539 395 1
539 664 1
539 767 1
539 1047 1
539 1379 1
539 2076 1
539 2217 1
539 2464 1
539 4213 1
539 4654 1
540 6 1
540 90 1
540 486 1
540 533 1
540 3118 1
540 3864 1
541 46 1
541 120 1
541 170 1
541 173 1
541 801 1
541 1021 1
541 1742 1
542 23 1
542 95 1
542 325 1
542 517 1
542 908 1
542 1200 1
542 1961 1
543 6 1
543 106 1
543 189 1
543 230 1
543 1340 1
543 1496 1
543 1639 1
543 1706 1
543 1762 1
543 2253 1
543 2434 1
543 4068 1
544 3 1
544 333 1
544 345 1
544 522 1
544 975 1
544 1712 1
544 3897 1
544 4132 1
544 4179 1
545 12 1
545 53 1
545 167 1
545 427 1
545 1068 1
545 1494 1
545 1937 1
545 2219 1
545 2251 1
545 2355 1
545 2836 1
545 3419 1
545 4318 1
545 4734 1
546 11 1
546 23 1
546 117 1
546 272 1
546 564 1
546 917 1
546 1022 1
546 1074 1
546 1190 1
546 1346 1
546 1494 1
546 1547 1
546 2158 1
546 2407 1
546 2894 1
546 3062 1
546 3608 1
546 3723 1
546 4919 1
547 28 1
547 30 1
547 53 1
547 99 1
547 713 1
547 826 1
547 1186 1
547 1247 1
547 1374 1
547 1440 1
547 3197 1
547 3860 1
547 4543 1
548 3 1
548 13 1
548 43 1
548 405 1
548 2549 1
548 3572 1
548 3741 1
549 43 1
549 217 1
549 355 1
549 458 1
549 552 1
549 1660 1
549 2460 1
549 2941 1
549 3565 1
549 3810 1
550 2 1
550 11 1
550 161 1
550 188 1
550 1295 1
550 1738 1
550 2443 1
550 3337 1
550 3682 1
550 4629 1
550 4999 1
551 30 1
551 97 1
551 159 1
551 235 1
551 953 1
551 1003 1
551 1655 1
551 1729 1
551 3970 1
552 308 1
552 444 1
552 531 1
552 549 1
552 654 1
552 922 1
552 1078 1
552 1118 1
552 1146 1
552 1256 1
552 1680 1
552 1688 1
552 1797 1
552 1951 1
552 2258 1
552 2340 1
552 2561 1
552 3510 1
552 4164 1
552 4627 1
552 4768 1
552 4823 1
553 1 1
553 10 1
553 374 1
553 406 1
553 1501 1
553 1527 1
553 1739 1
553 2430 1
553 3141 1
553 3607 1
553 4094 1
554 30 1
554 91 1
554 181 1
554 226 1
554 615 1
554 1377 1
554 2065 1
554 2224 1
554 2980 1
554 4027 1
554 4499 1
554 4846 1
555 87 1
555 305 1
555 386 1
555 503 1
555 727 1
555 1737 1
555 2857 1
556 10 1
556 23 1
556 154 1
556 452 1
556 565 1
556 813 1
556 2605 1
556 3716 1
556 3775 1
557 7 1
557 38 1
557 78 1
557 392 1
557 2187 1
557 2749 1
558 5 1
558 23 1
558 58 1
558 172 1
558 963 1
558 1620 1
558 1714 1
558 1846 1
558 2026 1
558 3319 1
558 3518 1
558 3843 1
559 36 1
559 184 1
559 309 1
559 438 1
560 36 1
560 204 1
560 386 1
560 390 1
560 1243 1
560 2182 1
560 2432 1
560 3269 1
560 4561 1
561 1 1
561 102 1
561 303 1
561 517 1
561 910 1
561 2187 1
561 3973 1
562 53 1
562 105 1
562 194 1
562 438 1
562 1588 1
562 1824 1
562 3525 1
563 3 1
563 34 1
563 318 1
563 340 1
563 606 1
563 813 1
563 1125 1
563 1687 1
563 1801 1
563 1836 1
563 2322 1
563 2966 1
563 3182 1
563 3362 1
563 3452 1
563 3497 1
563 3614 1
563 3631 1
563 4046 1
563 4096 1
563 4966 1
564 6 1
564 40 1
564 308 1
564 546 1
564 585 1
564 1767 1
564 1906 1
564 2785 1
565 16 1
565 161 1
565 221 1
565 556 1
565 727 1
565 938 1
565 1789 1
565 2883 1
566 29 1
566 48 1
566 491 1
566 516 1
566 1002 1
566 1716 1
566 2692 1
566 3374 1
566 4891 1
567 12 1
567 131 1
567 176 1
567 256 1
567 1267 1
567 3311 1
567 4172 1
568 61 1
568 89 1
568 130 1
568 255 1
568 661 1
568 723 1
568 912 1
568 1018 1
568 1325 1
568 1358 1
568 1773 1
568 1862 1
568 1886 1
568 1916 1
568 2155 1
568 2185 1
568 2643 1
568 3507 1
568 3732 1
568 3900 1
568 4299 1
568 4721 1
569 16 1
569 69 1
569 144 1
569 233 1
569 954 1
569 1116 1
569 1286 1
569 1727 1
569 1751 1
569 2216 1
569 2356 1
569 3604 1
570 18 1
570 45 1
570 124 1
570 365 1
570 921 1
570 1024 1
570 1969 1
570 2033 1
570 2595 1
571 8 1
571 17 1
571 216 1
571 304 1
571 1520 1
571 1653 1
571 1769 1
571 2579 1
571 2748 1
571 2799 1
571 3010 1
571 3270 1
571 3372 1
571 4366 1
571 4740 1
572 98 1
572 122 1
572 160 1
572 386 1
572 1165 1
572 1772 1
573 3 1
573 37 1
573 120 1
573 502 1
573 896 1
573 1825 1
573 1889 1
573 1948 1
573 1954 1
573 2349 1
573 3870 1
574 19 1
574 85 1
574 421 1
574 432 1
574 847 1
574 1148 1
574 1576 1
574 1928 1
574 2326 1
574 2620 1
574 4733 1
574 4934 1
575 316 1
575 370 1
575 428 1
575 499 1
575 608 1
575 804 1
575 1080 1
575 1235 1
575 1660 1
575 2274 1
575 3280 1
576 18 1
576 85 1
576 102 1
576 139 1
576 747 1
576 930 1
576 2485 1
576 4690 1
577 6 1
577 151 1
577 210 1
577 406 1
577 1094 1
577 1773 1
577 2062 1
577 2662 1
577 2674 1
578 21 1
578 66 1
578 364 1
578 393 1
578 644 1
578 665 1
578 1385 1
578 2561 1
578 2649 1
578 2738 1
578 2961 1
578 3308 1
578 3410 1
578 4689 1
579 84 1
579 399 1
579 462 1
579 523 1
579 652 1
579 912 1
579 1029 1
579 1600 1
579 1690 1
579 2180 1
579 3860 1
579 4374 1
579 4387 1
579 4740 1
580 14 1
580 39 1
580 58 1
580 66 1
580 3146 1
581 10 1
581 66 1
581 274 1
581 509 1
581 2631 1
581 4493 1
582 6 1
582 38 1
582 209 1
582 281 1
582 823 1
582 928 1
582 1346 1
582 2471 1
582 2495 1
582 3556 1
582 4274 1
583 65 1
583 93 1
583 141 1
583 486 1
583 737 1
583 837 1
583 945 1
583 1095 1
583 1138 1
583 1575 1
583 2313 1
583 2847 1
583 3318 1
583 3758 1
583 3799 1
584 6 1
584 12 1
584 123 1
584 176 1
584 1170 1
584 2864 1
584 4091 1
584 4428 1
584 4487 1
584 4628 1
585 25 1
585 51 1
585 269 1
585 564 1
585 1377 1
586 15 1
586 81 1
586 195 1
586 373 1
586 631 1
586 1298 1
586 1445 1
586 1548 1
586 2129 1
586 2235 1
586 2255 1
586 2332 1
586 2365 1
586 2713 1
586 3320 1
586 3531 1
586 4557 1
587 31 1
587 251 1
587 413 1
587 499 1
587 735 1
587 1210 1
587 2013 1
587 2020 1
587 2199 1
587 2489 1
587 2790 1
587 2791 1
587 3255 1
587 3299 1
587 3507 1
587 3714 1
587 4674 1
587 4782 1
587 4889 1
588 123 1
588 332 1
588 417 1
588 464 1
588 734 1
588 838 1
588 1174 1
588 1188 1
588 1280 1
588 2321 1
588 2653 1
589 6 1
589 51 1
589 184 1
589 412 1
589 756 1
589 1906 1
589 2544 1
589 2559 1
589 3279 1
589 4006 1
589 4309 1
590 26 1
590 78 1
590 117 1
590 451 1
590 618 1
590 1035 1
590 1131 1
590 1730 1
590 1910 1
590 2018 1
591 40 1
591 169 1
591 170 1
591 304 1
592 2 1
592 66 1
592 291 1
592 423 1
592 605 1
592 607 1
592 772 1
592 814 1
592 926 1
592 934 1
592 1075 1
592 1306 1
592 1338 1
592 1881 1
592 1972 1
592 2038 1
592 3863 1
592 4381 1
592 4448 1
593 8 1
593 45 1
593 85 1
593 396 1
593 960 1
593 1075 1
593 3778 1
594 18 1
594 39 1
594 151 1
594 216 1
594 1119 1
594 1284 1
594 1310 1
594 1320 1
594 2058 1
594 3235 1
594 3612 1
595 1 1
595 74 1
595 228 1
595 321 1
595 1079 1
595 1409 1
595 1721 1
595 1724 1
595 2437 1
595 2967 1
595 3562 1
596 38 1
596 82 1
596 157 1
596 435 1
596 1654 1
596 1734 1
596 2092 1
596 2270 1
596 2475 1
596 2610 1
596 3125 1
596 3774 1
596 4074 1
596 4899 1
597 10 1
597 86 1
597 97 1
597 99 1
597 1513 1
597 2275 1
598 8 1
598 20 1
598 34 1
598 157 1
598 770 1
598 775 1
598 1721 1
598 3090 1
598 3439 1
598 3520 1
598 4376 1
598 4938 1
599 119 1
599 176 1
599 433 1
599 459 1
599 754 1
599 2582 1
599 4611 1
600 38 1
600 58 1
600 315 1
600 470 1
600 802 1
600 1335 1
600 3173 1
601 82 1
601 88 1
601 315 1
601 342 1
602 125 1
602 200 1
602 439 1
602 457 1
602 688 1
602 1094 1
602 1440 1
602 2063 1
602 2094 1
602 2234 1
602 2595 1
602 2997 1
602 3531 1
602 3986 1
602 4537 1
603 14 1
603 30 1
603 160 1
603 358 1
603 843 1
603 1160 1
603 1395 1
603 1963 1
603 2846 1
603 3042 1
603 3064 1
603 3068 1
603 3253 1
603 4193 1
604 5 1
604 91 1
604 232 1
604 361 1
604 968 1
604 1180 1
604 2371 1
604 2613 1
604 2672 1
604 3275 1
604 3492 1
604 4495 1
605 1 1
605 85 1
605 482 1
605 592 1
605 2288 1
605 2316 1
605 3396 1
605 3398 1
606 18 1
606 82 1
606 155 1
606 563 1
606 676 1
606 2193 1
607 1 1
607 237 1
607 527 1
607 592 1
607 1071 1
607 1708 1
607 2195 1
607 3503 1
607 4746 1
608 6 1
608 110 1
608 497 1
608 575 1
608 1038 1
608 2443 1
609 52 1
609 171 1
609 280 1
609 302 1
609 716 1
609 1121 1
609 1138 1
609 2004 1
609 2695 1
609 3486 1
609 4492 1
609 4809 1
610 160 1
610 305 1
610 312 1
610 472 1
610 856 1
610 917 1
610 1393 1
610 1661 1
610 1970 1
610 2478 1
610 2765 1
610 2823 1
610 3175 1
610 3300 1
610 3674 1
610 4044 1
610 4530 1
610 4909 1
611 17 1
611 287 1
611 318 1
611 496 1
611 783 1
611 973 1
611 1074 1
611 1113 1
611 1250 1
611 1356 1
611 2514 1
611 3266 1
611 4257 1
611 4756 1
611 4980 1
612 5 1
612 167 1
612 189 1
612 422 1
612 717 1
612 1208 1
612 1236 1
612 1326 1
612 1866 1
612 2080 1
612 2708 1
612 3832 1
612 4577 1
613 3 1
613 30 1
613 76 1
613 204 1
613 627 1
613 736 1
613 1571 1
613 2426 1
613 3413 1
614 3 1
614 58 1
614 273 1
614 324 1
614 1201 1
614 1315 1
614 1776 1
614 1812 1
614 2483 1
614 3693 1
614 3744 1
615 44 1
615 167 1
615 480 1
615 554 1
615 1006 1
615 1206 1
615 1583 1
615 2004 1
615 2200 1
615 2463 1
615 2933 1
615 3370 1
615 4059 1
616 30 1
616 111 1
616 166 1
616 296 1
616 1882 1
616 2124 1
616 3097 1
617 46 1
617 66 1
617 113 1
617 465 1
617 1139 1
617 1202 1
617 1579 1
617 1726 1
617 2000 1
617 2469 1
617 3221 1
617 3889 1
618 20 1
618 34 1
618 273 1
618 590 1
618 751 1
618 810 1
618 1592 1
618 2314 1
618 2346 1
618 2874 1
618 4446 1
619 1 1
619 51 1
619 147 1
619 374 1
619 637 1
619 674 1
619 747 1
619 1029 1
619 1184 1
619 1575 1
619 2044 1
619 2656 1
619 3046 1
619 3418 1
619 3467 1
619 3528 1
619 3697 1
619 4501 1
620 121 1
620 175 1
620 262 1
620 374 1
620 637 1
620 855 1
620 961 1
620 1532 1
620 2061 1
620 2399 1
620 2909 1
620 3092 1
620 3201 1
620 3630 1
620 4999 1
621 1 1
621 5 1
621 30 1
621 209 1
621 635 1
621 651 1
621 679 1
621 681 1
621 742 1
621 777 1
621 886 1
621 1007 1
621 1337 1
621 1358 1
621 1670 1
621 1941 1
621 2074 1
621 2187 1
621 2416 1
621 2518 1
621 2718 1
621 2726 1
621 2801 1
621 2904 1
621 3113 1
621 3262 1
621 3459 1
621 3790 1
621 4258 1
621 4380 1
621 4976 1
622 7 1
622 232 1
622 354 1
622 475 1
622 1173 1
622 2884 1
622 2919 1
622 3487 1
622 3589 1
622 3880 1
622 4000 1
622 4201 1
622 4433 1
623 226 1
623 250 1
623 295 1
623 334 1
623 713 1
623 1916 1
623 1995 1
623 2067 1
623 2373 1
623 2642 1
623 4952 1
624 22 1
624 65 1
624 116 1
624 275 1
624 1054 1
624 1360 1
624 2384 1
624 2685 1
624 3270 1
624 3786 1
624 3810 1
624 4007 1
625 13 1
625 87 1
625 98 1
625 316 1
625 945 1
625 1057 1
625 1083 1
625 1173 1
625 1846 1
625 1946 1
625 2191 1
625 2334 1
625 2362 1
625 3055 1
625 3188 1
625 3240 1
625 3756 1
625 3948 1
625 3996 1
625 4748 1
625 4771 1
626 16 1
626 21 1
626 30 1
626 151 1
626 2743 1
626 3414 1
626 4147 1
627 23 1
627 45 1
627 399 1
627 613 1
628 8 1
628 46 1
628 69 1
628 382 1
628 780 1
628 1429 1
628 1859 1
628 2575 1
628 3302 1
628 4240 1
628 4575 1
628 4765 1
629 7 1
629 210 1
629 382 1
629 516 1
629 745 1
629 1261 1
629 1446 1
629 1726 1
629 1928 1
629 2135 1
630 76 1
630 103 1
630 109 1
630 126 1
630 2604 1
630 4039 1
631 12 1
631 21 1
631 209 1
631 586 1
631 2863 1
631 3199 1
632 6 1
632 187 1
632 245 1
632 484 1
632 872 1
632 1770 1
632 2069 1
632 2336 1
632 2997 1
632 4066 1
633 17 1
633 40 1
633 149 1
633 251 1
633 682 1
633 1295 1
633 2262 1
633 2974 1
633 3059 1
633 4559 1
633 4959 1
634 123 1
634 147 1
634 203 1
634 418 1
634 2686 1
634 3240 1
635 461 1
635 510 1
635 533 1
635 621 1
635 830 1
635 920 1
635 1917 1
635 2369 1
635 2971 1
635 3376 1
635 4655 1
636 14 1
636 62 1
636 171 1
636 281 1
636 774 1
636 1454 1
636 1698 1
636 3345 1
636 3532 1
637 1 1
637 315 1
637 619 1
637 620 1
637 929 1
637 1007 1
637 1362 1
637 1399 1
637 1428 1
637 1523 1
637 1681 1
637 1796 1
637 1834 1
637 2153 1
637 2563 1
637 2865 1
637 2947 1
637 3237 1
637 4588 1
638 61 1
638 76 1
638 232 1
638 503 1
638 1014 1
638 1701 1
638 2834 1
638 3678 1
638 4446 1
639 6 1
639 290 1
639 465 1
639 493 1
639 668 1
639 910 1
639 1054 1
639 1388 1
639 2337 1
639 2673 1
639 3518 1
640 42 1
640 120 1
640 134 1
640 469 1
640 697 1
640 777 1
640 1018 1
640 1032 1
640 1296 1
640 1640 1
640 1920 1
640 2206 1
640 2207 1
640 2212 1
640 2258 1
640 3006 1
640 3056 1
640 3076 1
640 3387 1
640 3890 1
640 3967 1
640 4653 1
640 4727 1
641 145 1
641 345 1
641 360 1
641 373 1
641 3794 1
642 46 1
642 90 1
642 149 1
642 340 1
642 1344 1
642 1559 1
642 1816 1
642 2540 1
642 2739 1
642 2771 1
642 3319 1
642 3851 1
642 4279 1
642 4656 1
643 18 1
643 139 1
643 237 1
643 253 1
643 692 1
643 723 1
643 731 1
643 916 1
643 1357 1
643 1457 1
643 1581 1
643 2458 1
643 2644 1
643 2937 1
643 3931 1
643 4407 1
643 4466 1
644 38 1
644 75 1
644 183 1
644 578 1
644 1240 1
644 2096 1
645 30 1
645 36 1
645 165 1
645 227 1
645 718 1
645 761 1
645 774 1
645 894 1
645 1266 1
645 1368 1
645 1443 1
645 1701 1
645 1740 1
645 1745 1
645 2113 1
645 2177 1
645 2374 1
645 2763 1
645 3044 1
645 3117 1
645 3711 1
645 4756 1
646 200 1
646 283 1
646 406 1
646 408 1
646 688 1
646 804 1
646 1673 1
646 1695 1
646 1722 1
646 2879 1
646 3030 1
646 3121 1
646 3260 1
646 3389 1
646 3966 1
646 4205 1
647 38 1
647 40 1
647 320 1
647 499 1
647 925 1
647 1419 1
647 2748 1
647 3757 1
647 4717 1
648 29 1
648 149 1
648 438 1
648 499 1
648 1591 1
648 1608 1
648 4066 1
649 1 1
649 18 1
649 154 1
649 343 1
649 3351 1
649 3883 1
650 176 1
650 239 1
650 347 1
650 420 1
650 705 1
650 1249 1
650 1474 1
650 1538 1
651 54 1
651 70 1
651 352 1
651 621 1
651 1716 1
651 3113 1
651 3660 1
652 43 1
652 46 1
652 222 1
652 579 1
652 674 1
652 1356 1
652 1634 1
652 1709 1
652 1714 1
652 1859 1
652 2010 1
652 2165 1
652 2228 1
652 2310 1
652 2512 1
652 2804 1
652 2920 1
652 2947 1
652 2974 1
652 3386 1
652 3596 1
652 3954 1
652 4003 1
652 4524 1
652 4878 1
652 4908 1
653 9 1
653 45 1
653 336 1
653 533 1
653 756 1
653 2436 1
653 2798 1
653 2962 1
653 3617 1
653 3890 1
653 4531 1
653 4778 1
654 3 1
654 201 1
654 278 1
654 552 1
655 45 1
655 91 1
655 222 1
655 273 1
655 707 1
655 794 1
655 3992 1
655 4833 1
656 8 1
656 422 1
656 493 1
656 525 1
656 2395 1
656 3294 1
656 3476 1
656 4158 1
656 4226 1
657 58 1
657 78 1
657 178 1
657 528 1
657 757 1
657 995 1
657 2392 1
658 6 1
658 78 1
658 247 1
658 437 1
658 1177 1
658 1255 1
658 1490 1
658 2062 1
658 2120 1
658 2213 1
658 2308 1
658 2610 1
658 3354 1
659 1 1
659 3 1
659 24 1
659 38 1
659 3811 1
660 73 1
660 218 1
660 242 1
660 502 1
660 711 1
660 3129 1
661 30 1
661 61 1
661 216 1
661 568 1
661 847 1
661 4852 1
662 1 1
662 76 1
662 92 1
662 498 1
662 2465 1
662 2526 1
662 2801 1
662 4283 1
662 4721 1
663 82 1
663 149 1
663 157 1
663 317 1
663 922 1
663 1049 1
663 2500 1
663 3464 1
663 3658 1
664 16 1
664 74 1
664 442 1
664 539 1
665 7 1
665 166 1
665 494 1
665 578 1
665 774 1
665 892 1
665 1218 1
665 1282 1
665 1457 1
665 1503 1
665 1747 1
665 2132 1
665 2250 1
665 2935 1
665 4522 1
665 4848 1
665 4911 1
666 139 1
666 189 1
666 275 1
666 313 1
666 1146 1
666 1180 1
666 1425 1
666 1763 1
666 2671 1
666 3131 1
666 3172 1
666 3305 1
666 3560 1
666 3910 1
667 6 1
667 16 1
667 481 1
667 500 1
667 921 1
667 2259 1
667 2487 1
667 3014 1
667 3096 1
667 3109 1
667 4019 1
667 4145 1
667 4295 1
668 1 1
668 5 1
668 194 1
668 639 1
668 1037 1
668 1040 1
668 1313 1
668 1832 1
668 2903 1
668 3892 1
668 4390 1
668 4510 1
668 4671 1
669 45 1
669 51 1
669 366 1
669 424 1
669 992 1
669 1196 1
669 1455 1
669 1552 1
669 1661 1
669 2028 1
669 2135 1
669 2233 1
669 2344 1
669 2746 1
669 2937 1
669 3059 1
669 3296 1
669 4033 1
669 4461 1
670 143 1
670 171 1
670 243 1
670 385 1
671 34 1
671 222 1
671 292 1
671 357 1
671 729 1
671 794 1
671 985 1
671 1070 1
671 1253 1
671 1519 1
671 1528 1
671 1880 1
671 2071 1
671 2077 1
671 2143 1
671 2223 1
671 2230 1
671 2473 1
671 2493 1
671 2504 1
671 2721 1
671 2777 1
671 2950 1
671 3427 1
671 3448 1
671 4106 1
671 4620 1
671 4819 1
672 66 1
672 282 1
672 337 1
672 511 1
672 1193 1
672 1211 1
672 1321 1
672 1624 1
672 1868 1
672 1977 1
672 2826 1
672 2831 1
673 1 1
673 188 1
673 210 1
673 281 1
673 911 1
673 913 1
673 1628 1
673 1909 1
673 2017 1
673 2307 1
673 2551 1
673 3216 1
673 3862 1
673 4439 1
674 71 1
674 261 1
674 619 1
674 652 1
674 811 1
674 930 1
674 3036 1
675 30 1
675 31 1
675 34 1
675 54 1
675 2220 1
675 2244 1
675 3041 1
675 4990 1
676 131 1
676 194 1
676 339 1
676 606 1
676 1142 1
676 2194 1
676 2706 1
676 4166 1
676 4633 1
677 10 1
677 53 1
677 91 1
677 137 1
677 2641 1
678 25 1
678 37 1
678 167 1
678 514 1
678 780 1
678 915 1
678 1240 1
678 1510 1
678 3424 1
678 3463 1
678 3675 1
679 17 1
679 75 1
679 144 1
679 621 1
679 923 1
679 1018 1
679 1191 1
679 1861 1
679 2408 1
679 3515 1
679 3872 1
679 4079 1
679 4127 1
679 4545 1
680 82 1
680 291 1
680 340 1
680 414 1
680 1145 1
680 1702 1
680 1867 1
680 2144 1
680 2768 1
680 2852 1
680 3210 1
681 10 1
681 16 1
681 66 1
681 621 1
681 744 1
681 1092 1
681 1241 1
681 1632 1
681 1823 1
682 32 1
682 42 1
682 450 1
682 633 1
682 940 1
682 1184 1
682 1810 1
682 2609 1
682 3048 1
682 3517 1
682 4815 1
683 17 1
683 52 1
683 122 1
683 173 1
683 749 1
683 780 1
683 837 1
683 877 1
683 1093 1
683 1181 1
683 1269 1
683 1432 1
683 1522 1
683 1645 1
683 1693 1
683 1743 1
683 2795 1
683 2876 1
683 3278 1
683 3902 1
683 4734 1
683 4969 1
684 5 1
684 96 1
684 165 1
684 367 1
684 811 1
684 1232 1
684 1246 1
684 1315 1
684 1397 1
684 1477 1
684 1953 1
684 2007 1
684 2243 1
684 2413 1
684 2893 1
684 2978 1
684 3303 1
684 3794 1
684 3802 1
684 4368 1
684 4735 1
684 4955 1
685 56 1
685 82 1
685 396 1
685 419 1
685 832 1
685 2069 1
685 4294 1
685 4907 1
686 14 1
686 112 1
686 176 1
686 273 1
686 3411 1
687 7 1
687 153 1
687 156 1
687 354 1
687 705 1
687 2154 1
687 2867 1
687 3203 1
687 3624 1
687 3984 1
687 4908 1
688 12 1
688 274 1
688 602 1
688 646 1
688 1105 1
688 3232 1
689 54 1
689 103 1
689 107 1
689 187 1
689 755 1
689 1456 1
689 3409 1
690 37 1
690 86 1
690 209 1
690 360 1
691 186 1
691 300 1
691 303 1
691 374 1
691 989 1
691 1563 1
691 2917 1
691 3239 1
691 3985 1
691 4391 1
692 6 1
692 34 1
692 117 1
692 643 1
692 1099 1
692 2603 1
692 2607 1
692 3449 1
693 388 1
693 435 1
693 506 1
693 509 1
693 903 1
693 1596 1
693 1793 1
693 2394 1
693 2570 1
694 6 1
694 155 1
694 170 1
694 351 1
694 3647 1
694 3856 1
695 44 1
695 54 1
695 147 1
695 243 1
695 1983 1
696 21 1
696 72 1
696 250 1
696 373 1
696 698 1
696 748 1
696 1308 1
696 1314 1
696 2543 1
696 3176 1
696 3717 1
696 3853 1
696 4328 1
696 4797 1
697 106 1
697 217 1
697 239 1
697 640 1
697 798 1
697 1175 1
697 1252 1
697 1649 1
697 2005 1
697 2009 1
697 2228 1
697 2899 1
697 2946 1
697 2950 1
697 3639 1
697 3808 1
697 3814 1
697 4077 1
697 4137 1
697 4339 1
697 4497 1
697 4737 1
697 4825 1
697 4912 1
698 19 1
698 26 1
698 28 1
698 696 1
698 788 1
698 1066 1
698 2021 1
698 2256 1
698 2764 1
698 2924 1
698 3696 1
698 4170 1
698 4624 1
698 4956 1
699 8 1
699 13 1
699 68 1
699 392 1
699 2009 1
700 11 1
700 36 1
700 121 1
700 142 1
700 2064 1
701 117 1
701 171 1
701 233 1
701 235 1
701 1219 1
701 1258 1
701 1415 1
701 1828 1
701 2607 1
701 2711 1
701 2722 1
701 3756 1
701 4410 1
702 27 1
702 188 1
702 355 1
702 434 1
702 1100 1
702 1227 1
702 1278 1
702 2528 1
702 3011 1
702 3081 1
702 3794 1
702 4224 1
702 4624 1
702 4712 1
703 17 1
703 24 1
703 41 1
703 323 1
703 846 1
703 1398 1
703 2768 1
703 3323 1
704 30 1
704 34 1
704 61 1
704 488 1
704 763 1
704 1996 1
704 2257 1
704 2293 1
704 2869 1
704 3374 1
704 3732 1
705 55 1
705 59 1
705 650 1
705 687 1
705 1132 1
705 1133 1
705 1765 1
705 1960 1
705 4256 1
706 56 1
706 217 1
706 227 1
706 335 1
706 820 1
706 1239 1
706 2221 1
706 2375 1
706 2582 1
706 3650 1
706 4168 1
706 4960 1
706 5000 1
707 6 1
707 10 1
707 305 1
707 655 1
707 1341 1
707 1715 1
707 1819 1
707 2389 1
707 3381 1
707 4266 1
708 117 1
708 432 1
708 458 1
708 503 1
708 709 1
708 1157 1
708 2161 1
708 4721 1
709 3 1
709 90 1
709 135 1
709 708 1
709 762 1
709 2806 1
709 3781 1
710 3 1
710 54 1
710 68 1
710 239 1
710 1525 1
710 2052 1
710 2291 1
710 2671 1
710 3274 1
710 3478 1
710 3668 1
710 3981 1
710 4379 1
710 4463 1
710 4748 1
711 1 1
711 36 1
711 273 1
711 660 1
711 916 1
711 1829 1
711 1841 1
711 2168 1
711 2253 1
711 3085 1
711 3294 1
711 3560 1
711 3880 1
711 3976 1
711 4308 1
712 19 1
712 102 1
712 119 1
712 371 1
712 722 1
712 868 1
712 1895 1
712 1904 1
712 2042 1
712 2449 1
712 2496 1
713 21 1
713 440 1
713 547 1
713 623 1
713 775 1
713 873 1
713 1005 1
713 1130 1
713 1332 1
713 1765 1
713 1866 1
713 2019 1
713 2104 1
713 2145 1
713 2297 1
713 3160 1
713 3306 1
713 4501 1
713 4700 1
714 1 1
714 85 1
714 157 1
714 407 1
714 1204 1
714 1327 1
714 1591 1
714 3215 1
714 4010 1
715 46 1
715 61 1
715 80 1
715 388 1
715 1621 1
715 1666 1
715 2158 1
715 2437 1
715 2522 1
715 3775 1
715 4533 1
716 8 1
716 114 1
716 189 1
716 609 1
716 2330 1
716 4043 1
716 4239 1
717 188 1
717 352 1
717 415 1
717 612 1
717 732 1
717 797 1
717 1030 1
717 1283 1
717 1654 1
717 1677 1
717 2065 1
717 2304 1
717 2624 1
717 3248 1
717 3365 1
717 3464 1
717 3987 1
717 4019 1
717 4517 1
717 4729 1
718 3 1
718 103 1
718 182 1
718 645 1
719 25 1
719 87 1
719 127 1
719 504 1
719 1802 1
719 1948 1
719 3147 1
719 4135 1
720 5 1
720 38 1
720 89 1
720 349 1
720 1162 1
720 1959 1
720 2127 1
720 4234 1
721 22 1
721 45 1
721 176 1
721 424 1
721 806 1
721 814 1
721 1185 1
721 2210 1
721 2424 1
721 2788 1
722 10 1
722 14 1
722 418 1
722 712 1
722 1422 1
722 1942 1
722 4220 1
723 14 1
723 42 1
723 568 1
723 643 1
723 802 1
723 891 1
723 1439 1
723 1637 1
723 1972 1
723 2484 1
723 2569 1
723 2783 1
723 2920 1
723 3178 1
723 3304 1
723 3455 1
723 3467 1
723 3550 1
723 3632 1
723 4017 1
723 4447 1
723 4448 1
724 74 1
724 216 1
724 278 1
724 468 1
724 884 1
724 889 1
724 2658 1
724 4539 1
724 4851 1
725 6 1
725 161 1
725 452 1
725 507 1
725 745 1
725 753 1
725 922 1
725 1103 1
725 1216 1
725 2942 1
725 3303 1
725 3956 1
725 4351 1
725 4513 1
726 1 1
726 10 1
726 49 1
726 179 1
726 984 1
726 1443 1
726 2162 1
726 2966 1
726 3303 1
726 4080 1
726 4763 1
726 4820 1
726 4968 1
727 86 1
727 105 1
727 555 1
727 565 1
727 1303 1
727 1356 1
727 1362 1
727 1847 1
727 2281 1
727 2343 1
727 2376 1
727 3287 1
727 3412 1
727 3453 1
727 4705 1
728 9 1
728 98 1
728 150 1
728 213 1
728 1454 1
728 2754 1
728 3049 1
728 3758 1
728 3927 1
728 5000 1
729 157 1
729 160 1
729 200 1
729 671 1
729 951 1
729 1174 1
729 1270 1
729 1865 1
729 2046 1
729 2170 1
729 2392 1
729 2615 1
729 2984 1
729 3177 1
729 3307 1
729 3409 1
729 3811 1
729 3929 1
729 4397 1
729 4856 1
730 14 1
730 38 1
730 123 1
730 385 1
731 18 1
731 98 1
731 115 1
731 643 1
731 1027 1
731 1801 1
731 2839 1
731 3804 1
732 61 1
732 147 1
732 468 1
732 717 1
732 2037 1
733 85 1
733 137 1
733 179 1
733 475 1
733 2054 1
733 3402 1
733 3579 1
734 106 1
734 180 1
734 224 1
734 588 1
734 744 1
734 930 1
734 1154 1
734 1340 1
734 3178 1
734 3187 1
734 3961 1
734 3964 1
735 27 1
735 164 1
735 209 1
735 587 1
735 4627 1
735 4637 1
735 4730 1
736 1 1
736 113 1
736 343 1
736 613 1
736 907 1
736 997 1
736 1107 1
736 1212 1
736 2807 1
736 2878 1
736 2916 1
736 2990 1
736 3254 1
736 4253 1
737 131 1
737 420 1
737 491 1
737 583 1
737 786 1
737 867 1
737 985 1
737 1050 1
737 1217 1
737 2678 1
737 3094 1
737 3424 1
737 3705 1
737 4314 1
737 4339 1
737 4549 1
738 5 1
738 10 1
738 189 1
738 368 1
738 1109 1
738 2075 1
738 2213 1
738 4055 1
739 13 1
739 14 1
739 27 1
739 507 1
739 1095 1
739 1786 1
739 1814 1
739 1949 1
739 2175 1
739 2536 1
739 2999 1
739 3143 1
739 3325 1
739 3609 1
740 1 1
740 21 1
740 160 1
740 514 1
740 1553 1
740 2215 1
740 4236 1
741 115 1
741 176 1
741 294 1
741 425 1
741 888 1
741 1893 1
741 3258 1
741 4472 1
741 4634 1
741 4939 1
741 4975 1
742 37 1
742 58 1
742 123 1
742 621 1
742 1183 1
742 2051 1
742 2605 1
742 2682 1
743 6 1
743 124 1
743 213 1
743 283 1
743 1160 1
743 1754 1
743 1865 1
743 2761 1
743 3139 1
743 3308 1
743 3910 1
743 4434 1
743 4900 1
744 3 1
744 116 1
744 681 1
744 734 1
744 882 1
744 899 1
744 1107 1
744 2651 1
744 3240 1
744 4552 1
745 32 1
745 346 1
745 629 1
745 725 1
745 1211 1
745 1469 1
745 1820 1
745 2257 1
745 4477 1
745 4832 1
746 119 1
746 254 1
746 266 1
746 514 1
746 875 1
746 1384 1
746 1403 1
746 1484 1
746 2456 1
746 3575 1
746 3606 1
746 3688 1
746 4089 1
746 4902 1
747 355 1
747 391 1
747 576 1
747 619 1
747 849 1
747 946 1
747 1084 1
747 1526 1
747 1973 1
747 2463 1
747 3174 1
747 4390 1
748 17 1
748 116 1
748 468 1
748 696 1
748 972 1
748 1045 1
748 2118 1
748 2133 1
748 2565 1
748 2978 1
749 56 1
749 138 1
749 156 1
749 683 1
749 823 1
749 1271 1
749 1611 1
749 2689 1
749 2710 1
749 4464 1
749 4488 1
750 7 1
750 71 1
750 132 1
750 283 1
750 972 1
750 1172 1
750 2098 1
750 2279 1
750 3130 1
750 3922 1
750 4751 1
751 307 1
751 339 1
751 498 1
751 618 1
751 1706 1
751 2299 1
751 3443 1
751 4154 1
752 28 1
752 97 1
752 129 1
752 134 1
752 801 1
752 861 1
752 939 1
752 1078 1
752 1675 1
752 1700 1
752 1766 1
752 1771 1
752 1843 1
752 1869 1
752 2107 1
752 3104 1
752 4689 1
753 76 1
753 386 1
753 465 1
753 725 1
753 1756 1
753 2910 1
753 3851 1
753 4174 1
753 4976 1
754 251 1
754 371 1
754 405 1
754 599 1
754 914 1
754 963 1
754 1238 1
754 3045 1
754 3156 1
754 3219 1
755 28 1
755 199 1
755 320 1
755 689 1
755 1234 1
755 1356 1
755 1852 1
755 2575 1
755 2667 1
755 3290 1
755 3885 1
755 4098 1
756 423 1
756 495 1
756 589 1
756 653 1
756 2064 1
756 2087 1
757 147 1
757 175 1
757 318 1
757 657 1
757 2399 1
757 4681 1
758 11 1
758 170 1
758 199 1
758 340 1
758 792 1
758 834 1
758 1799 1
758 2415 1
758 4094 1
758 4243 1
758 4564 1
759 1 1
759 8 1
759 133 1
759 320 1
759 1155 1
759 1300 1
759 1670 1
759 2880 1
759 2924 1
759 3357 1
759 3812 1
759 4073 1
760 3 1
760 232 1
760 315 1
760 378 1
760 1010 1
760 1011 1
760 1108 1
760 1164 1
760 1342 1
760 1376 1
760 1460 1
760 1832 1
760 2409 1
760 2916 1
760 3211 1
760 3218 1
760 3525 1
760 3569 1
760 3665 1
760 3771 1
760 3846 1
760 3916 1
760 3967 1
760 4373 1
760 4934 1
761 125 1
761 194 1
761 219 1
761 645 1
761 902 1
761 903 1
761 942 1
761 983 1
761 1090 1
761 1293 1
761 1354 1
761 1927 1
761 2160 1
761 2640 1
761 2943 1
761 3009 1
761 3194 1
761 3784 1
761 3854 1
761 4768 1
761 4816 1
762 13 1
762 238 1
762 499 1
762 709 1
762 1672 1
762 1845 1
762 2505 1
763 66 1
763 344 1
763 356 1
763 704 1
763 964 1
763 1287 1
763 1994 1
763 2200 1
763 3344 1
763 3940 1
763 4241 1
763 4954 1
764 66 1
764 112 1
764 251 1
764 354 1
764 994 1
764 1696 1
764 4641 1
765 23 1
765 38 1
765 370 1
765 427 1
765 1485 1
765 1569 1
765 2222 1
765 2516 1
765 2553 1
765 3241 1
765 4083 1
766 36 1
766 181 1
766 350 1
766 388 1
766 1471 1
766 2065 1
766 2668 1
766 2688 1
766 2757 1
767 51 1
767 308 1
767 512 1
767 539 1
767 4265 1
768 9 1
768 12 1
768 34 1
768 63 1
768 2645 1
768 2962 1
768 3249 1
768 4113 1
768 4704 1
769 7 1
769 30 1
769 115 1
769 326 1
769 832 1
769 927 1
769 989 1
769 1676 1
769 2142 1
769 2501 1
769 3007 1
769 3129 1
769 3277 1
769 3653 1
769 4098 1
769 4902 1
770 93 1
770 205 1
770 382 1
770 598 1
770 806 1
770 2591 1
770 3617 1
770 3722 1
770 3817 1
770 4152 1
770 4251 1
770 4579 1
771 8 1
771 42 1
771 61 1
771 98 1
771 1330 1
771 1435 1
772 45 1
772 212 1
772 519 1
772 592 1
772 1941 1
772 2836 1
772 3138 1
772 4418 1
773 51 1
773 77 1
773 401 1
773 424 1
773 1138 1
773 1155 1
773 3184 1
773 3747 1
773 3972 1
773 4001 1
774 240 1
774 636 1
774 645 1
774 665 1
775 106 1
775 534 1
775 598 1
775 713 1
775 1215 1
775 1720 1
775 2835 1
775 3431 1
775 4244 1
776 20 1
776 320 1
776 351 1
776 533 1
776 1262 1
776 2649 1
776 3956 1
776 4149 1
777 165 1
777 486 1
777 621 1
777 640 1
777 965 1
777 1568 1
778 99 1
778 150 1
778 496 1
778 532 1
778 876 1
778 976 1
778 1193 1
778 1505 1
778 1848 1
778 3468 1
779 12 1
779 34 1
779 64 1
779 170 1
779 1058 1
779 1086 1
779 2138 1
779 2348 1
779 2948 1
779 3501 1
779 3955 1
780 18 1
780 628 1
780 678 1
780 683 1
780 3596 1
781 1 1
781 105 1
781 342 1
781 481 1
781 966 1
781 1043 1
781 1226 1
782 1 1
782 32 1
782 92 1
782 324 1
782 866 1
782 1574 1
782 3930 1
783 12 1
783 253 1
783 297 1
783 611 1
783 1305 1
783 2414 1
783 2805 1
783 4555 1
783 4731 1
784 24 1
784 106 1
784 339 1
784 499 1
784 1119 1
785 28 1
785 72 1
785 186 1
785 331 1
785 1153 1
785 1277 1
785 4078 1
785 4388 1
785 4418 1
786 58 1
786 61 1
786 307 1
786 737 1
786 948 1
786 1301 1
786 1417 1
786 2428 1
786 4103 1
787 24 1
787 39 1
787 205 1
787 213 1
787 823 1
787 867 1
787 896 1
787 1184 1
787 1276 1
787 1384 1
787 1583 1
787 1732 1
787 2083 1
787 2236 1
787 2884 1
787 3025 1
787 3072 1
787 3839 1
788 9 1
788 23 1
788 387 1
788 698 1
788 866 1
788 966 1
788 2115 1
788 2597 1
788 3032 1
788 3850 1
788 4676 1
789 166 1
789 225 1
789 435 1
789 438 1
789 844 1
789 3647 1
789 3803 1
789 4600 1
790 86 1
790 100 1
790 290 1
790 368 1
790 1171 1
790 1540 1
790 1682 1
790 4614 1
791 1 1
791 74 1
791 113 1
791 139 1
791 796 1
791 1035 1
791 1667 1
791 2349 1
791 2461 1
791 4775 1
791 4980 1
792 17 1
792 88 1
792 183 1
792 758 1
792 2042 1
792 2055 1
792 2402 1
792 3238 1
792 4298 1
793 8 1
793 11 1
793 511 1
793 518 1
793 4152 1
794 1 1
794 491 1
794 655 1
794 671 1
794 805 1
794 947 1
794 1188 1
794 1649 1
794 1684 1
794 2531 1
794 3152 1
794 3684 1
795 168 1
795 264 1
795 408 1
795 434 1
795 1427 1
796 43 1
796 123 1
796 131 1
796 791 1
796 908 1
796 1102 1
796 2846 1
796 3426 1
796 3660 1
796 4173 1
796 4588 1
796 4718 1
796 4730 1
797 210 1
797 309 1
797 333 1
797 717 1
797 1294 1
797 1629 1
797 4378 1
798 24 1
798 25 1
798 246 1
798 697 1
798 1085 1
798 1358 1
798 1375 1
798 1572 1
798 2098 1
798 2961 1
798 4359 1
798 4756 1
799 70 1
799 129 1
799 177 1
799 338 1
799 1188 1
799 2038 1
799 2249 1
799 3186 1
799 4310 1
800 62 1
800 113 1
800 186 1
800 373 1
800 1010 1
800 1020 1
800 1798 1
800 1987 1
800 2451 1
800 2781 1
800 3109 1
800 4217 1
801 46 1
801 249 1
801 541 1
801 752 1
801 1222 1
801 1391 1
801 1679 1
801 2684 1
801 4062 1
801 4319 1
801 4573 1
802 338 1
802 345 1
802 600 1
802 723 1
802 996 1
802 2154 1
802 3204 1
802 3791 1
802 3873 1
802 4217 1
802 4725 1
802 4952 1
803 15 1
803 34 1
803 137 1
803 279 1
803 4680 1
803 4845 1
804 117 1
804 318 1
804 575 1
804 646 1
804 3784 1
805 75 1
805 192 1
805 201 1
805 794 1
805 1167 1
805 2109 1
805 2241 1
806 116 1
806 210 1
806 721 1
806 770 1
806 996 1
806 3315 1
806 3870 1
806 4987 1
807 6 1
807 50 1
807 109 1
807 506 1
807 831 1
807 1073 1
807 1230 1
807 1731 1
807 1982 1
807 2453 1
807 4502 1
808 43 1
808 205 1
808 305 1
808 326 1
808 961 1
808 1103 1
808 1923 1
808 2337 1
808 3555 1
808 3839 1
808 3923 1
808 4946 1
809 6 1
809 61 1
809 140 1
809 255 1
809 1323 1
809 3385 1
809 3640 1
809 4347 1
810 1 1
810 242 1
810 251 1
810 618 1
810 2534 1
810 3948 1
810 4313 1
811 285 1
811 485 1
811 674 1
811 684 1
811 908 1
811 3389 1
811 3423 1
811 4987 1
812 159 1
812 221 1
812 265 1
812 358 1
812 851 1
812 3969 1
812 4462 1
813 123 1
813 203 1
813 556 1
813 563 1
813 1036 1
813 1108 1
813 1791 1
814 323 1
814 344 1
814 592 1
814 721 1
814 1658 1
814 3506 1
815 1 1
815 101 1
815 127 1
815 239 1
815 1371 1
815 4708 1
816 9 1
816 217 1
816 470 1
816 521 1
816 2677 1
816 2776 1
816 3013 1
816 4275 1
817 38 1
817 61 1
817 177 1
817 502 1
817 1090 1
817 1351 1
817 1528 1
817 1883 1
817 2905 1
817 4222 1
817 4553 1
817 4678 1
818 157 1
818 292 1
818 297 1
818 365 1
818 1429 1
818 1894 1
818 1932 1
818 2177 1
818 2292 1
818 4238 1
819 7 1
819 11 1
819 233 1
819 430 1
819 1731 1
819 1976 1
819 2587 1
819 3488 1
819 3537 1
819 3896 1
819 4511 1
820 9 1
820 20 1
820 88 1
820 706 1
820 1693 1
820 1937 1
820 2424 1
820 2672 1
821 1 1
821 265 1
821 269 1
821 473 1
821 2079 1
821 3008 1
821 3339 1
821 4417 1
821 4510 1
822 8 1
822 74 1
822 145 1
822 342 1
822 3244 1
823 123 1
823 582 1
823 749 1
823 787 1
823 1607 1
823 1772 1
823 2648 1
823 4158 1
824 10 1
824 80 1
824 437 1
824 474 1
824 1354 1
824 2138 1
824 2146 1
824 2194 1
824 2797 1
824 3018 1
824 3635 1
824 4710 1
825 13 1
825 32 1
825 43 1
825 194 1
825 1008 1
825 2564 1
825 3702 1
826 11 1
826 32 1
826 483 1
826 547 1
826 1071 1
826 1696 1
826 3005 1
826 3903 1
826 4838 1
827 8 1
827 16 1
827 117 1
827 120 1
827 1178 1
827 1714 1
827 1780 1
827 2427 1
827 3629 1
827 3859 1
827 4396 1
827 4425 1
827 4917 1
828 134 1
828 149 1
828 158 1
828 419 1
828 850 1
828 1000 1
828 1420 1
828 1907 1
828 2039 1
828 2049 1
828 2218 1
828 2420 1
828 2423 1
828 3795 1
828 4215 1
828 4688 1
829 1 1
829 6 1
829 182 1
829 224 1
829 884 1
829 1306 1
829 1503 1
829 1531 1
829 1731 1
829 2048 1
829 3376 1
829 3640 1
829 4000 1
829 4160 1
830 78 1
830 149 1
830 157 1
830 635 1
830 1145 1
830 1410 1
830 1466 1
830 1570 1
830 1992 1
830 2206 1
830 2265 1
830 3660 1
831 72 1
831 209 1
831 348 1
831 807 1
831 949 1
831 1636 1
831 2107 1
831 2124 1
831 2170 1
831 3768 1
831 4185 1
832 46 1
832 221 1
832 685 1
832 769 1
832 2011 1
832 2312 1
832 3294 1
832 3659 1
833 46 1
833 92 1
833 120 1
833 321 1
833 1211 1
833 2149 1
833 2184 1
833 2209 1
833 2396 1
833 2568 1
833 2653 1
833 2947 1
833 3092 1
833 4033 1
834 61 1
834 63 1
834 170 1
834 758 1
834 4393 1
835 16 1
835 71 1
835 354 1
835 491 1
835 1037 1
835 1759 1
835 2956 1
835 3988 1
836 23 1
836 30 1
836 54 1
836 313 1
836 850 1
836 952 1
836 963 1
836 1376 1
836 1391 1
836 1888 1
836 2432 1
836 2475 1
836 2480 1
836 2499 1
836 2586 1
836 3631 1
836 3769 1
836 4662 1
837 8 1
837 182 1
837 583 1
837 683 1
837 986 1
837 1244 1
837 1403 1
837 1601 1
837 2475 1
837 3987 1
838 74 1
838 357 1
838 421 1
838 588 1
838 1002 1
838 1291 1
838 1345 1
838 1595 1
838 2511 1
838 3554 1
838 4750 1
839 172 1
839 319 1
839 481 1
839 533 1
839 959 1
839 1028 1
839 1699 1
839 3918 1
839 4282 1
839 4775 1
840 38 1
840 157 1
840 177 1
840 340 1
840 1524 1
840 2355 1
840 2440 1
840 3015 1
840 3050 1
840 3156 1
840 4149 1
840 4262 1
841 143 1
841 313 1
841 457 1
841 501 1
841 2070 1
841 3612 1
841 3759 1
841 3940 1
841 4226 1
842 23 1
842 28 1
842 56 1
842 178 1
842 848 1
842 1378 1
842 1639 1
842 1651 1
842 1852 1
842 2370 1
842 4524 1
843 36 1
843 258 1
843 275 1
843 603 1
843 860 1
843 1077 1
843 2168 1
843 2840 1
843 3977 1
843 4198 1
843 4365 1
843 4811 1
843 4977 1
844 6 1
844 7 1
844 160 1
844 789 1
844 1008 1
844 1980 1
844 2250 1
844 4980 1
845 7 1
845 225 1
845 400 1
845 493 1
845 869 1
845 913 1
845 1047 1
845 2593 1
845 3345 1
845 3793 1
845 3820 1
845 4036 1
845 4051 1
846 20 1
846 412 1
846 459 1
846 703 1
846 1501 1
846 1619 1
846 2470 1
846 2525 1
846 2721 1
846 3082 1
846 3553 1
846 3677 1
846 3691 1
847 212 1
847 501 1
847 574 1
847 661 1
847 2286 1
848 130 1
848 432 1
848 482 1
848 842 1
848 2284 1
848 4178 1
849 18 1
849 30 1
849 399 1
849 747 1
850 7 1
850 82 1
850 828 1
850 836 1
851 162 1
851 220 1
851 488 1
851 812 1
851 906 1
851 1007 1
851 1115 1
851 1504 1
851 2551 1
851 3175 1
851 4895 1
852 1 1
852 179 1
852 226 1
852 481 1
852 873 1
852 875 1
852 1346 1
852 2952 1
852 2975 1
852 3599 1
852 4804 1
853 23 1
853 30 1
853 123 1
853 265 1
853 1034 1
853 1142 1
853 1286 1
853 1600 1
853 2832 1
853 2840 1
853 2932 1
853 3737 1
854 205 1
854 359 1
854 380 1
854 494 1
854 1000 1
854 1424 1
854 2473 1
854 3483 1
854 4023 1
855 216 1
855 327 1
855 401 1
855 620 1
855 872 1
855 2507 1
855 2628 1
855 3712 1
856 36 1
856 138 1
856 302 1
856 610 1
856 2069 1
856 2374 1
856 2902 1
856 3470 1
857 16 1
857 35 1
857 261 1
857 273 1
857 1108 1
857 2245 1
857 2306 1
857 2418 1
857 4384 1
858 109 1
858 118 1
858 157 1
858 324 1
858 1141 1
858 1632 1
859 9 1
859 27 1
859 269 1
859 313 1
859 2684 1
859 2752 1
859 3322 1
859 3572 1
859 4479 1
860 100 1
860 253 1
860 352 1
860 843 1
860 1187 1
860 1567 1
860 2526 1
860 4890 1
861 26 1
861 36 1
861 132 1
861 752 1
861 1139 1
861 1754 1
861 2616 1
861 3227 1
861 3855 1
862 1 1
862 46 1
862 198 1
862 511 1
862 1294 1
863 1 1
863 102 1
863 121 1
863 217 1
863 2113 1
863 4049 1
864 1 1
864 25 1
864 84 1
864 253 1
864 1119 1
864 1156 1
864 1175 1
864 1285 1
864 1486 1
864 1535 1
864 1620 1
864 1647 1
864 2015 1
864 2753 1
864 3085 1
864 4615 1
864 4669 1
865 98 1
865 101 1
865 198 1
865 258 1
865 949 1
865 970 1
865 979 1
865 1012 1
865 1319 1
865 1359 1
865 1400 1
865 2240 1
865 2455 1
865 2804 1
865 2995 1
865 3494 1
865 3606 1
865 3902 1
865 4583 1
865 4673 1
866 29 1
866 108 1
866 782 1
866 788 1
866 1366 1
866 1435 1
866 1586 1
866 2016 1
867 166 1
867 381 1
867 737 1
867 787 1
867 3581 1
868 147 1
868 157 1
868 216 1
868 712 1
868 1532 1
868 2324 1
868 2953 1
869 157 1
869 333 1
869 443 1
869 845 1
869 1478 1
869 1683 1
870 6 1
870 11 1
870 339 1
870 428 1
870 1068 1
870 3220 1
871 1 1
871 17 1
871 231 1
871 525 1
871 1300 1
871 1826 1
871 3725 1
872 265 1
872 355 1
872 632 1
872 855 1
872 948 1
872 1075 1
872 1096 1
872 1163 1
872 1516 1
872 2108 1
872 2296 1
872 2533 1
872 3377 1
872 3405 1
872 4001 1
872 4623 1
872 4871 1
872 4903 1
873 32 1
873 524 1
873 713 1
873 852 1
873 889 1
873 1030 1
873 1058 1
873 1265 1
873 1711 1
873 1851 1
873 1944 1
873 2481 1
873 2553 1
873 2927 1
873 3391 1
874 40 1
874 61 1
874 184 1
874 465 1
874 4263 1
874 4273 1
875 250 1
875 330 1
875 746 1
875 852 1
875 1757 1
875 1819 1
875 1932 1
875 2482 1
875 2629 1
875 3002 1
875 4310 1
875 4812 1
876 11 1
876 115 1
876 350 1
876 778 1
876 1079 1
876 1896 1
876 2043 1
876 3648 1
876 4004 1
876 4284 1
876 4588 1
877 109 1
877 238 1
877 340 1
877 683 1
877 4584 1
878 95 1
878 301 1
878 303 1
878 347 1
878 1007 1
878 1246 1
878 1733 1
878 3102 1
878 4148 1
878 4366 1
878 4954 1
879 6 1
879 12 1
879 333 1
879 341 1
879 4067 1
880 25 1
880 125 1
880 388 1
880 396 1
881 3 1
881 53 1
881 169 1
881 387 1
881 3561 1
882 8 1
882 32 1
882 125 1
882 744 1
882 1073 1
882 1291 1
882 1804 1
882 2795 1
882 3933 1
882 4046 1
883 10 1
883 82 1
883 324 1
883 363 1
883 3050 1
884 299 1
884 373 1
884 724 1
884 829 1
884 1497 1
884 1606 1
884 1929 1
884 2690 1
884 3048 1
884 3937 1
884 4518 1
885 78 1
885 290 1
885 363 1
885 505 1
885 1917 1
885 2713 1
885 3284 1
885 4098 1
885 4508 1
885 4514 1
886 23 1
886 27 1
886 91 1
886 621 1
886 1019 1
886 1178 1
886 1204 1
886 1349 1
886 1393 1
886 1497 1
886 1561 1
886 2149 1
886 2497 1
886 2589 1
886 3205 1
886 4506 1
887 21 1
887 94 1
887 281 1
887 508 1
887 4576 1
888 5 1
888 295 1
888 373 1
888 741 1
888 1536 1
888 1877 1
888 2029 1
888 3090 1
889 321 1
889 432 1
889 724 1
889 873 1
889 3630 1
890 37 1
890 44 1
890 67 1
890 224 1
890 927 1
890 1272 1
890 1822 1
890 4079 1
890 4925 1
890 4979 1
891 5 1
891 43 1
891 61 1
891 723 1
891 898 1
891 1468 1
891 1798 1
891 1938 1
891 2412 1
891 2747 1
891 3136 1
891 3333 1
891 4369 1
892 3 1
892 51 1
892 312 1
892 665 1
892 943 1
892 1105 1
892 3671 1
893 3 1
893 30 1
893 138 1
893 210 1
893 1300 1
893 1488 1
893 2238 1
893 2270 1
893 3502 1
894 6 1
894 15 1
894 421 1
894 645 1
894 3823 1
894 4470 1
894 4926 1
895 50 1
895 215 1
895 217 1
895 304 1
895 1127 1
895 2412 1
895 2634 1
895 3039 1
895 3344 1
896 38 1
896 45 1
896 573 1
896 787 1
896 1198 1
897 85 1
897 95 1
897 292 1
897 538 1
897 901 1
897 1479 1
897 1576 1
897 1955 1
897 2424 1
897 2789 1
897 2805 1
897 4166 1
897 4645 1
898 45 1
898 98 1
898 536 1
898 891 1
898 1038 1
898 1370 1
898 1913 1
898 2789 1
898 3733 1
898 3918 1
899 152 1
899 406 1
899 466 1
899 744 1
899 3047 1
899 3121 1
899 3298 1
899 3444 1
899 4455 1
900 64 1
900 106 1
900 318 1
900 372 1
900 1785 1
900 2588 1
900 2869 1
901 7 1
901 9 1
901 17 1
901 897 1
901 1547 1
901 2072 1
901 2955 1
902 56 1
902 356 1
902 532 1
902 761 1
902 1466 1
902 1479 1
902 1856 1
902 2244 1
902 3314 1
902 3727 1
903 231 1
903 396 1
903 693 1
903 761 1
903 2935 1
903 3733 1
903 4483 1
904 51 1
904 122 1
904 318 1
904 537 1
904 1260 1
904 1362 1
904 3023 1
904 3845 1
904 4943 1
905 31 1
905 222 1
905 305 1
905 354 1
905 1446 1
905 2230 1
905 2326 1
905 3331 1
905 3615 1
905 3977 1
905 4233 1
905 4569 1
906 3 1
906 121 1
906 490 1
906 851 1
906 993 1
906 1381 1
906 4943 1
907 6 1
907 62 1
907 175 1
907 736 1
907 1816 1
907 2410 1
907 4204 1
907 4605 1
908 3 1
908 542 1
908 796 1
908 811 1
908 921 1
908 1365 1
908 1613 1
908 2090 1
908 2316 1
908 2450 1
908 2996 1
908 3064 1
908 3073 1
908 3469 1
908 4385 1
908 4892 1
909 5 1
909 94 1
909 99 1
909 173 1
909 2186 1
909 2275 1
909 3031 1
909 3655 1
910 184 1
910 199 1
910 561 1
910 639 1
910 1327 1
910 1729 1
910 2315 1
910 4089 1
910 4372 1
911 91 1
911 281 1
911 465 1
911 673 1
911 2859 1
911 4223 1
912 53 1
912 86 1
912 568 1
912 579 1
912 1946 1
912 1969 1
912 2251 1
912 2331 1
912 2745 1
913 56 1
913 503 1
913 673 1
913 845 1
913 2804 1
914 90 1
914 227 1
914 443 1
914 754 1
914 1289 1
914 1810 1
914 3393 1
915 1 1
915 80 1
915 228 1
915 678 1
915 1308 1
915 1574 1
915 1860 1
915 2122 1
915 2249 1
915 3047 1
916 303 1
916 338 1
916 643 1
916 711 1
916 3210 1
916 4118 1
917 449 1
917 535 1
917 546 1
917 610 1
917 1283 1
917 1331 1
917 1912 1
917 2481 1
917 4739 1
918 12 1
918 117 1
918 201 1
918 527 1
918 2032 1
918 4430 1
918 4543 1
919 1 1
919 15 1
919 53 1
919 199 1
919 1302 1
919 1419 1
919 1740 1
919 2067 1
919 2413 1
919 3161 1
919 3661 1
919 3768 1
919 4201 1
920 198 1
920 294 1
920 465 1
920 635 1
920 1713 1
920 3719 1
920 4971 1
921 172 1
921 570 1
921 667 1
921 908 1
921 1577 1
921 2226 1
921 3646 1
921 3689 1
921 4758 1
921 4851 1
922 78 1
922 552 1
922 663 1
922 725 1
922 1665 1
922 1785 1
923 134 1
923 172 1
923 182 1
923 679 1
923 1167 1
923 1763 1
923 1884 1
923 1974 1
923 2014 1
923 2024 1
923 2175 1
923 2349 1
923 2383 1
923 2518 1
923 2672 1
923 3272 1
923 3292 1
923 3392 1
923 4101 1
923 4264 1
923 4286 1
923 4906 1
924 40 1
924 183 1
924 302 1
924 327 1
924 1105 1
924 1364 1
924 1399 1
924 1420 1
924 1529 1
924 1726 1
924 3246 1
924 4059 1
925 6 1
925 270 1
925 416 1
925 647 1
925 956 1
925 1374 1
925 2333 1
925 3504 1
926 6 1
926 131 1
926 352 1
926 592 1
926 1099 1
926 4514 1
927 157 1
927 407 1
927 769 1
927 890 1
927 1678 1
927 2775 1
927 4493 1
928 53 1
928 147 1
928 208 1
928 582 1
928 935 1
928 993 1
928 1066 1
928 2546 1
929 7 1
929 21 1
929 114 1
929 637 1
929 936 1
929 965 1
929 1876 1
929 1964 1
929 2093 1
929 2286 1
929 2914 1
929 3087 1
929 3316 1
929 4213 1
930 315 1
930 576 1
930 674 1
930 734 1
930 3707 1
931 1 1
931 57 1
931 188 1
931 511 1
931 1400 1
931 2839 1
932 1 1
932 6 1
932 11 1
932 321 1
932 1117 1
932 1167 1
932 3080 1
932 3229 1
932 3940 1
932 3976 1
932 4085 1
932 4634 1
933 77 1
933 290 1
933 335 1
933 434 1
933 1190 1
933 1562 1
933 1636 1
933 2974 1
933 3991 1
933 4928 1
934 1 1
934 246 1
934 356 1
934 592 1
934 2897 1
934 4893 1
935 195 1
935 320 1
935 441 1
935 928 1
935 1163 1
935 1492 1
935 2925 1
935 3029 1
935 3449 1
935 3624 1
936 52 1
936 88 1
936 172 1
936 929 1
936 1507 1
936 1781 1
936 2552 1
937 6 1
937 39 1
937 330 1
937 527 1
937 1451 1
937 1600 1
937 2084 1
937 2371 1
937 2451 1
937 4726 1
938 52 1
938 245 1
938 506 1
938 565 1
938 3467 1
938 4813 1
938 4921 1
939 10 1
939 39 1
939 70 1
939 752 1
939 1230 1
939 1634 1
939 3125 1
939 3679 1
939 4268 1
939 4761 1
940 36 1
940 145 1
940 273 1
940 682 1
940 1642 1
940 2363 1
941 8 1
941 81 1
941 175 1
941 201 1
941 1605 1
941 2273 1
941 3343 1
941 4500 1
941 4574 1
942 268 1
942 423 1
942 514 1
942 761 1
942 4565 1
943 2 1
943 36 1
943 118 1
943 892 1
943 3829 1
943 3971 1
944 18 1
944 123 1
944 410 1
944 444 1
944 2136 1
944 3428 1
944 3462 1
944 3881 1
945 106 1
945 474 1
945 583 1
945 625 1
945 1034 1
945 1631 1
945 1697 1
945 1950 1
945 2206 1
945 2563 1
945 3368 1
946 16 1
946 205 1
946 359 1
946 747 1
946 3043 1
946 3265 1
946 3300 1
946 3690 1
946 4973 1
947 143 1
947 246 1
947 510 1
947 794 1
947 1543 1
947 1550 1
947 3446 1
948 129 1
948 148 1
948 786 1
948 872 1
948 1665 1
948 3325 1
948 3669 1
949 3 1
949 98 1
949 831 1
949 865 1
949 2550 1
949 4635 1
950 9 1
950 84 1
950 481 1
950 507 1
950 1100 1
951 8 1
951 424 1
951 487 1
951 729 1
951 1202 1
951 1221 1
951 1468 1
951 2121 1
951 2214 1
951 2644 1
951 2740 1
951 3093 1
951 3334 1
952 11 1
952 23 1
952 78 1
952 836 1
952 2781 1
953 8 1
953 123 1
953 497 1
953 551 1
953 1138 1
953 1144 1
953 1249 1
953 1693 1
953 2415 1
953 2468 1
953 2698 1
953 3607 1
954 218 1
954 422 1
954 517 1
954 569 1
954 1646 1
954 2292 1
954 3516 1
955 71 1
955 177 1
955 304 1
955 375 1
955 1183 1
955 1782 1
955 1923 1
955 1946 1
955 1986 1
955 2452 1
955 2522 1
955 3520 1
956 3 1
956 19 1
956 30 1
956 925 1
956 999 1
956 2208 1
956 3879 1
957 1 1
957 34 1
957 36 1
957 87 1
957 2118 1
958 14 1
958 187 1
958 388 1
958 507 1
958 1016 1
958 1786 1
958 2033 1
958 2934 1
958 3539 1
958 4327 1
959 3 1
959 452 1
959 498 1
959 839 1
959 1059 1
959 1770 1
959 2073 1
959 2589 1
959 2908 1
959 3324 1
960 12 1
960 46 1
960 280 1
960 593 1
960 1491 1
960 1639 1
960 3259 1
960 3799 1
960 4519 1
961 64 1
961 523 1
961 620 1
961 808 1
961 1473 1
961 1962 1
961 2397 1
961 3104 1
961 3421 1
961 4027 1
961 4127 1
961 4281 1
961 4474 1
961 4734 1
962 11 1
962 212 1
962 360 1
962 365 1
962 1401 1
962 1608 1
962 2059 1
962 2158 1
962 2853 1
962 3698 1
962 4266 1
962 4644 1
962 4744 1
962 4763 1
962 4866 1
963 1 1
963 558 1
963 754 1
963 836 1
963 2917 1
963 3671 1
963 3887 1
963 3958 1
963 4867 1
964 11 1
964 36 1
964 53 1
964 763 1
964 1529 1
964 1641 1
964 2164 1
964 2393 1
964 4344 1
965 168 1
965 517 1
965 777 1
965 929 1
965 1006 1
965 1203 1
965 1817 1
965 4437 1
966 43 1
966 224 1
966 781 1
966 788 1
966 1081 1
966 1178 1
966 1208 1
966 1385 1
966 1835 1
966 2072 1
966 2494 1
966 2558 1
966 2611 1
966 3473 1
966 3501 1
966 4576 1
966 4657 1
967 131 1
967 291 1
967 387 1
967 409 1
967 1134 1
967 1618 1
967 2926 1
967 3078 1
968 45 1
968 56 1
968 167 1
968 604 1
968 979 1
968 1046 1
968 1266 1
968 1350 1
968 1664 1
968 1671 1
968 2558 1
968 2746 1
968 2999 1
968 3351 1
968 3382 1
968 4058 1
968 4138 1
969 24 1
969 123 1
969 338 1
969 398 1
969 1081 1
969 2066 1
969 2959 1
969 4308 1
969 4317 1
970 1 1
970 80 1
970 182 1
970 865 1
970 1096 1
970 1726 1
970 1821 1
970 2008 1
970 3893 1
970 4317 1
970 4543 1
971 1 1
971 7 1
971 352 1
971 423 1
971 1152 1
972 1 1
972 533 1
972 748 1
972 750 1
972 1051 1
972 1647 1
972 1978 1
972 2300 1
972 2852 1
972 2894 1
972 2899 1
972 3065 1
972 3066 1
972 3276 1
972 3676 1
972 3945 1
972 4232 1
973 84 1
973 202 1
973 347 1
973 611 1
973 2041 1
973 2276 1
973 2500 1
973 3022 1
973 3605 1
974 7 1
974 13 1
974 115 1
974 123 1
974 1722 1
975 17 1
975 46 1
975 177 1
975 544 1
975 1131 1
975 2100 1
975 2624 1
975 2896 1
975 2908 1
975 2916 1
976 6 1
976 27 1
976 40 1
976 778 1
976 4565 1
976 4836 1
977 3 1
977 6 1
977 26 1
977 109 1
977 1342 1
977 1933 1
977 3498 1
978 29 1
978 38 1
978 156 1
978 253 1
978 1225 1
978 2274 1
978 2479 1
978 3321 1
978 3735 1
978 3891 1
978 4338 1
978 4676 1
978 4719 1
978 4741 1
978 4885 1
979 88 1
979 119 1
979 865 1
979 968 1
979 1044 1
979 2125 1
979 2456 1
979 2679 1
979 3036 1
979 3719 1
979 4714 1
980 6 1
980 71 1
980 385 1
980 490 1
980 1614 1
980 1740 1
980 1986 1
980 2532 1
980 3731 1
981 10 1
981 88 1
981 120 1
981 225 1
981 1541 1
981 3595 1
981 4042 1
981 4796 1
981 4822 1
982 14 1
982 22 1
982 92 1
982 137 1
982 1286 1
982 1425 1
982 2517 1
982 2547 1
983 7 1
983 41 1
983 110 1
983 761 1
983 2075 1
983 3445 1
983 3831 1
984 13 1
984 96 1
984 476 1
984 726 1
984 3997 1
984 4064 1
985 227 1
985 455 1
985 671 1
985 737 1
985 1128 1
985 1472 1
985 3467 1
986 1 1
986 160 1
986 176 1
986 837 1
986 1388 1
986 1840 1
986 4011 1
986 4287 1
986 4507 1
987 1 1
987 15 1
987 242 1
987 284 1
987 1409 1
987 1824 1
988 5 1
988 400 1
988 434 1
988 473 1
988 1383 1
988 2227 1
988 2981 1
988 3310 1
988 3708 1
988 3812 1
988 4931 1
989 26 1
989 413 1
989 691 1
989 769 1
989 993 1
989 3563 1
989 4258 1
990 9 1
990 34 1
990 81 1
990 387 1
990 1158 1
991 8 1
991 34 1
991 425 1
991 491 1
992 1 1
992 14 1
992 132 1
992 669 1
992 1432 1
992 4083 1
993 116 1
993 906 1
993 928 1
993 989 1
993 1255 1
993 2032 1
993 2503 1
993 2658 1
993 3710 1
993 3764 1
993 4488 1
993 4498 1
994 1 1
994 193 1
994 460 1
994 764 1
994 1292 1
994 1514 1
994 1573 1
994 1989 1
994 2146 1
994 2409 1
994 2543 1
994 2573 1
994 2971 1
994 4097 1
994 4716 1
994 4755 1
995 210 1
995 384 1
995 439 1
995 657 1
995 3653 1
996 23 1
996 280 1
996 802 1
996 806 1
996 2760 1
996 4394 1
997 106 1
997 167 1
997 320 1
997 736 1
997 1111 1
997 1471 1
997 1615 1
997 2248 1
997 3430 1
998 1 1
998 6 1
998 78 1
998 517 1
998 1666 1
998 2131 1
999 1 1
999 8 1
999 290 1
999 956 1
999 2583 1
1000 170 1
1000 212 1
1000 828 1
1000 854 1
1000 1080 1
1000 1332 1
1000 1549 1
1000 1556 1
1000 1640 1
1000 1657 1
1000 1819 1
1000 1958 1
1000 2447 1
1000 2655 1
1000 2741 1
1000 2922 1
1000 2962 1
1000 3522 1
1000 3816 1
1001 18 1
1001 36 1
1001 161 1
1001 372 1
1001 1017 1
1001 2152 1
1001 2226 1
1001 3217 1
1001 3391 1
1001 3411 1
1001 3944 1
1001 4052 1
1001 4356 1
1001 4923 1
1002 131 1
1002 487 1
1002 566 1
1002 838 1
1002 1122 1
1002 1920 1
1002 3430 1
1003 175 1
1003 226 1
1003 253 1
1003 551 1
1003 1181 1
1003 2117 1
1003 2510 1
1003 2548 1
1003 2817 1
1003 4481 1
1004 26 1
1004 231 1
1004 361 1
1004 533 1
1004 3586 1
1004 3994 1
1004 4135 1
1005 56 1
1005 75 1
1005 507 1
1005 713 1
1005 4288 1
1006 175 1
1006 322 1
1006 615 1
1006 965 1
1006 1601 1
1006 1733 1
1006 3633 1
1007 621 1
1007 637 1
1007 851 1
1007 878 1
1007 1125 1
1007 1872 1
1007 2761 1
1007 2918 1
1007 4568 1
1008 27 1
1008 507 1
1008 825 1
1008 844 1
1008 2699 1
1008 4086 1
1008 4221 1
1009 175 1
1009 254 1
1009 429 1
1009 469 1
1009 1079 1
1009 1192 1
1009 1490 1
1009 1816 1
1009 3456 1
1009 4133 1
1010 1 1
1010 8 1
1010 760 1
1010 800 1
1010 1806 1
1010 1809 1
1010 2404 1
1010 2945 1
1010 3800 1
1010 3851 1
1010 4493 1
1011 1 1
1011 16 1
1011 332 1
1011 760 1
1011 1085 1
1011 1100 1
1011 1134 1
1011 2009 1
1011 2167 1
1011 2928 1
1011 3757 1
1011 4031 1
1012 78 1
1012 198 1
1012 271 1
1012 865 1
1012 1059 1
1012 1229 1
1012 1638 1
1012 2845 1
1012 4441 1
1012 4724 1
1013 23 1
1013 27 1
1013 65 1
1013 125 1
1013 1194 1
1013 3046 1
1013 4065 1
1014 122 1
1014 170 1
1014 479 1
1014 638 1
1014 1123 1
1014 1450 1
1014 2519 1
1014 2523 1
1014 2777 1
1014 2861 1
1014 3385 1
1015 137 1
1015 188 1
1015 250 1
1015 262 1
1015 1311 1
1015 2021 1
1015 3610 1
1015 3958 1
1016 28 1
1016 134 1
1016 319 1
1016 958 1
1016 2752 1
1017 46 1
1017 225 1
1017 411 1
1017 1001 1
1017 1026 1
1017 3159 1
1018 15 1
1018 568 1
1018 640 1
1018 679 1
1018 2364 1
1019 70 1
1019 268 1
1019 274 1
1019 886 1
1019 1418 1
1019 1526 1
1019 1789 1
1019 2679 1
1019 2737 1
1019 3173 1
1019 3202 1
1019 3517 1
1019 4134 1
1019 4340 1
1019 4704 1
1020 8 1
1020 23 1
1020 149 1
1020 800 1
1020 1040 1
1020 1121 1
1020 1236 1
1020 1487 1
1020 1780 1
1020 2133 1
1020 2698 1
1020 2978 1
1020 3124 1
1020 3605 1
1020 4246 1
1020 4846 1
1021 114 1
1021 160 1
1021 354 1
1021 541 1
1021 1342 1
1021 1433 1
1021 1834 1
1021 1922 1
1021 2481 1
1021 3009 1
1021 3251 1
1021 4794 1
1022 18 1
1022 38 1
1022 320 1
1022 546 1
1022 1269 1
1022 1914 1
1022 1939 1
1022 4037 1
1022 4485 1
1023 10 1
1023 12 1
1023 223 1
1023 292 1
1023 1847 1
1023 2689 1
1023 4045 1
1023 4277 1
1023 4464 1
1023 4930 1
1024 8 1
1024 161 1
1024 483 1
1024 570 1
1024 1080 1
1024 2622 1
1024 3043 1
1024 3302 1
1024 4814 1
1025 94 1
1025 193 1
1025 244 1
1025 268 1
1025 1320 1
1025 1784 1
1025 1820 1
1025 1870 1
1025 2576 1
1025 2848 1
1025 4443 1
1025 4626 1
1025 4723 1
1026 85 1
1026 105 1
1026 155 1
1026 1017 1
1026 1450 1
1026 3061 1
1026 4434 1
1027 52 1
1027 137 1
1027 326 1
1027 731 1
1027 1076 1
1027 1191 1
1027 3331 1
1027 4422 1
1027 4869 1
1028 9 1
1028 12 1
1028 223 1
1028 839 1
1028 1695 1
1028 3384 1
1029 27 1
1029 285 1
1029 579 1
1029 619 1
1029 1528 1
1029 2381 1
1029 2665 1
1029 3038 1
1030 9 1
1030 174 1
1030 717 1
1030 873 1
1030 1381 1
1031 166 1
1031 396 1
1031 435 1
1031 464 1
1031 1147 1
1031 2320 1
1031 2886 1
1031 3672 1
1031 4038 1
1031 4326 1
1031 4621 1
1032 1 1
1032 5 1
1032 8 1
1032 640 1
1032 2633 1
1032 3073 1
1032 3084 1
1032 3338 1
1032 4669 1
1033 71 1
1033 131 1
1033 297 1
1033 324 1
1033 1112 1
1033 1247 1
1034 37 1
1034 85 1
1034 853 1
1034 945 1
1034 2333 1
1035 160 1
1035 263 1
1035 590 1
1035 791 1
1035 1497 1
1035 1720 1
1035 1794 1
1035 1952 1
1035 2273 1
1035 2760 1
1035 3053 1
1035 3573 1
1035 3697 1
1036 20 1
1036 48 1
1036 419 1
1036 813 1
1036 1320 1
1036 1617 1
1036 1878 1
1036 2469 1
1036 2905 1
1037 210 1
1037 240 1
1037 668 1
1037 835 1
1037 1305 1
1037 2105 1
1038 34 1
1038 173 1
1038 608 1
1038 898 1
1038 1039 1
1038 1529 1
1039 34 1
1039 364 1
1039 498 1
1039 1038 1
1039 1667 1
1039 2399 1
1039 2837 1
1039 3308 1
1039 4992 1
1040 101 1
1040 400 1
1040 668 1
1040 1020 1
1040 1116 1
1040 1132 1
1040 1526 1
1040 1631 1
1040 2066 1
1040 2652 1
1040 3457 1
1040 3852 1
1040 4111 1
1040 4619 1
1041 7 1
1041 105 1
1041 343 1
1041 489 1
1041 1114 1
1041 1667 1
1041 2282 1
1041 3687 1
1041 3722 1
1041 3761 1
1041 3819 1
1041 4228 1
1041 4914 1
1042 13 1
1042 81 1
1042 291 1
1042 496 1
1042 3448 1
1043 1 1
1043 34 1
1043 182 1
1043 781 1
1043 2057 1
1043 4889 1
1044 88 1
1044 170 1
1044 340 1
1044 979 1
1044 3265 1
1044 4794 1
1045 199 1
1045 213 1
1045 497 1
1045 748 1
1046 106 1
1046 147 1
1046 504 1
1046 968 1
1046 1994 1
1046 2202 1
1046 4675 1
1047 188 1
1047 490 1
1047 539 1
1047 845 1
1047 1251 1
1047 1929 1
1047 2490 1
1047 3093 1
1047 4274 1
1048 78 1
1048 141 1
1048 154 1
1048 289 1
1048 1176 1
1048 1360 1
1048 1462 1
1048 1866 1
1048 2417 1
1048 2439 1
1048 2768 1
1049 10 1
1049 145 1
1049 236 1
1049 663 1
1049 1189 1
1049 1475 1
1049 1482 1
1049 3251 1
1050 23 1
1050 38 1
1050 299 1
1050 737 1
1050 4363 1
1050 4393 1
1050 4395 1
1051 23 1
1051 41 1
1051 372 1
1051 972 1
1051 1085 1
1051 1727 1
1051 2288 1
1051 3239 1
1051 3790 1
1051 4104 1
1052 61 1
1052 267 1
1052 318 1
1052 319 1
1052 1123 1
1052 1349 1
1052 2532 1
1053 43 1
1053 68 1
1053 115 1
1053 254 1
1053 3966 1
1054 90 1
1054 319 1
1054 624 1
1054 639 1
1054 2529 1
1055 11 1
1055 24 1
1055 61 1
1055 82 1
1055 2457 1
1055 2901 1
1055 3459 1
1055 3472 1
1056 79 1
1056 208 1
1056 304 1
1056 519 1
1056 1150 1
1056 2790 1
1056 4229 1
1057 8 1
1057 356 1
1057 455 1
1057 625 1
1057 1080 1
1057 2967 1
1058 88 1
1058 431 1
1058 779 1
1058 873 1
1058 1325 1
1058 1684 1
1058 3116 1
1059 1 1
1059 38 1
1059 959 1
1059 1012 1
1059 1161 1
1059 1646 1
1059 1757 1
1059 3772 1
1059 3783 1
1059 4364 1
1059 4883 1
1059 4977 1
1060 28 1
1060 180 1
1060 298 1
1060 304 1
1060 2088 1
1060 2695 1
1060 3226 1
1060 3960 1
1060 4132 1
1060 4486 1
1061 21 1
1061 22 1
1061 81 1
1061 185 1
1061 1182 1
1061 1260 1
1061 1354 1
1061 1527 1
1061 1943 1
1061 2952 1
1061 3212 1
1061 4121 1
1061 4642 1
1062 32 1
1062 131 1
1062 173 1
1062 273 1
1062 1213 1
1062 1631 1
1062 3135 1
1063 6 1
1063 157 1
1063 317 1
1063 460 1
1063 1358 1
1063 2280 1
1063 2417 1
1063 3026 1
1063 3273 1
1063 3687 1
1064 75 1
1064 123 1
1064 260 1
1064 526 1
1064 2885 1
1064 3032 1
1064 3118 1
1064 3298 1
1064 3868 1
1065 34 1
1065 62 1
1065 387 1
1065 525 1
1065 1199 1
1065 1637 1
1065 1713 1
1065 2618 1
1065 2857 1
1065 3985 1
1066 27 1
1066 53 1
1066 698 1
1066 928 1
1066 1640 1
1066 3322 1
1066 4142 1
1067 11 1
1067 24 1
1067 147 1
1067 470 1
1067 1775 1
1067 3892 1
1067 4349 1
1068 65 1
1068 358 1
1068 545 1
1068 870 1
1068 1124 1
1068 1691 1
1068 2677 1
1068 2830 1
1069 1 1
1069 38 1
1069 117 1
1069 467 1
1069 1200 1
1069 1565 1
1069 2056 1
1069 2527 1
1069 3755 1
1069 3841 1
1070 54 1
1070 309 1
1070 395 1
1070 671 1
1070 1976 1
1070 2848 1
1070 4060 1
1070 4563 1
1071 99 1
1071 300 1
1071 607 1
1071 826 1
1071 1982 1
1071 2202 1
1071 2383 1
1072 1 1
1072 76 1
1072 112 1
1072 402 1
1072 1355 1
1072 1893 1
1072 2779 1
1072 3036 1
1073 122 1
1073 127 1
1073 807 1
1073 882 1
1073 1458 1
1073 1492 1
1073 3189 1
1073 4061 1
1073 4294 1
1073 4542 1
1074 131 1
1074 313 1
1074 546 1
1074 611 1
1074 1995 1
1074 2983 1
1074 3264 1
1075 188 1
1075 592 1
1075 593 1
1075 872 1
1075 1500 1
1075 1773 1
1075 2492 1
1075 2731 1
1075 4938 1
1076 53 1
1076 100 1
1076 249 1
1076 1027 1
1076 1299 1
1076 2777 1
1077 6 1
1077 204 1
1077 305 1
1077 843 1
1077 1678 1
1077 1733 1
1077 1872 1
1077 4197 1
1077 4254 1
1077 4370 1
1077 4541 1
1078 3 1
1078 17 1
1078 552 1
1078 752 1
1078 1561 1
1079 231 1
1079 595 1
1079 876 1
1079 1009 1
1079 2110 1
1080 575 1
1080 1000 1
1080 1024 1
1080 1057 1
1080 1545 1
1080 2454 1
1080 2511 1
1080 2668 1
1080 2913 1
1080 3504 1
1080 3625 1
1080 4200 1
1080 4663 1
1081 288 1
1081 497 1
1081 966 1
1081 969 1
1081 1288 1
1081 3643 1
1082 6 1
1082 14 1
1082 18 1
1082 326 1
1082 1369 1
1082 1508 1
1082 2171 1
1082 3104 1
1082 4573 1
1083 15 1
1083 210 1
1083 457 1
1083 625 1
1083 2906 1
1083 3105 1
1083 3844 1
1083 4423 1
1084 118 1
1084 180 1
1084 355 1
1084 747 1
1084 2060 1
1084 2356 1
1084 2627 1
1084 3323 1
1084 3451 1
1084 3577 1
1085 157 1
1085 798 1
1085 1011 1
1085 1051 1
1086 6 1
1086 14 1
1086 392 1
1086 779 1
1086 2011 1
1086 2320 1
1086 2710 1
1086 3628 1
1086 3842 1
1086 4910 1
1087 46 1
1087 65 1
1087 99 1
1087 109 1
1087 2193 1
1087 2314 1
1087 2352 1
1087 3901 1
1088 14 1
1088 52 1
1088 436 1
1088 460 1
1088 2342 1
1088 2343 1
1088 3042 1
1089 193 1
1089 219 1
1089 361 1
1089 436 1
1089 1213 1
1089 1798 1
1089 2123 1
1089 2178 1
1089 2241 1
1089 2688 1
1089 2836 1
1089 3486 1
1089 4220 1
1089 4236 1
1090 8 1
1090 267 1
1090 761 1
1090 817 1
1091 189 1
1091 298 1
1091 342 1
1091 435 1
1091 1333 1
1091 1534 1
1091 1575 1
1091 2474 1
1091 3157 1
1091 3340 1
1091 4079 1
1092 1 1
1092 141 1
1092 386 1
1092 681 1
1092 1471 1
1092 1598 1
1092 3621 1
1093 268 1
1093 273 1
1093 478 1
1093 683 1
1093 2691 1
1093 3838 1
1093 4054 1
1094 183 1
1094 399 1
1094 577 1
1094 602 1
1094 1410 1
1094 2852 1
1094 3453 1
1094 4220 1
1094 4691 1
1095 17 1
1095 217 1
1095 583 1
1095 739 1
1095 1416 1
1095 1705 1
1095 3818 1
1095 4594 1
1095 4781 1
1096 6 1
1096 174 1
1096 872 1
1096 970 1
1096 1464 1
1096 1737 1
1096 1844 1
1096 2814 1
1096 4558 1
1097 3 1
1097 217 1
1097 284 1
1097 297 1
1097 1858 1
1097 3088 1
1097 3587 1
1097 3644 1
1097 3697 1
1097 4855 1
1098 3 1
1098 13 1
1098 76 1
1098 474 1
1098 1538 1
1098 2871 1
1098 4570 1
1099 21 1
1099 319 1
1099 692 1
1099 926 1
1099 1886 1
1099 3328 1
1100 400 1
1100 702 1
1100 950 1
1100 1011 1
1100 2047 1
1100 3373 1
1100 3941 1
1100 4071 1
1100 4394 1
1100 4975 1
1101 3 1
1101 349 1
1101 390 1
1101 435 1
1101 1374 1
1102 11 1
1102 144 1
1102 209 1
1102 796 1
1102 1136 1
1102 1855 1
1102 4340 1
1102 4424 1
1103 330 1
1103 440 1
1103 725 1
1103 808 1
1103 2657 1
1103 4376 1
1103 4452 1
1104 12 1
1104 63 1
1104 145 1
1104 146 1
1105 374 1
1105 688 1
1105 892 1
1105 924 1
1105 1408 1
1105 1453 1
1105 2336 1
1105 2629 1
1105 2928 1
1105 2998 1
1105 3516 1
1105 3761 1
1105 4108 1
1106 3 1
1106 29 1
1106 247 1
1106 465 1
1106 1224 1
1106 1529 1
1106 3003 1
1106 3223 1
1106 3700 1
1107 61 1
1107 331 1
1107 736 1
1107 744 1
1107 1621 1
1107 3394 1
1107 4020 1
1108 34 1
1108 760 1
1108 813 1
1108 857 1
1108 1990 1
1108 2095 1
1108 2598 1
1108 3570 1
1108 4276 1
1109 81 1
1109 106 1
1109 281 1
1109 738 1
1109 1651 1
1109 2130 1
1109 3900 1
1109 4670 1
1109 4696 1
1109 4879 1
1110 1 1
1110 17 1
1110 153 1
1110 423 1
1110 2075 1
1110 2093 1
1110 4123 1
1111 20 1
1111 421 1
1111 433 1
1111 997 1
1111 1770 1
1111 1942 1
1111 2607 1
1111 3451 1
1111 3645 1
1112 119 1
1112 183 1
1112 218 1
1112 1033 1
1112 1589 1
1113 2 1
1113 8 1
1113 105 1
1113 611 1
1113 1592 1
1113 1689 1
1113 2716 1
1113 4603 1
1113 4643 1
1114 6 1
1114 225 1
1114 341 1
1114 1041 1
1114 1314 1
1114 1790 1
1114 2001 1
1114 2169 1
1114 2547 1
1114 3580 1
1114 3626 1
1114 3849 1
1114 3971 1
1114 4181 1
1115 111 1
1115 222 1
1115 344 1
1115 851 1
1115 1274 1
1115 1363 1
1115 1522 1
1115 1855 1
1115 2126 1
1115 2675 1
1115 3073 1
1115 3165 1
1115 3247 1
1115 3401 1
1115 3674 1
1115 3708 1
1115 4036 1
1115 4472 1
1115 4530 1
1115 4666 1
1115 4688 1
1115 4984 1
1116 28 1
1116 69 1
1116 569 1
1116 1040 1
1116 2315 1
1116 2459 1
1116 2787 1
1116 3165 1
1116 3378 1
1116 3898 1
1116 4602 1
1117 1 1
1117 23 1
1117 421 1
1117 932 1
1117 1500 1
1117 1643 1
1117 1685 1
1117 2860 1
1117 3206 1
1118 195 1
1118 372 1
1118 535 1
1118 552 1
1118 1627 1
1118 2442 1
1118 2977 1
1118 3034 1
1119 134 1
1119 594 1
1119 784 1
1119 864 1
1119 1159 1
1119 1475 1
1119 2771 1
1119 3380 1
1120 23 1
1120 101 1
1120 116 1
1120 326 1
1120 1518 1
1120 2301 1
1120 2437 1
1120 3785 1
1120 3880 1
1120 4303 1
1120 4333 1
1121 29 1
1121 88 1
1121 609 1
1121 1020 1
1121 4942 1
1122 11 1
1122 145 1
1122 273 1
1122 1002 1
1122 4571 1
1122 4577 1
1122 4860 1
1123 92 1
1123 445 1
1123 1014 1
1123 1052 1
1123 2714 1
1123 3690 1
1124 31 1
1124 292 1
1124 299 1
1124 1068 1
1124 1655 1
1125 8 1
1125 82 1
1125 563 1
1125 1007 1
1125 1237 1
1125 1389 1
1125 1727 1
1125 2339 1
1125 2947 1
1125 4247 1
1125 4571 1
1125 4797 1
1126 123 1
1126 161 1
1126 266 1
1126 507 1
1126 2043 1
1126 2438 1
1126 4187 1
1126 4509 1
1127 61 1
1127 183 1
1127 384 1
1127 895 1
1127 1779 1
1127 1985 1
1127 4361 1
1128 58 1
1128 169 1
1128 503 1
1128 985 1
1128 1261 1
1128 1296 1
1128 1792 1
1128 1939 1
1128 2403 1
1128 4826 1
1129 52 1
1129 56 1
1129 60 1
1129 437 1
1129 1720 1
1129 1791 1
1129 2372 1
1129 4256 1
1130 1 1
1130 63 1
1130 377 1
1130 713 1
1130 1335 1
1130 1411 1
1130 1523 1
1130 2036 1
1130 2563 1
1130 4387 1
1131 126 1
1131 290 1
1131 590 1
1131 975 1
1131 1362 1
1131 1382 1
1131 1545 1
1131 1849 1
1131 1949 1
1131 1984 1
1131 2218 1
1131 3528 1
1131 3599 1
1131 4003 1
1131 4319 1
1132 46 1
1132 157 1
1132 705 1
1132 1040 1
1132 2665 1
1132 3572 1
1132 3698 1
1132 4369 1
1133 6 1
1133 9 1
1133 155 1
1133 705 1
1133 2149 1
1133 2385 1
1134 1 1
1134 471 1
1134 967 1
1134 1011 1
1134 1361 1
1134 3137 1
1135 8 1
1135 26 1
1135 48 1
1135 291 1
1135 1394 1
1135 2313 1
1135 4917 1
1135 4972 1
1136 66 1
1136 464 1
1136 533 1
1136 1102 1
1136 2626 1
1137 2 1
1137 55 1
1137 321 1
1137 456 1
1137 1601 1
1137 2232 1
1137 2311 1
1137 2900 1
1138 583 1
1138 609 1
1138 773 1
1138 953 1
1139 55 1
1139 304 1
1139 617 1
1139 861 1
1139 2387 1
1139 2401 1
1139 4181 1
1140 5 1
1140 151 1
1140 299 1
1140 308 1
1140 1521 1
1141 7 1
1141 46 1
1141 465 1
1141 858 1
1141 2166 1
1141 3045 1
1141 3508 1
1142 6 1
1142 464 1
1142 676 1
1142 853 1
1142 1457 1
1142 1533 1
1142 1760 1
1142 2030 1
1142 3762 1
1142 4354 1
1142 4820 1
1143 23 1
1143 123 1
1143 195 1
1143 450 1
1143 2988 1
1143 3793 1
1143 4055 1
1143 4886 1
1144 23 1
1144 205 1
1144 292 1
1144 953 1
1144 1191 1
1144 1338 1
1144 2966 1
1144 3545 1
1144 4801 1
1145 85 1
1145 412 1
1145 680 1
1145 830 1
1145 2751 1
1145 3313 1
1145 4597 1
1146 31 1
1146 61 1
1146 552 1
1146 666 1
1147 74 1
1147 316 1
1147 507 1
1147 1031 1
1147 3858 1
1148 8 1
1148 130 1
1148 212 1
1148 574 1
1148 1208 1
1148 1336 1
1148 1883 1
1148 2736 1
1148 2834 1
1148 3704 1
1148 4918 1
1149 85 1
1149 91 1
1149 209 1
1149 280 1
1149 4707 1
1150 20 1
1150 145 1
1150 157 1
1150 1056 1
1150 1649 1
1150 1842 1
1150 2169 1
1150 3053 1
1150 3858 1
1151 1 1
1151 31 1
1151 338 1
1151 371 1
1151 3363 1
1151 4796 1
1152 1 1
1152 460 1
1152 518 1
1152 971 1
1152 2388 1
1152 2472 1
1153 194 1
1153 323 1
1153 476 1
1153 785 1
1153 3751 1
1154 58 1
1154 296 1
1154 355 1
1154 734 1
1154 1355 1
1154 1434 1
1155 81 1
1155 247 1
1155 759 1
1155 773 1
1155 1317 1
1155 1520 1
1155 1630 1
1155 2740 1
1155 2786 1
1155 4106 1
1156 97 1
1156 176 1
1156 480 1
1156 864 1
1156 1542 1
1156 4505 1
1157 30 1
1157 43 1
1157 204 1
1157 708 1
1158 5 1
1158 99 1
1158 335 1
1158 990 1
1158 1825 1
1158 3542 1
1158 3855 1
1158 3873 1
1158 4036 1
1158 4628 1
1159 3 1
1159 31 1
1159 227 1
1159 1119 1
1160 49 1
1160 180 1
1160 603 1
1160 743 1
1160 1315 1
1160 1688 1
1160 2799 1
1160 3763 1
1160 4675 1
1160 4696 1
1161 28 1
1161 96 1
1161 291 1
1161 1059 1
1162 239 1
1162 335 1
1162 340 1
1162 720 1
1162 1896 1
1162 4483 1
1163 33 1
1163 202 1
1163 872 1
1163 935 1
1163 1343 1
1163 1903 1
1164 351 1
1164 410 1
1164 503 1
1164 760 1
1164 1284 1
1164 1587 1
1164 1763 1
1164 3892 1
1164 4233 1
1165 1 1
1165 147 1
1165 315 1
1165 572 1
1166 25 1
1166 66 1
1166 74 1
1166 218 1
1166 3960 1
1166 4423 1
1167 289 1
1167 805 1
1167 923 1
1167 932 1
1167 1566 1
1167 1811 1
1167 2024 1
1167 2102 1
1167 2626 1
1167 3074 1
1167 3077 1
1167 3235 1
1168 31 1
1168 210 1
1168 505 1
1168 506 1
1168 2670 1
1168 3583 1
1168 4601 1
1169 6 1
1169 17 1
1169 246 1
1169 506 1
1169 1806 1
1169 2050 1
1169 2344 1
1169 3307 1
1169 3349 1
1169 3356 1
1169 3679 1
1169 3731 1
1169 3827 1
1169 3840 1
1169 4176 1
1169 4901 1
1170 23 1
1170 331 1
1170 395 1
1170 584 1
1170 3957 1
1171 36 1
1171 141 1
1171 180 1
1171 790 1
1171 1318 1
1172 43 1
1172 293 1
1172 338 1
1172 750 1
1172 1559 1
1172 3188 1
1172 4027 1
1173 46 1
1173 206 1
1173 622 1
1173 625 1
1174 333 1
1174 428 1
1174 588 1
1174 729 1
1174 1525 1
1174 2150 1
1174 4785 1
1175 142 1
1175 425 1
1175 697 1
1175 864 1
1175 1762 1
1176 217 1
1176 400 1
1176 491 1
1176 1048 1
1176 1999 1
1176 2636 1
1176 3198 1
1176 4860 1
1177 7 1
1177 58 1
1177 339 1
1177 658 1
1177 1817 1
1177 2153 1
1177 2499 1
1177 4032 1
1177 4379 1
1178 36 1
1178 827 1
1178 886 1
1178 966 1
1178 1663 1
1178 1700 1
1178 3063 1
1179 113 1
1179 298 1
1179 447 1
1179 478 1
1179 1432 1
1179 1585 1
1179 1856 1
1179 2179 1
1179 3135 1
1180 174 1
1180 189 1
1180 604 1
1180 666 1
1180 1279 1
1180 1465 1
1180 1777 1
1180 2081 1
1180 2687 1
1180 3139 1
1180 4172 1
1180 4242 1
1180 4920 1
1181 56 1
1181 73 1
1181 683 1
1181 1003 1
1181 1865 1
1181 2803 1
1181 3683 1
1181 4944 1
1182 93 1
1182 129 1
1182 270 1
1182 1061 1
1182 1807 1
1182 2094 1
1182 2811 1
1182 4031 1
1183 6 1
1183 217 1
1183 742 1
1183 955 1
1183 2861 1
1184 53 1
1184 619 1
1184 682 1
1184 787 1
1185 1 1
1185 145 1
1185 468 1
1185 721 1
1185 1412 1
1185 3683 1
1185 4301 1
1185 4975 1
1186 74 1
1186 313 1
1186 535 1
1186 547 1
1186 1248 1
1186 1815 1
1186 2342 1
1186 3273 1
1186 3485 1
1186 3868 1
1186 4523 1
1187 105 1
1187 123 1
1187 466 1
1187 860 1
1187 1417 1
1187 1519 1
1187 4144 1
1188 373 1
1188 588 1
1188 794 1
1188 799 1
1188 1591 1
1188 1650 1
1188 1954 1
1188 2011 1
1188 2012 1
1188 2114 1
1188 4843 1
1189 38 1
1189 123 1
1189 171 1
1189 1049 1
1189 1448 1
1189 2300 1
1189 2895 1
1189 3092 1
1189 4422 1
1190 13 1
1190 54 1
1190 546 1
1190 933 1
1190 4796 1
1191 7 1
1191 679 1
1191 1027 1
1191 1144 1
1191 1400 1
1191 1782 1
1191 1857 1
1191 3306 1
1191 3724 1
1191 3895 1
1192 41 1
1192 106 1
1192 108 1
1192 1009 1
1192 1220 1
1192 1491 1
1192 2095 1
1192 2273 1
1192 2300 1
1192 2576 1
1192 3001 1
1192 3700 1
1192 4026 1
1193 85 1
1193 261 1
1193 672 1
1193 778 1
1193 1903 1
1193 1987 1
1193 2853 1
1193 3106 1
1194 45 1
1194 274 1
1194 420 1
1194 1013 1
1194 4014 1
1195 91 1
1195 189 1
1195 216 1
1195 226 1
1195 1205 1
1195 2006 1
1195 2014 1
1195 2320 1
1195 2781 1
1195 2862 1
1195 3593 1
1195 4204 1
1195 4945 1
1196 84 1
1196 247 1
1196 260 1
1196 669 1
1196 3475 1
1197 18 1
1197 104 1
1197 224 1
1197 320 1
1197 1398 1
1197 1402 1
1197 2172 1
1197 2517 1
1197 2518 1
1197 2849 1
1197 2993 1
1197 3244 1
1197 3466 1
1197 3899 1
1198 1 1
1198 33 1
1198 45 1
1198 896 1
1198 1414 1
1198 1728 1
1198 2573 1
1198 4438 1
1198 4725 1
1198 4995 1
1199 6 1
1199 83 1
1199 428 1
1199 1065 1
1200 145 1
1200 501 1
1200 542 1
1200 1069 1
1200 1455 1
1200 2220 1
1200 2599 1
1200 3965 1
1200 4305 1
1201 31 1
1201 416 1
1201 527 1
1201 614 1
1201 4903 1
1202 149 1
1202 244 1
1202 617 1
1202 951 1
1202 1256 1
1202 1456 1
1202 1880 1
1202 1924 1
1202 2385 1
1202 2723 1
1202 3369 1
1202 3499 1
1202 3681 1
1202 4066 1
1202 4960 1
1202 5000 1
1203 160 1
1203 225 1
1203 354 1
1203 965 1
1203 2233 1
1203 2302 1
1203 2310 1
1203 2736 1
1203 3375 1
1203 3448 1
1203 3762 1
1203 4396 1
1204 38 1
1204 239 1
1204 714 1
1204 886 1
1204 1610 1
1204 1751 1
1204 2742 1
1204 2800 1
1204 3309 1
1204 3923 1
1204 4773 1
1204 4880 1
1205 23 1
1205 114 1
1205 460 1
1205 1195 1
1205 1812 1
1205 3914 1
1206 1 1
1206 318 1
1206 525 1
1206 615 1
1206 1419 1
1206 2611 1
1206 3549 1
1206 3567 1
1206 3913 1
1207 1 1
1207 327 1
1207 435 1
1207 503 1
1207 1259 1
1207 1373 1
1207 1396 1
1207 1939 1
1207 2268 1
1207 2332 1
1207 3610 1
1207 3763 1
1207 3864 1
1207 4001 1
1208 278 1
1208 612 1
1208 966 1
1208 1148 1
1208 2297 1
1208 3850 1
1208 3865 1
1209 1 1
1209 149 1
1209 333 1
1209 523 1
1209 1534 1
1209 2309 1
1209 4397 1
1209 4790 1
1210 56 1
1210 123 1
1210 504 1
1210 587 1
1210 1653 1
1210 2485 1
1210 2931 1
1211 132 1
1211 672 1
1211 745 1
1211 833 1
1211 1652 1
1211 3353 1
1212 198 1
1212 335 1
1212 336 1
1212 736 1
1212 2515 1
1212 2769 1
1212 3136 1
1213 213 1
1213 450 1
1213 1062 1
1213 1089 1
1213 1223 1
1213 2294 1
1213 4470 1
1213 4732 1
1214 205 1
1214 235 1
1214 463 1
1214 491 1
1214 1329 1
1214 1802 1
1214 2324 1
1214 2512 1
1214 2573 1
1214 2603 1
1214 4399 1
1214 4638 1
1215 7 1
1215 115 1
1215 292 1
1215 775 1
1215 1480 1
1215 3098 1
1215 4845 1
1216 5 1
1216 6 1
1216 387 1
1216 725 1
1216 1799 1
1216 1862 1
1216 1934 1
1216 2058 1
1216 2663 1
1216 2933 1
1216 3776 1
1216 4524 1
1217 125 1
1217 207 1
1217 356 1
1217 737 1
1217 3334 1
1217 4210 1
1217 4818 1
1218 137 1
1218 410 1
1218 503 1
1218 665 1
1218 1960 1
1218 2785 1
1218 3204 1
1218 4754 1
1219 6 1
1219 8 1
1219 25 1
1219 701 1
1219 2699 1
1219 2949 1
1219 2984 1
1219 4575 1
1219 4763 1
1220 10 1
1220 40 1
1220 226 1
1220 1192 1
1220 1360 1
1221 10 1
1221 27 1
1221 120 1
1221 951 1
1221 1787 1
1221 1852 1
1221 2082 1
1221 2893 1
1221 4030 1
1221 4453 1
1221 4930 1
1222 5 1
1222 64 1
1222 131 1
1222 801 1
1222 2045 1
1223 6 1
1223 85 1
1223 270 1
1223 1213 1
1223 1822 1
1223 2227 1
1223 3867 1
1223 4798 1
1224 30 1
1224 38 1
1224 109 1
1224 1106 1
1224 1437 1
1224 1703 1
1224 1800 1
1224 3095 1
1224 4711 1
1225 77 1
1225 184 1
1225 471 1
1225 978 1
1225 1328 1
1225 1516 1
1225 2088 1
1225 2096 1
1225 2172 1
1225 2304 1
1225 2594 1
1225 3598 1
1225 3691 1
1225 3998 1
1226 11 1
1226 40 1
1226 61 1
1226 781 1
1226 1442 1
1226 3096 1
1226 3277 1
1227 58 1
1227 222 1
1227 372 1
1227 702 1
1227 2358 1
1227 3478 1
1227 3782 1
1228 12 1
1228 23 1
1228 28 1
1228 474 1
1228 1832 1
1228 2041 1
1228 2542 1
1228 2584 1
1228 2639 1
1228 2709 1
1228 3314 1
1228 4225 1
1228 4343 1
1229 76 1
1229 262 1
1229 419 1
1229 1012 1
1229 1301 1
1229 1789 1
1229 2719 1
1229 3503 1
1229 3701 1
1229 4912 1
1230 1 1
1230 96 1
1230 807 1
1230 939 1
1230 1603 1
1230 2060 1
1230 2157 1
1230 2185 1
1230 3385 1
1230 4842 1
1231 39 1
1231 265 1
1231 316 1
1231 509 1
1231 1347 1
1231 1555 1
1231 1829 1
1231 1908 1
1231 3530 1
1231 4038 1
1231 4334 1
1231 4465 1
1231 4647 1
1232 3 1
1232 75 1
1232 289 1
1232 684 1
1232 1272 1
1232 1309 1
1232 2180 1
1232 2430 1
1232 3055 1
1232 3291 1
1232 3661 1
1232 4875 1
1233 9 1
1233 10 1
1233 11 1
1233 27 1
1233 1291 1
1233 2045 1
1233 4122 1
1233 4907 1
1234 27 1
1234 34 1
1234 360 1
1234 755 1
1234 1431 1
1234 1453 1
1234 1616 1
1234 1636 1
1234 1755 1
1234 2025 1
1234 3128 1
1234 4375 1
1234 4640 1
1234 4748 1
1235 110 1
1235 117 1
1235 135 1
1235 575 1
1235 1712 1
1235 1977 1
1235 2333 1
1235 2485 1
1235 2746 1
1235 4683 1
1235 4751 1
1235 4752 1
1236 296 1
1236 431 1
1236 612 1
1236 1020 1
1236 1287 1
1236 3396 1
1237 106 1
1237 182 1
1237 211 1
1237 1125 1
1237 2498 1
1237 2981 1
1237 4366 1
1238 36 1
1238 231 1
1238 473 1
1238 754 1
1238 4150 1
1239 244 1
1239 399 1
1239 420 1
1239 706 1
1239 1469 1
1239 2271 1
1239 2328 1
1239 2617 1
1239 3919 1
1239 4806 1
1240 161 1
1240 262 1
1240 644 1
1240 678 1
1240 1499 1
1240 2073 1
1240 2731 1
1240 2954 1
1240 3028 1
1240 3568 1
1240 4139 1
1240 4224 1
1240 4572 1
1240 4704 1
1241 350 1
1241 421 1
1241 438 1
1241 681 1
1241 2330 1
1241 2747 1
1241 2830 1
1241 3709 1
1241 3725 1
1241 3814 1
1241 4240 1
1242 6 1
1242 30 1
1242 91 1
1242 172 1
1242 2129 1
1242 4299 1
1242 4331 1
1242 4544 1
1242 4916 1
1243 1 1
1243 56 1
1243 492 1
1243 560 1
1243 1502 1
1243 1546 1
1243 2358 1
1243 3279 1
1243 3534 1
1243 4100 1
1243 4666 1
1244 41 1
1244 117 1
1244 472 1
1244 837 1
1245 11 1
1245 40 1
1245 226 1
1245 495 1
1246 419 1
1246 514 1
1246 684 1
1246 878 1
1246 3169 1
1247 1 1
1247 36 1
1247 547 1
1247 1033 1
1247 1449 1
1247 1848 1
1247 3439 1
1248 184 1
1248 307 1
1248 318 1
1248 1186 1
1248 1642 1
1248 1861 1
1248 2979 1
1248 3914 1
1249 22 1
1249 158 1
1249 650 1
1249 953 1
1249 2627 1
1249 4310 1
1249 4684 1
1250 65 1
1250 113 1
1250 353 1
1250 611 1
1250 1408 1
1250 3155 1
1251 11 1
1251 72 1
1251 419 1
1251 1047 1
1251 1902 1
1251 2371 1
1251 3142 1
1252 302 1
1252 364 1
1252 479 1
1252 697 1
1252 1290 1
1252 1876 1
1252 2191 1
1252 2351 1
1252 3093 1
1252 3958 1
1252 4483 1
1252 4979 1
1253 47 1
1253 88 1
1253 476 1
1253 671 1
1253 2608 1
1253 4179 1
1253 4672 1
1253 4974 1
1254 115 1
1254 172 1
1254 494 1
1254 507 1
1254 1541 1
1254 4238 1
1255 2 1
1255 294 1
1255 658 1
1255 993 1
1255 1325 1
1255 2291 1
1255 3027 1
1256 18 1
1256 170 1
1256 552 1
1256 1202 1
1256 1967 1
1256 2273 1
1256 2390 1
1257 20 1
1257 133 1
1257 341 1
1257 489 1
1257 2524 1
1258 11 1
1258 102 1
1258 439 1
1258 701 1
1258 2489 1
1258 3316 1
1258 3489 1
1259 107 1
1259 138 1
1259 457 1
1259 1207 1
1259 1372 1
1259 1421 1
1259 2901 1
1259 4110 1
1259 4536 1
1260 7 1
1260 53 1
1260 904 1
1260 1061 1
1260 2166 1
1260 2311 1
1260 3463 1
1260 3465 1
1260 3709 1
1260 4393 1
1260 4398 1
1260 4868 1
1261 70 1
1261 131 1
1261 629 1
1261 1128 1
1261 1981 1
1261 2000 1
1261 2272 1
1261 2277 1
1261 3183 1
1261 4560 1
1261 4642 1
1262 1 1
1262 91 1
1262 464 1
1262 776 1
1262 1269 1
1262 1549 1
1262 2858 1
1263 36 1
1263 78 1
1263 81 1
1263 425 1
1263 2002 1
1264 3 1
1264 36 1
1264 96 1
1264 466 1
1264 1270 1
1264 1647 1
1264 2097 1
1264 2173 1
1264 2824 1
1264 2924 1
1264 3798 1
1264 4265 1
1265 29 1
1265 51 1
1265 56 1
1265 873 1
1265 1267 1
1265 1580 1
1265 1931 1
1265 2176 1
1265 2296 1
1265 3858 1
1265 4087 1
1266 300 1
1266 465 1
1266 645 1
1266 968 1
1266 1775 1
1266 1921 1
1267 18 1
1267 331 1
1267 567 1
1267 1265 1
1267 1679 1
1267 2713 1
1267 4110 1
1268 18 1
1268 152 1
1268 249 1
1268 422 1
1268 1483 1
1269 56 1
1269 683 1
1269 1022 1
1269 1262 1
1270 117 1
1270 209 1
1270 729 1
1270 1264 1
1271 6 1
1271 101 1
1271 106 1
1271 749 1
1271 2109 1
1271 2140 1
1271 2829 1
1271 3157 1
1272 38 1
1272 327 1
1272 890 1
1272 1232 1
1272 1783 1
1272 1901 1
1272 3187 1
1272 3312 1
1273 30 1
1273 107 1
1273 154 1
1273 172 1
1273 1277 1
1273 1725 1
1273 1780 1
1273 1908 1
1273 2163 1
1273 2548 1
1273 2590 1
1273 2832 1
1273 3044 1
1273 3183 1
1273 3469 1
1273 3664 1
1273 3787 1
1273 4222 1
1273 4389 1
1273 4432 1
1274 506 1
1274 523 1
1274 527 1
1274 1115 1
1274 1869 1
1274 1943 1
1274 2120 1
1274 2328 1
1274 3040 1
1274 3821 1
1274 4362 1
1275 58 1
1275 153 1
1275 354 1
1275 423 1
1275 1765 1
1275 2440 1
1275 2688 1
1275 4758 1
1276 14 1
1276 43 1
1276 524 1
1276 787 1
1276 3101 1
1276 4075 1
1276 4415 1
1276 4914 1
1277 302 1
1277 452 1
1277 785 1
1277 1273 1
1277 1579 1
1277 2375 1
1277 3379 1
1277 4372 1
1278 23 1
1278 145 1
1278 216 1
1278 702 1
1278 1313 1
1278 4273 1
1279 76 1
1279 110 1
1279 175 1
1279 1180 1
1279 1573 1
1279 1965 1
1279 3496 1
1280 22 1
1280 298 1
1280 439 1
1280 588 1
1280 2078 1
1280 3595 1
1280 4893 1
1281 3 1
1281 132 1
1281 408 1
1281 434 1
1281 1445 1
1281 3033 1
1281 4995 1
1282 23 1
1282 40 1
1282 199 1
1282 665 1
1282 3769 1
1283 193 1
1283 383 1
1283 717 1
1283 917 1
1283 2702 1
1283 2987 1
1284 18 1
1284 337 1
1284 594 1
1284 1164 1
1284 2602 1
1285 30 1
1285 74 1
1285 82 1
1285 864 1
1285 1295 1
1285 1801 1
1285 4925 1
1286 351 1
1286 569 1
1286 853 1
1286 982 1
1286 2213 1
1287 95 1
1287 530 1
1287 763 1
1287 1236 1
1287 1739 1
1287 2648 1
1287 4134 1
1287 4584 1
1287 4690 1
1288 1 1
1288 74 1
1288 158 1
1288 1081 1
1288 1634 1
1288 2469 1
1288 3613 1
1288 4837 1
1289 2 1
1289 3 1
1289 238 1
1289 914 1
1289 1555 1
1289 3072 1
1290 43 1
1290 227 1
1290 465 1
1290 1252 1
1290 1384 1
1290 1661 1
1290 3043 1
1290 3725 1
1290 4717 1
1291 180 1
1291 838 1
1291 882 1
1291 1233 1
1291 1378 1
1291 1493 1
1291 1805 1
1291 2439 1
1291 2637 1
1291 2888 1
1291 4020 1
1291 4145 1
1291 4619 1
1291 4873 1
1292 6 1
1292 27 1
1292 199 1
1292 994 1
1292 2049 1
1292 2298 1
1292 3250 1
1292 3760 1
1292 4327 1
1292 4545 1
1293 88 1
1293 175 1
1293 249 1
1293 761 1
1293 1717 1
1293 2015 1
1293 2655 1
1293 2660 1
1293 3463 1
1293 3591 1
1294 19 1
1294 24 1
1294 797 1
1294 862 1
1294 2894 1
1294 3224 1
1294 3935 1
1294 4123 1
1294 4169 1
1294 4668 1
1295 183 1
1295 550 1
1295 633 1
1295 1285 1
1295 2508 1
1295 2535 1
1296 240 1
1296 425 1
1296 640 1
1296 1128 1
1296 2019 1
1296 2041 1
1296 3465 1
1297 14 1
1297 103 1
1297 237 1
1297 253 1
1297 1836 1
1297 2321 1
1297 2819 1
1297 3058 1
1298 60 1
1298 221 1
1298 393 1
1298 586 1
1298 1348 1
1298 1463 1
1298 1630 1
1298 1757 1
1299 65 1
1299 133 1
1299 414 1
1299 1076 1
1299 2414 1
1299 4050 1
1299 4261 1
1300 113 1
1300 759 1
1300 871 1
1300 893 1
1300 1792 1
1300 1839 1
1300 3205 1
1301 10 1
1301 120 1
1301 786 1
1301 1229 1
1301 1359 1
1301 1373 1
1301 1766 1
1301 2193 1
1301 2224 1
1301 2298 1
1301 2353 1
1301 2404 1
1301 2437 1
1301 2510 1
1301 3127 1
1301 4154 1
1301 4615 1
1301 4700 1
1301 4835 1
1302 54 1
1302 58 1
1302 157 1
1302 919 1
1302 2003 1
1303 14 1
1303 147 1
1303 399 1
1303 727 1
1303 1381 1
1303 1745 1
1303 3519 1
1303 4981 1
1304 2 1
1304 157 1
1304 185 1
1304 462 1
1304 1347 1
1304 3126 1
1304 4485 1
1304 4771 1
1304 4839 1
1305 7 1
1305 415 1
1305 783 1
1305 1037 1
1305 1515 1
1305 2405 1
1305 3507 1
1305 3570 1
1305 4553 1
1306 38 1
1306 431 1
1306 592 1
1306 829 1
1306 1787 1
1306 3223 1
1307 471 1
1307 512 1
1307 514 1
1307 515 1
1308 55 1
1308 239 1
1308 696 1
1308 915 1
1308 1600 1
1308 2196 1
1308 3167 1
1308 3572 1
1308 3632 1
1308 4020 1
1308 4137 1
1308 4232 1
1308 4759 1
1309 14 1
1309 51 1
1309 337 1
1309 1232 1
1309 1504 1
1309 1534 1
1309 2018 1
1309 2987 1
1309 2992 1
1309 4489 1
1309 4973 1
1310 58 1
1310 343 1
1310 470 1
1310 594 1
1310 1674 1
1310 1848 1
1310 4784 1
1311 154 1
1311 349 1
1311 440 1
1311 1015 1
1311 2586 1
1311 4619 1
1312 1 1
1312 74 1
1312 194 1
1312 213 1
1312 1938 1
1312 2102 1
1312 2744 1
1312 2792 1
1312 4307 1
1313 36 1
1313 78 1
1313 668 1
1313 1278 1
1313 4961 1
1314 248 1
1314 337 1
1314 696 1
1314 1114 1
1314 4169 1
1315 528 1
1315 614 1
1315 684 1
1315 1160 1
1315 2292 1
1315 2407 1
1315 2644 1
1315 2868 1
1315 3348 1
1315 3541 1
1315 4270 1
1316 28 1
1316 56 1
1316 185 1
1316 294 1
1316 2292 1
1316 3962 1
1316 4505 1
1316 4969 1
1317 31 1
1317 46 1
1317 117 1
1317 1155 1
1317 2141 1
1317 2465 1
1317 2698 1
1317 2938 1
1317 3963 1
1317 3977 1
1318 23 1
1318 236 1
1318 376 1
1318 1171 1
1318 1706 1
1318 2754 1
1318 3198 1
1318 4221 1
1319 36 1
1319 157 1
1319 356 1
1319 865 1
1319 1771 1
1319 2293 1
1319 2951 1
1319 3106 1
1319 3548 1
1320 457 1
1320 594 1
1320 1025 1
1320 1036 1
1320 4999 1
1321 16 1
1321 20 1
1321 226 1
1321 672 1
1322 24 1
1322 106 1
1322 108 1
1322 178 1
1322 1542 1
1322 2113 1
1322 3079 1
1322 3282 1
1322 3521 1
1322 4504 1
1322 4644 1
1323 1 1
1323 180 1
1323 240 1
1323 809 1
1323 1644 1
1323 1824 1
1323 2308 1
1323 2312 1
1323 2748 1
1323 3079 1
1323 3991 1
1323 4312 1
1323 4525 1
1323 4802 1
1324 8 1
1324 30 1
1324 87 1
1324 467 1
1324 2598 1
1324 2866 1
1324 3454 1
1324 4546 1
1325 31 1
1325 568 1
1325 1058 1
1325 1255 1
1325 1636 1
1325 2568 1
1325 3457 1
1325 4294 1
1326 6 1
1326 14 1
1326 210 1
1326 612 1
1326 1345 1
1326 1355 1
1326 1687 1
1327 114 1
1327 329 1
1327 714 1
1327 910 1
1327 1844 1
1327 1993 1
1327 3001 1
1328 1 1
1328 182 1
1328 211 1
1328 1225 1
1328 1952 1
1328 2092 1
1328 3785 1
1328 4177 1
1329 1 1
1329 3 1
1329 380 1
1329 1214 1
1329 2217 1
1329 4460 1
1330 58 1
1330 350 1
1330 385 1
1330 771 1
1330 1927 1
1330 4962 1
1331 64 1
1331 66 1
1331 210 1
1331 917 1
1331 1481 1
1331 2220 1
1331 2296 1
1331 2515 1
1332 258 1
1332 331 1
1332 713 1
1332 1000 1
1332 2242 1
1332 3228 1
1332 4355 1
1333 98 1
1333 219 1
1333 371 1
1333 1091 1
1333 2931 1
1333 4069 1
1334 28 1
1334 51 1
1334 67 1
1334 500 1
1334 2837 1
1334 3774 1
1334 3945 1
1334 3990 1
1334 4163 1
1334 4401 1
1334 4402 1
1335 31 1
1335 36 1
1335 600 1
1335 1130 1
1336 11 1
1336 16 1
1336 25 1
1336 1148 1
1336 1567 1
1336 1571 1
1336 3004 1
1336 3111 1
1337 22 1
1337 48 1
1337 360 1
1337 621 1
1337 3261 1
1337 3730 1
1338 56 1
1338 72 1
1338 592 1
1338 1144 1
1338 2280 1
1338 2358 1
1338 2646 1
1338 3031 1
1339 69 1
1339 100 1
1339 202 1
1339 502 1
1339 2267 1
1339 2581 1
1339 2723 1
1339 2767 1
1339 3664 1
1339 3965 1
1339 4007 1
1339 4321 1
1339 4409 1
1339 4480 1
1340 171 1
1340 206 1
1340 543 1
1340 734 1
1340 1472 1
1340 2745 1
1340 3186 1
1341 72 1
1341 291 1
1341 498 1
1341 707 1
1341 1789 1
1341 2274 1
1341 2539 1
1341 2877 1
1341 3875 1
1341 4833 1
1342 38 1
1342 760 1
1342 977 1
1342 1021 1
1342 1577 1
1342 1585 1
1342 1930 1
1342 2436 1
1342 3132 1
1342 3265 1
1342 3481 1
1342 3713 1
1342 3737 1
1342 4079 1
1342 4639 1
1343 5 1
1343 76 1
1343 205 1
1343 1163 1
1343 3578 1
1343 4921 1
1344 65 1
1344 152 1
1344 519 1
1344 642 1
1344 1464 1
1344 1822 1
1344 1921 1
1344 2393 1
1344 2992 1
1344 4786 1
1345 124 1
1345 413 1
1345 838 1
1345 1326 1
1345 2181 1
1345 2444 1
1345 2875 1
1346 5 1
1346 546 1
1346 582 1
1346 852 1
1346 2822 1
1346 3604 1
1346 4301 1
1347 6 1
1347 46 1
1347 1231 1
1347 1304 1
1347 3030 1
1348 3 1
1348 51 1
1348 281 1
1348 1298 1
1348 2374 1
1348 3590 1
1349 39 1
1349 212 1
1349 886 1
1349 1052 1
1349 2701 1
1349 3143 1
1350 99 1
1350 141 1
1350 165 1
1350 968 1
1350 1659 1
1350 2724 1
1350 2770 1
1350 4919 1
1351 29 1
1351 72 1
1351 325 1
1351 817 1
1351 1371 1
1351 1495 1
1351 1583 1
1351 2758 1
1351 3057 1
1351 3676 1
1351 3903 1
1352 123 1
1352 137 1
1352 226 1
1352 507 1
1352 1388 1
1352 4702 1
1353 16 1
1353 34 1
1353 69 1
1353 168 1
1353 1708 1
1354 157 1
1354 761 1
1354 824 1
1354 1061 1
1354 2694 1
1354 3632 1
1354 4570 1
1355 17 1
1355 1072 1
1355 1154 1
1355 1326 1
1355 1478 1
1355 1589 1
1355 1747 1
1355 3080 1
1355 4195 1
1355 4328 1
1356 611 1
1356 652 1
1356 727 1
1356 755 1
1356 1592 1
1356 2252 1
1356 2959 1
1356 3551 1
1356 3832 1
1356 4497 1
1356 4547 1
1357 216 1
1357 253 1
1357 515 1
1357 643 1
1357 2890 1
1357 4351 1
1358 568 1
1358 621 1
1358 798 1
1358 1063 1
1358 1633 1
1358 1694 1
1358 1721 1
1358 2023 1
1358 2267 1
1358 2776 1
1359 160 1
1359 506 1
1359 865 1
1359 1301 1
1359 1855 1
1359 4428 1
1359 4524 1
1359 4800 1
1360 236 1
1360 624 1
1360 1048 1
1360 1220 1
1360 2653 1
1361 1 1
1361 229 1
1361 344 1
1361 1134 1
1361 1569 1
1361 2619 1
1361 2930 1
1361 3845 1
1361 4714 1
1362 637 1
1362 727 1
1362 904 1
1362 1131 1
1362 1447 1
1362 2349 1
1362 3688 1
1362 4609 1
1363 2 1
1363 12 1
1363 245 1
1363 1115 1
1363 2013 1
1363 2644 1
1363 4519 1
1363 4804 1
1364 36 1
1364 346 1
1364 403 1
1364 924 1
1364 1406 1
1364 1718 1
1364 1938 1
1364 2154 1
1364 2579 1
1364 2959 1
1364 2986 1
1364 3245 1
1364 3357 1
1364 3443 1
1364 4219 1
1365 3 1
1365 242 1
1365 488 1
1365 908 1
1365 4341 1
1366 1 1
1366 93 1
1366 522 1
1366 866 1
1366 1500 1
1366 2087 1
1366 3395 1
1367 1 1
1367 8 1
1367 11 1
1367 475 1
1367 1428 1
1367 1696 1
1367 1833 1
1367 1871 1
1367 3542 1
1368 48 1
1368 72 1
1368 330 1
1368 645 1
1368 1823 1
1368 2562 1
1368 4480 1
1368 4499 1
1369 81 1
1369 115 1
1369 465 1
1369 1082 1
1369 1845 1
1370 36 1
1370 72 1
1370 186 1
1370 898 1
1370 1738 1
1370 4911 1
1371 33 1
1371 144 1
1371 815 1
1371 1351 1
1371 1480 1
1371 2373 1
1372 163 1
1372 182 1
1372 303 1
1372 1259 1
1372 1459 1
1372 2410 1
1372 3143 1
1372 3379 1
1372 3763 1
1372 4613 1
1372 4637 1
1373 95 1
1373 318 1
1373 1207 1
1373 1301 1
1373 2317 1
1373 2323 1
1374 171 1
1374 547 1
1374 925 1
1374 1101 1
1374 1859 1
1374 3351 1
1374 4494 1
1375 8 1
1375 36 1
1375 42 1
1375 798 1
1375 2490 1
1375 4345 1
1376 74 1
1376 110 1
1376 760 1
1376 836 1
1376 1618 1
1376 4453 1
1377 115 1
1377 395 1
1377 554 1
1377 585 1
1377 1753 1
1377 2136 1
1377 4180 1
1378 2 1
1378 356 1
1378 842 1
1378 1291 1
1378 2017 1
1378 2139 1
1378 2257 1
1378 4243 1
1378 4358 1
1378 4391 1
1378 4541 1
1378 4840 1
1379 96 1
1379 409 1
1379 517 1
1379 539 1
1379 1465 1
1379 1502 1
1379 1628 1
1379 1956 1
1379 4733 1
1380 36 1
1380 219 1
1380 388 1
1380 425 1
1381 403 1
1381 906 1
1381 1030 1
1381 1303 1
1381 3280 1
1381 3513 1
1382 21 1
1382 121 1
1382 221 1
1382 1131 1
1382 1798 1
1382 3335 1
1383 51 1
1383 98 1
1383 209 1
1383 988 1
1383 2870 1
1383 4882 1
1384 112 1
1384 746 1
1384 787 1
1384 1290 1
1384 2662 1
1384 2729 1
1384 2788 1
1384 2808 1
1384 3057 1
1384 3528 1
1385 36 1
1385 263 1
1385 578 1
1385 966 1
1385 1941 1
1385 2356 1
1385 2726 1
1385 2749 1
1385 4429 1
1386 65 1
1386 211 1
1386 226 1
1386 351 1
1386 1679 1
1386 3002 1
1386 4113 1
1386 4697 1
1387 199 1
1387 239 1
1387 274 1
1387 533 1
1387 1390 1
1387 1629 1
1387 1708 1
1387 2173 1
1387 3139 1
1387 4827 1
1388 422 1
1388 639 1
1388 986 1
1388 1352 1
1388 4952 1
1389 34 1
1389 43 1
1389 217 1
1389 1125 1
1389 2080 1
1389 2127 1
1390 6 1
1390 26 1
1390 227 1
1390 1387 1
1390 3054 1
1390 4793 1
1391 252 1
1391 409 1
1391 801 1
1391 836 1
1391 1655 1
1391 1704 1
1391 2894 1
1391 3298 1
1391 3366 1
1391 3909 1
1391 4051 1
1391 4511 1
1391 4565 1
1392 5 1
1392 131 1
1392 176 1
1392 189 1
1392 1409 1
1392 1723 1
1392 2299 1
1392 2381 1
1392 2942 1
1392 4144 1
1392 4292 1
1393 117 1
1393 420 1
1393 610 1
1393 886 1
1393 1414 1
1393 1681 1
1393 1925 1
1393 2329 1
1393 2359 1
1393 2634 1
1393 2732 1
1393 4468 1
1394 3 1
1394 11 1
1394 94 1
1394 1135 1
1394 1629 1
1394 4208 1
1394 4323 1
1395 36 1
1395 130 1
1395 227 1
1395 603 1
1395 2630 1
1395 3301 1
1395 3375 1
1396 117 1
1396 253 1
1396 531 1
1396 1207 1
1396 1553 1
1396 2934 1
1396 3171 1
1396 3985 1
1396 4064 1
1396 4671 1
1397 29 1
1397 54 1
1397 490 1
1397 684 1
1397 1509 1
1397 3889 1
1397 3921 1
1397 4803 1
1398 9 1
1398 195 1
1398 703 1
1398 1197 1
1398 2877 1
1399 5 1
1399 17 1
1399 637 1
1399 924 1
1399 1452 1
1399 2287 1
1399 2808 1
1399 3114 1
1399 3547 1
1400 170 1
1400 865 1
1400 931 1
1400 1191 1
1400 2461 1
1400 4617 1
1400 4948 1
1401 1 1
1401 108 1
1401 187 1
1401 962 1
1401 1581 1
1401 3408 1
1401 3637 1
1401 4280 1
1402 71 1
1402 124 1
1402 527 1
1402 1197 1
1402 2470 1
1402 2498 1
1402 2515 1
1402 4190 1
1403 56 1
1403 385 1
1403 746 1
1403 837 1
1403 1783 1
1403 2541 1
1403 2627 1
1403 4310 1
1403 4420 1
1403 4522 1
1403 4579 1
1403 4996 1
1404 6 1
1404 99 1
1404 142 1
1404 262 1
1404 2176 1
1404 4120 1
1405 318 1
1405 337 1
1405 362 1
1405 415 1
1405 1746 1
1405 4022 1
1406 17 1
1406 305 1
1406 490 1
1406 1364 1
1406 2461 1
1406 4590 1
1407 1 1
1407 21 1
1407 24 1
1407 279 1
1407 2283 1
1408 1 1
1408 265 1
1408 1105 1
1408 1250 1
1408 4238 1
1408 4376 1
1409 320 1
1409 595 1
1409 987 1
1409 1392 1
1409 1422 1
1409 2054 1
1410 32 1
1410 194 1
1410 830 1
1410 1094 1
1410 3661 1
1410 3799 1
1410 4826 1
1411 21 1
1411 107 1
1411 506 1
1411 1130 1
1411 1877 1
1411 2686 1
1411 2763 1
1411 2929 1
1411 3110 1
1411 4506 1
1411 4938 1
1412 440 1
1412 519 1
1412 535 1
1412 1185 1
1412 2931 1
1412 3550 1
1413 45 1
1413 108 1
1413 353 1
1413 420 1
1413 1486 1
1413 2885 1
1413 3559 1
1413 3973 1
1414 27 1
1414 186 1
1414 1198 1
1414 1393 1
1414 1475 1
1414 1738 1
1414 2305 1
1414 2700 1
1414 3788 1
1414 4272 1
1414 4278 1
1415 61 1
1415 91 1
1415 217 1
1415 701 1
1415 1654 1
1415 1669 1
1415 2210 1
1415 2973 1
1415 3002 1
1415 3285 1
1416 7 1
1416 115 1
1416 241 1
1416 1095 1
1416 1559 1
1416 2001 1
1416 2712 1
1416 2841 1
1416 3907 1
1417 76 1
1417 507 1
1417 786 1
1417 1187 1
1417 3899 1
1417 4032 1
1418 1 1
1418 2 1
1418 281 1
1418 1019 1
1418 1445 1
1418 2269 1
1418 3152 1
1418 3179 1
1418 3262 1
1418 3283 1
1419 187 1
1419 647 1
1419 919 1
1419 1206 1
1419 1963 1
1419 4195 1
1419 4230 1
1419 4388 1
1420 6 1
1420 499 1
1420 828 1
1420 924 1
1420 2102 1
1420 2973 1
1420 3571 1
1421 10 1
1421 173 1
1421 315 1
1421 1259 1
1421 3425 1
1421 4336 1
1421 4525 1
1422 257 1
1422 321 1
1422 722 1
1422 1409 1
1422 2203 1
1422 3120 1
1423 7 1
1423 11 1
1423 56 1
1423 238 1
1423 3297 1
1424 103 1
1424 160 1
1424 196 1
1424 854 1
1424 1905 1
1424 3372 1
1425 134 1
1425 189 1
1425 666 1
1425 982 1
1425 1871 1
1425 2222 1
1425 2513 1
1425 2665 1
1425 3745 1
1426 6 1
1426 94 1
1426 204 1
1426 508 1
1426 4088 1
1426 4896 1
1427 174 1
1427 217 1
1427 227 1
1427 795 1
1427 1622 1
1427 3009 1
1427 3753 1
1428 12 1
1428 231 1
1428 637 1
1428 1367 1
1428 1449 1
1428 1769 1
1428 2002 1
1428 2733 1
1428 2987 1
1429 5 1
1429 66 1
1429 628 1
1429 818 1
1429 1777 1
1429 2388 1
1429 4164 1
1429 4490 1
1430 131 1
1430 218 1
1430 293 1
1430 536 1
1430 1606 1
1430 1732 1
1430 2144 1
1430 2327 1
1430 2334 1
1430 2483 1
1430 3117 1
1430 3309 1
1430 4243 1
1430 4861 1
1431 3 1
1431 164 1
1431 183 1
1431 1234 1
1431 1759 1
1431 2047 1
1431 2634 1
1432 165 1
1432 683 1
1432 992 1
1432 1179 1
1432 1686 1
1432 2799 1
1433 11 1
1433 94 1
1433 458 1
1433 1021 1
1433 1687 1
1433 1785 1
1433 2063 1
1433 2080 1
1433 2278 1
1434 56 1
1434 230 1
1434 237 1
1434 1154 1
1434 3399 1
1434 4400 1
1435 14 1
1435 50 1
1435 771 1
1435 866 1
1435 2061 1
1435 3915 1
1435 4757 1
1436 25 1
1436 83 1
1436 294 1
1436 514 1
1436 1514 1
1436 2171 1
1436 3112 1
1436 3337 1
1436 3554 1
1436 4768 1
1437 36 1
1437 385 1
1437 537 1
1437 1224 1
1437 1501 1
1437 1925 1
1437 2748 1
1437 3575 1
1437 3657 1
1437 4397 1
1438 30 1
1438 76 1
1438 323 1
1438 458 1
1438 1549 1
1438 3435 1
1438 3841 1
1439 149 1
1439 344 1
1439 480 1
1439 723 1
1439 1891 1
1439 2229 1
1439 3541 1
1440 427 1
1440 431 1
1440 547 1
1440 602 1
1440 2022 1
1440 2545 1
1440 2651 1
1440 3982 1
1440 4656 1
1441 34 1
1441 84 1
1441 141 1
1441 210 1
1441 1593 1
1441 3849 1
1441 4454 1
1441 4642 1
1441 4801 1
1442 5 1
1442 36 1
1442 461 1
1442 1226 1
1442 2777 1
1442 3245 1
1442 3849 1
1443 309 1
1443 450 1
1443 645 1
1443 726 1
1443 1928 1
1444 94 1
1444 96 1
1444 240 1
1444 356 1
1444 3668 1
1445 170 1
1445 586 1
1445 1281 1
1445 1418 1
1445 2057 1
1445 2706 1
1445 4051 1
1445 4423 1
1446 102 1
1446 225 1
1446 629 1
1446 905 1
1446 1638 1
1446 2904 1
1446 3565 1
1446 4206 1
1446 4313 1
1447 246 1
1447 284 1
1447 439 1
1447 1362 1
1448 58 1
1448 61 1
1448 300 1
1448 1189 1
1448 2201 1
1449 145 1
1449 242 1
1449 1247 1
1449 1428 1
1449 3280 1
1450 206 1
1450 475 1
1450 1014 1
1450 1026 1
1450 2169 1
1450 2351 1
1451 36 1
1451 38 1
1451 257 1
1451 937 1
1451 2838 1
1451 4090 1
1452 67 1
1452 149 1
1452 428 1
1452 1399 1
1452 1972 1
1452 1986 1
1452 2813 1
1452 3193 1
1452 3563 1
1452 3657 1
1452 3994 1
1452 4228 1
1452 4239 1
1452 4913 1
1452 4943 1
1453 12 1
1453 18 1
1453 1105 1
1453 1234 1
1453 1832 1
1453 2010 1
1453 2320 1
1453 3337 1
1453 3470 1
1453 3721 1
1453 4023 1
1453 4271 1
1454 216 1
1454 399 1
1454 636 1
1454 728 1
1454 1485 1
1454 1512 1
1454 1635 1
1454 3329 1
1454 3637 1
1454 3738 1
1454 3882 1
1454 3970 1
1454 4031 1
1454 4141 1
1454 4258 1
1454 4335 1
1454 4417 1
1455 114 1
1455 170 1
1455 669 1
1455 1200 1
1455 2383 1
1455 3466 1
1455 3529 1
1456 64 1
1456 91 1
1456 689 1
1456 1202 1
1456 2504 1
1456 2809 1
1456 3330 1
1456 4088 1
1457 303 1
1457 643 1
1457 665 1
1457 1142 1
1457 2007 1
1457 4076 1
1457 4824 1
1457 4875 1
1457 4969 1
1458 2 1
1458 123 1
1458 401 1
1458 1073 1
1458 1987 1
1459 117 1
1459 129 1
1459 392 1
1459 1372 1
1459 3412 1
1459 4989 1
1460 1 1
1460 18 1
1460 423 1
1460 760 1
1460 2446 1
1461 75 1
1461 88 1
1461 106 1
1461 473 1
1461 2779 1
1462 27 1
1462 109 1
1462 454 1
1462 1048 1
1462 2841 1
1462 4917 1
1463 13 1
1463 124 1
1463 231 1
1463 1298 1
1463 1874 1
1463 1955 1
1463 2400 1
1463 2547 1
1463 2856 1
1463 3081 1
1463 3410 1
1464 135 1
1464 172 1
1464 1096 1
1464 1344 1
1464 4474 1
1465 189 1
1465 511 1
1465 1180 1
1465 1379 1
1465 1714 1
1465 3415 1
1466 43 1
1466 98 1
1466 830 1
1466 902 1
1466 2038 1
1466 3844 1
1466 4857 1
1467 27 1
1467 72 1
1467 86 1
1467 537 1
1467 1533 1
1467 4060 1
1467 4824 1
1468 116 1
1468 287 1
1468 891 1
1468 951 1
1469 14 1
1469 355 1
1469 745 1
1469 1239 1
1469 2972 1
1469 3662 1
1469 3681 1
1470 3 1
1470 17 1
1470 177 1
1470 487 1
1470 1595 1
1470 1874 1
1470 2704 1
1470 4133 1
1471 308 1
1471 766 1
1471 997 1
1471 1092 1
1471 1608 1
1471 1754 1
1472 3 1
1472 53 1
1472 985 1
1472 1340 1
1472 1662 1
1472 3726 1
1472 3871 1
1473 7 1
1473 347 1
1473 371 1
1473 961 1
1473 4360 1
1474 6 1
1474 14 1
1474 87 1
1474 650 1
1474 2359 1
1474 3420 1
1474 3888 1
1475 294 1
1475 1049 1
1475 1119 1
1475 1414 1
1476 213 1
1476 340 1
1476 442 1
1476 530 1
1476 2146 1
1476 4419 1
1476 4877 1
1476 4970 1
1477 1 1
1477 118 1
1477 239 1
1477 684 1
1477 2641 1
1477 3667 1
1478 192 1
1478 455 1
1478 869 1
1478 1355 1
1478 1894 1
1478 2368 1
1478 3533 1
1479 36 1
1479 531 1
1479 897 1
1479 902 1
1479 1711 1
1479 1779 1
1479 3975 1
1479 4085 1
1479 4941 1
1480 1 1
1480 505 1
1480 1215 1
1480 1371 1
1480 1502 1
1480 1573 1
1480 2052 1
1480 2180 1
1480 2477 1
1480 2678 1
1480 2881 1
1480 2971 1
1480 3640 1
1480 3787 1
1480 4743 1
1480 4954 1
1480 4998 1
1481 5 1
1481 7 1
1481 46 1
1481 1331 1
1481 1558 1
1481 4272 1
1481 4387 1
1482 28 1
1482 81 1
1482 366 1
1482 1049 1
1482 1597 1
1482 2753 1
1482 2766 1
1482 2856 1
1483 123 1
1483 152 1
1483 354 1
1483 1268 1
1483 4947 1
1483 4948 1
1484 6 1
1484 217 1
1484 293 1
1484 746 1
1484 2638 1
1484 3450 1
1484 4789 1
1485 6 1
1485 30 1
1485 765 1
1485 1454 1
1485 1741 1
1485 1978 1
1485 2521 1
1485 2632 1
1485 2736 1
1486 77 1
1486 226 1
1486 864 1
1486 1413 1
1486 1947 1
1486 2630 1
1486 2822 1
1486 3591 1
1486 4131 1
1486 4594 1
1487 150 1
1487 304 1
1487 375 1
1487 1020 1
1487 1577 1
1487 3163 1
1487 4512 1
1487 4584 1
1488 100 1
1488 330 1
1488 343 1
1488 893 1
1489 5 1
1489 18 1
1489 116 1
1489 158 1
1489 1972 1
1489 2612 1
1489 4563 1
1490 184 1
1490 359 1
1490 658 1
1490 1009 1
1490 2612 1
1490 2944 1
1490 3111 1
1490 3904 1
1490 4167 1
1491 5 1
1491 78 1
1491 960 1
1491 1192 1
1491 1768 1
1491 1919 1
1491 2305 1
1491 2552 1
1491 3536 1
1491 4743 1
1491 4807 1
1492 3 1
1492 244 1
1492 935 1
1492 1073 1
1493 53 1
1493 175 1
1493 217 1
1493 1291 1
1493 1745 1
1493 3506 1
1493 4909 1
1494 1 1
1494 176 1
1494 545 1
1494 546 1
1494 1748 1
1494 2056 1
1494 2449 1
1494 2842 1
1494 2945 1
1494 2988 1
1494 3209 1
1494 4810 1
1495 13 1
1495 176 1
1495 203 1
1495 1351 1
1495 2395 1
1495 2397 1
1495 2599 1
1495 2641 1
1495 2750 1
1495 3291 1
1495 3513 1
1495 3714 1
1496 11 1
1496 14 1
1496 39 1
1496 543 1
1496 3744 1
1497 17 1
1497 884 1
1497 886 1
1497 1035 1
1498 3 1
1498 118 1
1498 275 1
1498 355 1
1498 1973 1
1498 2496 1
1498 2540 1
1498 3481 1
1498 3667 1
1498 3782 1
1499 31 1
1499 185 1
1499 402 1
1499 1240 1
1499 1526 1
1499 1555 1
1499 3578 1
1499 3998 1
1500 108 1
1500 1075 1
1500 1117 1
1500 1366 1
1500 2391 1
1500 3371 1
1501 424 1
1501 553 1
1501 846 1
1501 1437 1
1501 2034 1
1501 2301 1
1501 2622 1
1501 2827 1
1501 3026 1
1501 3869 1
1501 4815 1
1502 360 1
1502 1243 1
1502 1379 1
1502 1480 1
1502 1964 1
1502 1979 1
1502 2231 1
1502 2759 1
1502 3261 1
1502 3318 1
1502 3429 1
1502 3950 1
1502 4182 1
1502 4918 1
1503 289 1
1503 374 1
1503 665 1
1503 829 1
1503 2402 1
1503 2492 1
1503 3430 1
1503 3813 1
1503 4252 1
1504 44 1
1504 176 1
1504 851 1
1504 1309 1
1504 2445 1
1504 2568 1
1504 4892 1
1505 9 1
1505 23 1
1505 108 1
1505 778 1
1505 1574 1
1505 2835 1
1505 3740 1
1505 4930 1
1506 34 1
1506 46 1
1506 199 1
1506 339 1
1506 3028 1
1506 4249 1
1506 4326 1
1506 4344 1
1506 4568 1
1507 11 1
1507 27 1
1507 29 1
1507 936 1
1507 2854 1
1507 4586 1
1508 5 1
1508 216 1
1508 338 1
1508 1082 1
1508 2280 1
1508 2367 1
1508 2387 1
1508 3589 1
1508 4293 1
1509 9 1
1509 43 1
1509 108 1
1509 1397 1
1509 1926 1
1509 2566 1
1509 2571 1
1509 2592 1
1509 2919 1
1509 4371 1
1510 27 1
1510 30 1
1510 49 1
1510 678 1
1510 1513 1
1510 1755 1
1510 2133 1
1510 3488 1
1510 3760 1
1510 3929 1
1511 23 1
1511 76 1
1511 171 1
1511 204 1
1511 1975 1
1511 3153 1
1511 4726 1
1512 9 1
1512 66 1
1512 73 1
1512 1454 1
1513 307 1
1513 490 1
1513 597 1
1513 1510 1
1514 9 1
1514 17 1
1514 994 1
1514 1436 1
1514 4173 1
1515 6 1
1515 60 1
1515 315 1
1515 1305 1
1515 2091 1
1515 2419 1
1515 4332 1
1516 1 1
1516 145 1
1516 872 1
1516 1225 1
1516 1718 1
1516 1821 1
1516 4527 1
1516 4664 1
1517 30 1
1517 113 1
1517 118 1
1517 339 1
1517 1848 1
1517 3203 1
1517 3214 1
1517 3579 1
1518 25 1
1518 95 1
1518 474 1
1518 1120 1
1518 1624 1
1518 2488 1
1518 2951 1
1518 3879 1
1519 13 1
1519 75 1
1519 671 1
1519 1187 1
1519 2433 1
1520 80 1
1520 480 1
1520 571 1
1520 1155 1
1520 3036 1
1520 4736 1
1521 12 1
1521 67 1
1521 326 1
1521 1140 1
1521 1578 1
1521 2012 1
1521 3198 1
1521 4968 1
1522 34 1
1522 99 1
1522 683 1
1522 1115 1
1522 3833 1
1522 4935 1
1523 82 1
1523 401 1
1523 637 1
1523 1130 1
1523 1892 1
1523 2294 1
1523 2725 1
1523 2941 1
1523 3182 1
1523 3200 1
1524 82 1
1524 100 1
1524 426 1
1524 840 1
1524 1878 1
1524 1881 1
1524 3270 1
1524 4261 1
1525 30 1
1525 70 1
1525 710 1
1525 1174 1
1525 4375 1
1525 4584 1
1526 747 1
1526 1019 1
1526 1040 1
1526 1499 1
1526 2017 1
1526 2693 1
1526 3476 1
1526 4792 1
1527 158 1
1527 472 1
1527 553 1
1527 1061 1
1527 1691 1
1527 1898 1
1527 3896 1
1528 386 1
1528 671 1
1528 817 1
1528 1029 1
1528 1902 1
1528 3027 1
1528 4684 1
1529 924 1
1529 964 1
1529 1038 1
1529 1106 1
1529 1710 1
1529 2089 1
1529 2262 1
1529 4315 1
1529 4378 1
1530 1 1
1530 45 1
1530 236 1
1530 384 1
1530 1565 1
1530 1904 1
1530 3387 1
1530 4335 1
1531 188 1
1531 355 1
1531 475 1
1531 829 1
1531 1800 1
1531 3574 1
1531 4214 1
1531 4554 1
1532 51 1
1532 137 1
1532 620 1
1532 868 1
1532 2132 1
1532 4378 1
1533 2 1
1533 11 1
1533 1142 1
1533 1467 1
1533 2081 1
1533 2197 1
1533 2560 1
1533 3555 1
1533 4023 1
1534 21 1
1534 1091 1
1534 1209 1
1534 1309 1
1534 2237 1
1534 4607 1
1535 25 1
1535 80 1
1535 525 1
1535 864 1
1535 1775 1
1535 3355 1
1535 3990 1
1536 14 1
1536 304 1
1536 371 1
1536 888 1
1536 1611 1
1536 1898 1
1536 2676 1
1537 16 1
1537 192 1
1537 224 1
1537 435 1
1538 81 1
1538 269 1
1538 650 1
1538 1098 1
1538 1839 1
1538 2913 1
1539 9 1
1539 400 1
1539 403 1
1539 460 1
1539 2961 1
1539 3651 1
1540 94 1
1540 159 1
1540 526 1
1540 790 1
1540 1993 1
1540 2730 1
1540 4405 1
1540 4837 1
1541 30 1
1541 124 1
1541 981 1
1541 1254 1
1541 2703 1
1542 87 1
1542 229 1
1542 1156 1
1542 1322 1
1542 2021 1
1542 2259 1
1542 3268 1
1542 4671 1
1543 33 1
1543 166 1
1543 216 1
1543 947 1
1543 1649 1
1543 2224 1
1543 4441 1
1544 6 1
1544 71 1
1544 189 1
1544 297 1
1544 4348 1
1545 13 1
1545 337 1
1545 1080 1
1545 1131 1
1545 1669 1
1545 1675 1
1545 2231 1
1545 2405 1
1545 2521 1
1546 38 1
1546 142 1
1546 524 1
1546 1243 1
1546 1624 1
1546 2293 1
1546 2348 1
1546 2577 1
1546 2660 1
1546 2760 1
1546 3134 1
1546 4095 1
1546 4496 1
1546 4686 1
1547 1 1
1547 503 1
1547 546 1
1547 901 1
1547 2902 1
1547 3749 1
1547 3966 1
1548 2 1
1548 6 1
1548 234 1
1548 586 1
1548 4188 1
1548 4345 1
1548 4834 1
1548 4933 1
1549 1 1
1549 1000 1
1549 1262 1
1549 1438 1
1549 2821 1
1549 4956 1
1550 1 1
1550 254 1
1550 368 1
1550 947 1
1550 1650 1
1550 1732 1
1550 2015 1
1550 2695 1
1550 3078 1
1550 3511 1
1550 4226 1
1550 4314 1
1550 4622 1
1550 4939 1
1551 1 1
1551 22 1
1551 117 1
1551 436 1
1552 76 1
1552 437 1
1552 456 1
1552 669 1
1552 1850 1
1552 3920 1
1553 156 1
1553 466 1
1553 740 1
1553 1396 1
1554 78 1
1554 103 1
1554 121 1
1554 502 1
1554 3931 1
1554 4081 1
1554 4555 1
1555 161 1
1555 1231 1
1555 1289 1
1555 1499 1
1556 36 1
1556 338 1
1556 388 1
1556 1000 1
1556 1585 1
1556 2012 1
1556 2245 1
1556 2598 1
1556 4639 1
1557 3 1
1557 65 1
1557 373 1
1557 414 1
1557 2028 1
1557 3619 1
1557 4099 1
1558 71 1
1558 107 1
1558 302 1
1558 1481 1
1558 2429 1
1558 3023 1
1558 3312 1
1558 3364 1
1558 3825 1
1558 3861 1
1558 4454 1
1559 11 1
1559 642 1
1559 1172 1
1559 1416 1
1559 3510 1
1560 3 1
1560 47 1
1560 343 1
1560 464 1
1560 3434 1
1560 3601 1
1560 4382 1
1561 8 1
1561 105 1
1561 886 1
1561 1078 1
1561 1934 1
1561 2091 1
1561 3246 1
1561 3926 1
1561 3963 1
1561 4380 1
1562 29 1
1562 210 1
1562 363 1
1562 933 1
1562 2395 1
1562 3322 1
1563 1 1
1563 20 1
1563 62 1
1563 691 1
1563 2272 1
1563 3881 1
1563 4223 1
1563 4251 1
1563 4472 1
1564 3 1
1564 29 1
1564 212 1
1564 428 1
1565 335 1
1565 430 1
1565 1069 1
1565 1530 1
1565 2594 1
1565 3753 1
1565 4370 1
1566 30 1
1566 155 1
1566 510 1
1566 1167 1
1566 1861 1
1566 1991 1
1566 1995 1
1566 2228 1
1566 2296 1
1566 2603 1
1566 4038 1
1567 31 1
1567 392 1
1567 860 1
1567 1336 1
1567 1774 1
1567 1992 1
1567 3238 1
1567 3293 1
1567 4248 1
1567 4537 1
1567 4887 1
1568 93 1
1568 213 1
1568 260 1
1568 777 1
1568 2245 1
1568 3268 1
1568 4401 1
1569 17 1
1569 401 1
1569 765 1
1569 1361 1
1570 6 1
1570 37 1
1570 131 1
1570 830 1
1570 2255 1
1570 2914 1
1571 371 1
1571 428 1
1571 613 1
1571 1336 1
1571 2399 1
1571 3635 1
1571 4495 1
1571 4766 1
1572 61 1
1572 62 1
1572 84 1
1572 798 1
1572 2559 1
1572 3110 1
1573 239 1
1573 994 1
1573 1279 1
1573 1480 1
1573 1723 1
1573 3686 1
1573 4337 1
1573 4576 1
1573 4606 1
1574 532 1
1574 782 1
1574 915 1
1574 1505 1
1574 1982 1
1574 2917 1
1574 3316 1
1574 3564 1
1574 3566 1
1574 3910 1
1575 55 1
1575 583 1
1575 619 1
1575 1091 1
1575 1885 1
1576 82 1
1576 99 1
1576 574 1
1576 897 1
1576 2818 1
1576 2977 1
1576 4017 1
1576 4858 1
1577 37 1
1577 921 1
1577 1342 1
1577 1487 1
1577 1602 1
1577 3147 1
1577 3495 1
1577 3522 1
1577 3719 1
1577 3925 1
1577 4414 1
1578 6 1
1578 154 1
1578 496 1
1578 1521 1
1578 4057 1
1578 4128 1
1579 14 1
1579 200 1
1579 617 1
1579 1277 1
1579 4872 1
1580 74 1
1580 123 1
1580 271 1
1580 1265 1
1580 1811 1
1580 2168 1
1580 2186 1
1580 3678 1
1581 58 1
1581 482 1
1581 643 1
1581 1401 1
1582 1 1
1582 66 1
1582 113 1
1582 123 1
1582 2590 1
1583 189 1
1583 615 1
1583 787 1
1583 1351 1
1583 2085 1
1584 53 1
1584 374 1
1584 494 1
1584 516 1
1584 2376 1
1584 3264 1
1585 354 1
1585 1179 1
1585 1342 1
1585 1556 1
1585 1930 1
1585 2367 1
1585 3598 1
1586 125 1
1586 245 1
1586 365 1
1586 866 1
1586 2381 1
1586 3472 1
1587 14 1
1587 51 1
1587 176 1
1587 1164 1
1587 2256 1
1587 2516 1
1587 2541 1
1587 2932 1
1588 89 1
1588 201 1
1588 354 1
1588 562 1
1588 2806 1
1589 210 1
1589 211 1
1589 1112 1
1589 1355 1
1589 2088 1
1589 2578 1
1589 2650 1
1589 4135 1
1590 3 1
1590 12 1
1590 525 1
1590 535 1
1590 3099 1
1591 297 1
1591 648 1
1591 714 1
1591 1188 1
1591 1617 1
1591 4053 1
1591 4194 1
1591 4663 1
1591 4849 1
1592 108 1
1592 618 1
1592 1113 1
1592 1356 1
1592 1750 1
1592 3415 1
1593 6 1
1593 117 1
1593 384 1
1593 1441 1
1593 1637 1
1594 10 1
1594 66 1
1594 147 1
1594 240 1
1594 1701 1
1594 1930 1
1594 2264 1
1594 3818 1
1594 4768 1
1595 17 1
1595 143 1
1595 838 1
1595 1470 1
1595 1764 1
1595 1778 1
1595 1875 1
1595 2516 1
1595 2900 1
1595 2929 1
1595 4706 1
1595 4957 1
1596 5 1
1596 21 1
1596 52 1
1596 693 1
1596 1609 1
1596 4570 1
1597 8 1
1597 354 1
1597 374 1
1597 1482 1
1597 2366 1
1598 177 1
1598 212 1
1598 491 1
1598 1092 1
1598 1742 1
1598 2201 1
1598 3266 1
1598 3292 1
1598 3302 1
1599 1 1
1599 3 1
1599 58 1
1599 155 1
1599 3016 1
1599 3359 1
1600 579 1
1600 853 1
1600 937 1
1600 1308 1
1600 1931 1
1600 4304 1
1601 482 1
1601 837 1
1601 1006 1
1601 1137 1
1601 2207 1
1601 4883 1
1602 36 1
1602 62 1
1602 260 1
1602 1577 1
1602 4365 1
1602 4675 1
1603 41 1
1603 88 1
1603 137 1
1603 1230 1
1603 1621 1
1603 2376 1
1603 2525 1
1603 2643 1
1603 2871 1
1603 3084 1
1604 9 1
1604 63 1
1604 199 1
1604 288 1
1604 1995 1
1604 3942 1
1604 4950 1
1605 36 1
1605 476 1
1605 516 1
1605 941 1
1605 4535 1
1605 4625 1
1606 247 1
1606 360 1
1606 884 1
1606 1430 1
1606 2791 1
1607 11 1
1607 80 1
1607 111 1
1607 823 1
1607 1623 1
1607 1862 1
1607 2171 1
1607 2676 1
1607 3258 1
1607 3341 1
1607 3729 1
1608 448 1
1608 648 1
1608 962 1
1608 1471 1
1608 2137 1
1608 2207 1
1608 2284 1
1608 2486 1
1608 3172 1
1608 3175 1
1608 3245 1
1608 3347 1
1608 3745 1
1608 4074 1
1609 54 1
1609 147 1
1609 409 1
1609 1596 1
1609 2102 1
1609 4719 1
1609 4870 1
1610 3 1
1610 65 1
1610 318 1
1610 1204 1
1610 1897 1
1610 2659 1
1610 2911 1
1610 3688 1
1610 4765 1
1611 285 1
1611 458 1
1611 749 1
1611 1536 1
1611 2263 1
1611 3074 1
1612 10 1
1612 49 1
1612 121 1
1612 397 1
1612 2491 1
1612 4963 1
1613 37 1
1613 65 1
1613 117 1
1613 908 1
1613 2359 1
1613 2481 1
1613 2628 1
1613 2690 1
1613 3308 1
1613 3723 1
1613 3789 1
1613 4633 1
1613 4947 1
1614 61 1
1614 154 1
1614 193 1
1614 980 1
1614 1774 1
1614 1879 1
1614 1890 1
1614 2269 1
1614 2326 1
1614 3206 1
1614 3508 1
1614 3891 1
1614 4676 1
1614 4941 1
1615 1 1
1615 19 1
1615 273 1
1615 997 1
1616 46 1
1616 118 1
1616 224 1
1616 1234 1
1616 2029 1
1616 3035 1
1616 4337 1
1616 4555 1
1617 6 1
1617 102 1
1617 1036 1
1617 1591 1
1617 1749 1
1617 3503 1
1617 3603 1
1617 3748 1
1617 4056 1
1617 4240 1
1617 4600 1
1618 5 1
1618 419 1
1618 967 1
1618 1376 1
1618 4237 1
1619 37 1
1619 176 1
1619 219 1
1619 846 1
1619 2090 1
1619 2449 1
1619 2451 1
1620 103 1
1620 250 1
1620 558 1
1620 864 1
1620 2196 1
1620 2990 1
1620 3839 1
1620 4914 1
1621 8 1
1621 715 1
1621 1107 1
1621 1603 1
1621 2249 1
1621 4826 1
1622 11 1
1622 19 1
1622 32 1
1622 1427 1
1622 1721 1
1622 2262 1
1622 2628 1
1623 36 1
1623 145 1
1623 511 1
1623 1607 1
1624 40 1
1624 672 1
1624 1518 1
1624 1546 1
1624 2873 1
1624 3793 1
1624 4620 1
1625 57 1
1625 80 1
1625 304 1
1625 423 1
1625 2618 1
1625 4753 1
1626 21 1
1626 22 1
1626 66 1
1626 122 1
1626 1830 1
1627 30 1
1627 238 1
1627 439 1
1627 1118 1
1627 1794 1
1627 2161 1
1627 2239 1
1627 2290 1
1627 2556 1
1627 3553 1
1627 4161 1
1627 4475 1
1628 76 1
1628 371 1
1628 673 1
1628 1379 1
1629 437 1
1629 797 1
1629 1387 1
1629 1394 1
1629 1853 1
1630 7 1
1630 211 1
1630 1155 1
1630 1298 1
1630 3806 1
1630 3905 1
1630 4372 1
1630 4605 1
1630 4681 1
1631 142 1
1631 945 1
1631 1040 1
1631 1062 1
1631 1945 1
1631 2101 1
1631 2549 1
1631 4405 1
1631 4582 1
1632 16 1
1632 50 1
1632 681 1
1632 858 1
1633 131 1
1633 395 1
1633 481 1
1633 1358 1
1633 1642 1
1633 2003 1
1633 2836 1
1633 3164 1
1634 239 1
1634 652 1
1634 939 1
1634 1288 1
1634 2921 1
1635 18 1
1635 24 1
1635 34 1
1635 1454 1
1635 2735 1
1636 831 1
1636 933 1
1636 1234 1
1636 1325 1
1636 3854 1
1637 40 1
1637 723 1
1637 1065 1
1637 1593 1
1637 2787 1
1637 3082 1
1638 5 1
1638 139 1
1638 1012 1
1638 1446 1
1638 2093 1
1638 2095 1
1638 2558 1
1638 3867 1
1638 4273 1
1639 45 1
1639 543 1
1639 842 1
1639 960 1
1639 2933 1
1639 4813 1
1640 303 1
1640 640 1
1640 1000 1
1640 1066 1
1640 2193 1
1640 2301 1
1641 43 1
1641 152 1
1641 331 1
1641 964 1
1641 2564 1
1641 3301 1
1641 4991 1
1642 22 1
1642 940 1
1642 1248 1
1642 1633 1
1642 2592 1
1642 3244 1
1643 18 1
1643 291 1
1643 374 1
1643 1117 1
1643 3665 1
1643 4752 1
1644 7 1
1644 67 1
1644 78 1
1644 1323 1
1644 2242 1
1645 99 1
1645 232 1
1645 244 1
1645 683 1
1645 1724 1
1645 2402 1
1645 2484 1
1645 3302 1
1645 4792 1
1646 98 1
1646 320 1
1646 954 1
1646 1059 1
1646 4180 1
1646 4295 1
1647 408 1
1647 864 1
1647 972 1
1647 1264 1
1647 2444 1
1647 3828 1
1647 3890 1
1648 1 1
1648 34 1
1648 47 1
1648 82 1
1648 1860 1
1648 1965 1
1648 2795 1
1648 3473 1
1648 3597 1
1648 4257 1
1648 4692 1
1649 697 1
1649 794 1
1649 1150 1
1649 1543 1
1649 2026 1
1649 4585 1
1650 8 1
1650 141 1
1650 1188 1
1650 1550 1
1651 58 1
1651 253 1
1651 842 1
1651 1109 1
1652 58 1
1652 106 1
1652 271 1
1652 1211 1
1652 2937 1
1652 3522 1
1652 4822 1
1653 19 1
1653 463 1
1653 571 1
1653 1210 1
1653 3652 1
1653 3803 1
1653 4052 1
1653 4200 1
1653 4732 1
1654 45 1
1654 596 1
1654 717 1
1654 1415 1
1654 1717 1
1654 3124 1
1654 3622 1
1655 533 1
1655 551 1
1655 1124 1
1655 1391 1
1656 6 1
1656 8 1
1656 10 1
1656 141 1
1656 1887 1
1656 4321 1
1657 25 1
1657 91 1
1657 291 1
1657 1000 1
1657 1955 1
1657 1984 1
1657 2218 1
1657 3032 1
1657 3470 1
1657 4916 1
1657 4951 1
1658 6 1
1658 32 1
1658 51 1
1658 814 1
1659 27 1
1659 299 1
1659 489 1
1659 1350 1
1660 5 1
1660 180 1
1660 549 1
1660 575 1
1660 2072 1
1660 2254 1
1660 2260 1
1660 2527 1
1660 2684 1
1660 3634 1
1660 3689 1
1661 95 1
1661 610 1
1661 669 1
1661 1290 1
1661 1957 1
1661 2415 1
1661 3090 1
1661 3121 1
1661 4425 1
1662 166 1
1662 278 1
1662 345 1
1662 1472 1
1662 2527 1
1663 138 1
1663 326 1
1663 485 1
1663 1178 1
1663 1849 1
1663 3754 1
1663 4099 1
1664 43 1
1664 239 1
1664 405 1
1664 968 1
1664 1895 1
1664 2429 1
1664 2577 1
1665 76 1
1665 78 1
1665 922 1
1665 948 1
1665 2446 1
1665 3110 1
1665 3134 1
1665 3877 1
1666 9 1
1666 28 1
1666 715 1
1666 998 1
1666 2238 1
1666 3613 1
1667 52 1
1667 791 1
1667 1039 1
1667 1041 1
1667 2734 1
1667 2955 1
1667 4547 1
1668 92 1
1668 134 1
1668 209 1
1668 492 1
1668 4623 1
1669 18 1
1669 237 1
1669 1415 1
1669 1545 1
1669 4170 1
1670 69 1
1670 348 1
1670 621 1
1670 759 1
1670 1805 1
1670 3575 1
1671 402 1
1671 425 1
1671 487 1
1671 968 1
1671 2911 1
1671 3456 1
1672 27 1
1672 141 1
1672 382 1
1672 762 1
1673 84 1
1673 118 1
1673 488 1
1673 646 1
1674 5 1
1674 160 1
1674 442 1
1674 1310 1
1674 2048 1
1674 2892 1
1674 4336 1
1675 66 1
1675 169 1
1675 752 1
1675 1545 1
1675 2636 1
1676 10 1
1676 91 1
1676 131 1
1676 769 1
1677 22 1
1677 58 1
1677 199 1
1677 717 1
1677 2407 1
1677 3184 1
1677 3425 1
1678 154 1
1678 176 1
1678 927 1
1678 1077 1
1678 1765 1
1678 2472 1
1679 427 1
1679 801 1
1679 1267 1
1679 1386 1
1679 2056 1
1679 3551 1
1680 20 1
1680 56 1
1680 527 1
1680 552 1
1680 2156 1
1680 3591 1
1681 27 1
1681 299 1
1681 637 1
1681 1393 1
1681 1751 1
1681 2085 1
1681 2319 1
1681 2411 1
1681 2431 1
1681 2464 1
1681 3560 1
1681 3562 1
1681 3830 1
1682 12 1
1682 240 1
1682 358 1
1682 790 1
1682 1734 1
1682 2277 1
1682 2986 1
1683 1 1
1683 388 1
1683 436 1
1683 869 1
1683 3825 1
1684 100 1
1684 199 1
1684 794 1
1684 1058 1
1684 1689 1
1684 1763 1
1684 2105 1
1684 2551 1
1684 4250 1
1684 4548 1
1685 30 1
1685 292 1
1685 529 1
1685 1117 1
1686 115 1
1686 216 1
1686 523 1
1686 1432 1
1687 305 1
1687 563 1
1687 1326 1
1687 1433 1
1687 2717 1
1687 2991 1
1687 3494 1
1688 217 1
1688 246 1
1688 552 1
1688 1160 1
1688 1697 1
1688 2614 1
1688 3196 1
1688 4047 1
1689 66 1
1689 123 1
1689 1113 1
1689 1684 1
1689 3530 1
1689 3663 1
1689 4659 1
1690 48 1
1690 247 1
1690 250 1
1690 579 1
1690 1747 1
1690 2440 1
1690 2681 1
1691 16 1
1691 305 1
1691 1068 1
1691 1527 1
1691 1976 1
1691 2045 1
1692 6 1
1692 9 1
1692 87 1
1692 521 1
1692 1831 1
1692 2540 1
1692 3230 1
1692 4364 1
1693 86 1
1693 683 1
1693 820 1
1693 953 1
1693 2205 1
1693 2434 1
1693 2701 1
1693 3133 1
1693 3192 1
1693 3909 1
1693 4287 1
1694 7 1
1694 191 1
1694 399 1
1694 1358 1
1694 1705 1
1694 4868 1
1695 308 1
1695 417 1
1695 646 1
1695 1028 1
1695 1984 1
1695 2119 1
1695 2236 1
1695 3272 1
1695 3998 1
1696 44 1
1696 764 1
1696 826 1
1696 1367 1
1697 27 1
1697 36 1
1697 945 1
1697 1688 1
1697 2462 1
1697 3226 1
1697 3995 1
1697 4463 1
1698 14 1
1698 104 1
1698 318 1
1698 636 1
1699 29 1
1699 91 1
1699 166 1
1699 839 1
1699 2420 1
1699 2855 1
1700 11 1
1700 36 1
1700 752 1
1700 1178 1
1701 45 1
1701 638 1
1701 645 1
1701 1594 1
1701 2135 1
1701 2520 1
1701 2564 1
1701 3205 1
1701 3422 1
1701 3488 1
1701 4529 1
1701 4698 1
1702 101 1
1702 166 1
1702 386 1
1702 680 1
1702 2021 1
1702 2388 1
1702 3401 1
1703 12 1
1703 13 1
1703 447 1
1703 1224 1
1703 2467 1
1703 2851 1
1703 4061 1
1703 4577 1
1704 3 1
1704 24 1
1704 187 1
1704 1391 1
1704 2155 1
1704 2841 1
1704 3770 1
1704 4316 1
1704 4578 1
1705 6 1
1705 20 1
1705 1095 1
1705 1694 1
1705 4898 1
1706 292 1
1706 543 1
1706 751 1
1706 1318 1
1706 3290 1
1707 2 1
1707 39 1
1707 113 1
1707 331 1
1707 4889 1
1708 237 1
1708 607 1
1708 1353 1
1708 1387 1
1709 6 1
1709 73 1
1709 438 1
1709 652 1
1709 1758 1
1709 1829 1
1709 2018 1
1709 2579 1
1709 3219 1
1709 3366 1
1709 3940 1
1710 23 1
1710 48 1
1710 485 1
1710 1529 1
1710 2111 1
1710 2507 1
1710 3024 1
1711 63 1
1711 132 1
1711 873 1
1711 1479 1
1712 217 1
1712 287 1
1712 544 1
1712 1235 1
1712 1787 1
1712 2188 1
1712 4020 1
1713 30 1
1713 123 1
1713 920 1
1713 1065 1
1713 1786 1
1713 3115 1
1713 3231 1
1713 3552 1
1713 4008 1
1713 4170 1
1713 4428 1
1714 558 1
1714 652 1
1714 827 1
1714 1465 1
1715 2 1
1715 22 1
1715 45 1
1715 707 1
1715 3158 1
1716 173 1
1716 231 1
1716 566 1
1716 651 1
1716 3368 1
1717 154 1
1717 354 1
1717 1293 1
1717 1654 1
1717 2004 1
1717 2040 1
1717 2055 1
1717 2347 1
1717 3068 1
1717 3882 1
1718 78 1
1718 121 1
1718 1364 1
1718 1516 1
1719 8 1
1719 38 1
1719 191 1
1719 415 1
1719 1850 1
1719 2649 1
1719 3003 1
1719 3644 1
1720 145 1
1720 775 1
1720 1035 1
1720 1129 1
1720 3089 1
1720 3745 1
1721 595 1
1721 598 1
1721 1358 1
1721 1622 1
1721 2031 1
1721 2190 1
1721 4673 1
1722 37 1
1722 202 1
1722 646 1
1722 974 1
1722 3489 1
1722 4427 1
1723 151 1
1723 523 1
1723 1392 1
1723 1573 1
1723 2985 1
1723 3726 1
1724 32 1
1724 357 1
1724 595 1
1724 1645 1
1724 1761 1
1724 2716 1
1724 3075 1
1724 3331 1
1724 3383 1
1724 3815 1
1724 4667 1
1725 42 1
1725 74 1
1725 220 1
1725 1273 1
1726 617 1
1726 629 1
1726 924 1
1726 970 1
1726 1812 1
1726 2184 1
1726 2958 1
1726 3363 1
1726 4032 1
1726 4264 1
1727 71 1
1727 569 1
1727 1051 1
1727 1125 1
1727 1887 1
1727 2329 1
1727 2523 1
1727 2530 1
1727 2532 1
1727 2898 1
1727 3750 1
1727 3991 1
1728 17 1
1728 125 1
1728 406 1
1728 1198 1
1728 1888 1
1729 17 1
1729 105 1
1729 551 1
1729 910 1
1729 2295 1
1729 3769 1
1729 4986 1
1730 11 1
1730 46 1
1730 498 1
1730 590 1
1730 2305 1
1730 2395 1
1730 2419 1
1730 3045 1
1730 3471 1
1731 166 1
1731 807 1
1731 819 1
1731 829 1
1731 2128 1
1731 2557 1
1731 2976 1
1732 187 1
1732 787 1
1732 1430 1
1732 1550 1
1732 3254 1
1732 3648 1
1732 4628 1
1733 132 1
1733 878 1
1733 1006 1
1733 1077 1
1733 2963 1
1733 3918 1
1734 1 1
1734 489 1
1734 596 1
1734 1682 1
1734 2030 1
1734 2826 1
1734 2968 1
1734 2990 1
1734 4562 1
1735 7 1
1735 51 1
1735 392 1
1735 456 1
1735 2035 1
1735 2116 1
1735 3967 1
1736 3 1
1736 11 1
1736 296 1
1736 409 1
1736 2656 1
1736 3777 1
1736 4214 1
1737 15 1
1737 147 1
1737 555 1
1737 1096 1
1737 3893 1
1738 157 1
1738 550 1
1738 1370 1
1738 1414 1
1738 1796 1
1738 2231 1
1738 3243 1
1738 4597 1
1739 474 1
1739 475 1
1739 553 1
1739 1287 1
1739 1992 1
1739 3276 1
1740 45 1
1740 645 1
1740 919 1
1740 980 1
1741 131 1
1741 161 1
1741 523 1
1741 1485 1
1741 2198 1
1741 2357 1
1741 3685 1
1741 4323 1
1742 30 1
1742 406 1
1742 541 1
1742 1598 1
1742 2136 1
1742 2285 1
1742 3983 1
1742 4235 1
1742 4367 1
1742 4708 1
1742 4714 1
1742 4920 1
1743 24 1
1743 287 1
1743 335 1
1743 683 1
1743 2457 1
1743 2851 1
1744 1 1
1744 207 1
1744 212 1
1744 287 1
1745 194 1
1745 645 1
1745 1303 1
1745 1493 1
1746 26 1
1746 87 1
1746 489 1
1746 1405 1
1746 1799 1
1746 4215 1
1747 1 1
1747 665 1
1747 1355 1
1747 1690 1
1747 2179 1
1747 2822 1
1748 139 1
1748 293 1
1748 363 1
1748 1494 1
1748 2265 1
1748 4209 1
1748 4269 1
1749 62 1
1749 344 1
1749 463 1
1749 1617 1
1749 3349 1
1749 4651 1
1750 96 1
1750 156 1
1750 175 1
1750 1592 1
1750 1835 1
1750 3020 1
1751 93 1
1751 569 1
1751 1204 1
1751 1681 1
1751 1913 1
1751 3240 1
1751 3540 1
1752 6 1
1752 25 1
1752 111 1
1752 354 1
1752 2303 1
1753 93 1
1753 98 1
1753 259 1
1753 1377 1
1753 1914 1
1753 4649 1
1753 4733 1
1753 4958 1
1754 129 1
1754 743 1
1754 861 1
1754 1471 1
1754 1762 1
1754 2465 1
1755 41 1
1755 303 1
1755 1234 1
1755 1510 1
1755 2847 1
1755 3166 1
1755 3362 1
1755 3859 1
1755 4104 1
1756 17 1
1756 199 1
1756 219 1
1756 753 1
1756 2833 1
1756 2882 1
1756 4797 1
1757 36 1
1757 875 1
1757 1059 1
1757 1298 1
1757 2475 1
1757 2802 1
1757 4037 1
1757 4105 1
1758 5 1
1758 227 1
1758 516 1
1758 1709 1
1758 1782 1
1758 2091 1
1758 2432 1
1758 3381 1
1758 4945 1
1759 99 1
1759 323 1
1759 835 1
1759 1431 1
1759 3964 1
1760 8 1
1760 52 1
1760 343 1
1760 1142 1
1760 3899 1
1760 4423 1
1761 6 1
1761 132 1
1761 249 1
1761 1724 1
1761 2094 1
1761 2302 1
1761 2548 1
1761 2788 1
1762 152 1
1762 543 1
1762 1175 1
1762 1754 1
1762 2163 1
1762 2308 1
1762 3150 1
1762 4539 1
1762 4892 1
1763 666 1
1763 923 1
1763 1164 1
1763 1684 1
1764 10 1
1764 52 1
1764 229 1
1764 1595 1
1765 705 1
1765 713 1
1765 1275 1
1765 1678 1
1765 2337 1
1765 3173 1
1765 3642 1
1765 3807 1
1765 4026 1
1766 105 1
1766 196 1
1766 752 1
1766 1301 1
1766 2059 1
1766 2134 1
1766 3484 1
1767 11 1
1767 56 1
1767 363 1
1767 564 1
1767 3686 1
1768 14 1
1768 26 1
1768 345 1
1768 1491 1
1768 3191 1
1768 3652 1
1768 4599 1
1768 4844 1
1769 18 1
1769 56 1
1769 571 1
1769 1428 1
1769 1792 1
1769 2110 1
1769 4408 1
1770 358 1
1770 632 1
1770 959 1
1770 1111 1
1771 1 1
1771 106 1
1771 752 1
1771 1319 1
1771 1984 1
1771 2478 1
1771 2791 1
1771 3877 1
1771 4901 1
1772 481 1
1772 514 1
1772 572 1
1772 823 1
1772 2002 1
1773 425 1
1773 568 1
1773 577 1
1773 1075 1
1773 4191 1
1774 140 1
1774 228 1
1774 1567 1
1774 1614 1
1774 1899 1
1774 3443 1
1774 4029 1
1774 4799 1
1775 338 1
1775 1067 1
1775 1266 1
1775 1535 1
1775 2546 1
1775 3713 1
1776 5 1
1776 11 1
1776 121 1
1776 614 1
1776 2584 1
1776 2882 1
1777 7 1
1777 172 1
1777 1180 1
1777 1429 1
1777 2800 1
1777 3839 1
1778 85 1
1778 178 1
1778 194 1
1778 1595 1
1779 361 1
1779 491 1
1779 1127 1
1779 1479 1
1779 3653 1
1779 3873 1
1779 4311 1
1780 434 1
1780 827 1
1780 1020 1
1780 1273 1
1780 2269 1
1781 212 1
1781 345 1
1781 506 1
1781 936 1
1781 2866 1
1781 4803 1
1782 9 1
1782 955 1
1782 1191 1
1782 1758 1
1782 3150 1
1782 3805 1
1783 19 1
1783 268 1
1783 1272 1
1783 1403 1
1783 1917 1
1783 2057 1
1783 3628 1
1783 4651 1
1784 1 1
1784 21 1
1784 59 1
1784 1025 1
1785 94 1
1785 900 1
1785 922 1
1785 1433 1
1785 1807 1
1785 2245 1
1785 4067 1
1786 103 1
1786 739 1
1786 958 1
1786 1713 1
1786 2555 1
1786 3702 1
1786 4682 1
1787 216 1
1787 1221 1
1787 1306 1
1787 1712 1
1787 4098 1
1787 4988 1
1788 14 1
1788 85 1
1788 106 1
1788 171 1
1788 1989 1
1788 3754 1
1789 565 1
1789 1019 1
1789 1229 1
1789 1341 1
1789 1892 1
1789 3873 1
1790 14 1
1790 294 1
1790 455 1
1790 1114 1
1790 4327 1
1791 1 1
1791 29 1
1791 813 1
1791 1129 1
1791 2942 1
1791 4159 1
1792 7 1
1792 1128 1
1792 1300 1
1792 1769 1
1792 2319 1
1792 2898 1
1792 3681 1
1792 3699 1
1792 4049 1
1793 5 1
1793 81 1
1793 88 1
1793 693 1
1794 56 1
1794 524 1
1794 1035 1
1794 1627 1
1794 1969 1
1794 2565 1
1794 3848 1
1794 4964 1
1795 6 1
1795 9 1
1795 10 1
1795 60 1
1795 2217 1
1795 3345 1
1795 4069 1
1796 106 1
1796 455 1
1796 637 1
1796 1738 1
1796 4806 1
1797 14 1
1797 97 1
1797 428 1
1797 552 1
1797 2027 1
1798 800 1
1798 891 1
1798 1089 1
1798 1382 1
1798 3407 1
1798 3585 1
1799 38 1
1799 758 1
1799 1216 1
1799 1746 1
1799 3250 1
1800 159 1
1800 354 1
1800 1224 1
1800 1531 1
1801 100 1
1801 563 1
1801 731 1
1801 1285 1
1801 2141 1
1801 3108 1
1801 3576 1
1801 4157 1
1801 4214 1
1802 30 1
1802 98 1
1802 719 1
1802 1214 1
1802 2807 1
1802 2941 1
1802 3050 1
1802 3089 1
1803 3 1
1803 6 1
1803 304 1
1803 499 1
1804 137 1
1804 188 1
1804 303 1
1804 882 1
1804 2266 1
1804 4199 1
1805 7 1
1805 122 1
1805 1291 1
1805 1670 1
1805 3926 1
1805 4063 1
1806 122 1
1806 254 1
1806 1010 1
1806 1169 1
1806 4961 1
1807 158 1
1807 501 1
1807 1182 1
1807 1785 1
1807 2474 1
1807 2687 1
1807 3510 1
1808 38 1
1808 213 1
1808 241 1
1808 368 1
1808 2352 1
1809 20 1
1809 28 1
1809 323 1
1809 1010 1
1809 1872 1
1809 3330 1
1809 4059 1
1810 5 1
1810 199 1
1810 682 1
1810 914 1
1810 3853 1
1810 4896 1
1811 282 1
1811 378 1
1811 1167 1
1811 1580 1
1811 1841 1
1811 2101 1
1812 215 1
1812 614 1
1812 1205 1
1812 1726 1
1812 1903 1
1812 2516 1
1813 103 1
1813 105 1
1813 114 1
1813 188 1
1813 1960 1
1813 2365 1
1813 2562 1
1813 4267 1
1813 4595 1
1813 4655 1
1813 4879 1
1814 99 1
1814 186 1
1814 508 1
1814 739 1
1814 4744 1
1815 120 1
1815 186 1
1815 521 1
1815 1186 1
1815 2564 1
1815 3846 1
1815 4329 1
1816 141 1
1816 642 1
1816 907 1
1816 1009 1
1816 2039 1
1817 60 1
1817 117 1
1817 965 1
1817 1177 1
1818 10 1
1818 48 1
1818 141 1
1818 351 1
1818 3912 1
1819 431 1
1819 707 1
1819 875 1
1819 1000 1
1819 2792 1
1820 506 1
1820 514 1
1820 745 1
1820 1025 1
1820 3991 1
1820 4829 1
1821 85 1
1821 497 1
1821 970 1
1821 1516 1
1821 3554 1
1821 4130 1
1822 242 1
1822 890 1
1822 1223 1
1822 1344 1
1822 1945 1
1822 2889 1
1822 2949 1
1823 15 1
1823 316 1
1823 681 1
1823 1368 1
1823 2391 1
1823 2903 1
1823 4585 1
1824 20 1
1824 562 1
1824 987 1
1824 1323 1
1825 153 1
1825 177 1
1825 573 1
1825 1158 1
1826 1 1
1826 2 1
1826 132 1
1826 871 1
1826 3103 1
1827 98 1
1827 279 1
1827 379 1
1827 526 1
1827 2072 1
1827 2820 1
1827 2979 1
1827 3169 1
1827 3406 1
1827 3627 1
1827 4573 1
1828 6 1
1828 176 1
1828 232 1
1828 701 1
1828 3403 1
1829 40 1
1829 711 1
1829 1231 1
1829 1709 1
1829 2640 1
1829 4044 1
1830 22 1
1830 302 1
1830 497 1
1830 1626 1
1830 3260 1
1830 3645 1
1830 4515 1
1830 4687 1
1831 1 1
1831 6 1
1831 90 1
1831 1692 1
1831 2762 1
1832 668 1
1832 760 1
1832 1228 1
1832 1453 1
1832 2585 1
1832 3078 1
1832 3778 1
1832 4063 1
1832 4761 1
1833 13 1
1833 18 1
1833 330 1
1833 1367 1
1833 1850 1
1833 4805 1
1834 12 1
1834 176 1
1834 637 1
1834 1021 1
1834 2982 1
1834 2984 1
1834 3253 1
1834 4000 1
1834 4332 1
1834 4595 1
1835 9 1
1835 160 1
1835 966 1
1835 1750 1
1835 2686 1
1835 3266 1
1835 4982 1
1836 118 1
1836 217 1
1836 563 1
1836 1297 1
1836 4087 1
1837 108 1
1837 258 1
1837 300 1
1837 514 1
1837 2369 1
1837 2716 1
1837 2958 1
1837 2970 1
1837 3980 1
1838 5 1
1838 36 1
1838 217 1
1838 341 1
1838 2539 1
1839 149 1
1839 209 1
1839 1300 1
1839 1538 1
1839 2142 1
1839 3220 1
1839 3527 1
1839 4658 1
1840 31 1
1840 212 1
1840 225 1
1840 986 1
1840 3286 1
1840 3542 1
1840 4646 1
1841 137 1
1841 382 1
1841 711 1
1841 1811 1
1841 4793 1
1842 30 1
1842 256 1
1842 400 1
1842 1150 1
1843 21 1
1843 210 1
1843 461 1
1843 752 1
1843 1930 1
1843 2906 1
1843 3261 1
1844 30 1
1844 251 1
1844 1096 1
1844 1327 1
1844 2888 1
1844 4357 1
1845 56 1
1845 377 1
1845 762 1
1845 1369 1
1845 1895 1
1845 2155 1
1845 2604 1
1845 2816 1
1846 106 1
1846 439 1
1846 558 1
1846 625 1
1846 2497 1
1846 2529 1
1846 3789 1
1847 11 1
1847 519 1
1847 727 1
1847 1023 1
1847 2360 1
1847 2587 1
1847 2844 1
1847 4267 1
1847 4551 1
1848 778 1
1848 1247 1
1848 1310 1
1848 1517 1
1848 3347 1
1848 3881 1
1848 4877 1
1849 82 1
1849 209 1
1849 1131 1
1849 1663 1
1849 2693 1
1850 269 1
1850 1552 1
1850 1719 1
1850 1833 1
1850 2704 1
1850 4558 1
1850 4699 1
1851 77 1
1851 121 1
1851 522 1
1851 873 1
1851 1991 1
1852 28 1
1852 755 1
1852 842 1
1852 1221 1
1853 131 1
1853 144 1
1853 386 1
1853 1629 1
1853 4998 1
1854 7 1
1854 10 1
1854 82 1
1854 94 1
1855 6 1
1855 1102 1
1855 1115 1
1855 1359 1
1855 3646 1
1856 492 1
1856 527 1
1856 902 1
1856 1179 1
1856 1970 1
1856 2614 1
1856 3458 1
1856 3551 1
1856 4297 1
1857 32 1
1857 53 1
1857 157 1
1857 1191 1
1857 1907 1
1857 2290 1
1857 3309 1
1857 4484 1
1858 45 1
1858 241 1
1858 423 1
1858 1097 1
1858 2506 1
1858 3209 1
1858 4391 1
1858 4678 1
1858 4802 1
1859 34 1
1859 628 1
1859 652 1
1859 1374 1
1859 1895 1
1860 6 1
1860 534 1
1860 915 1
1860 1648 1
1861 51 1
1861 679 1
1861 1248 1
1861 1566 1
1861 2432 1
1861 3538 1
1862 12 1
1862 568 1
1862 1216 1
1862 1607 1
1863 65 1
1863 118 1
1863 170 1
1863 459 1
1863 2247 1
1864 120 1
1864 173 1
1864 423 1
1864 504 1
1864 3685 1
1864 4388 1
1865 97 1
1865 729 1
1865 743 1
1865 1181 1
1865 2152 1
1865 2783 1
1865 2833 1
1865 3353 1
1865 4176 1
1865 4520 1
1866 73 1
1866 612 1
1866 713 1
1866 1048 1
1866 2587 1
1866 4566 1
1867 8 1
1867 218 1
1867 345 1
1867 680 1
1867 2317 1
1867 3197 1
1868 33 1
1868 89 1
1868 277 1
1868 672 1
1869 32 1
1869 216 1
1869 752 1
1869 1274 1
1870 6 1
1870 26 1
1870 158 1
1870 1025 1
1870 3022 1
1870 3254 1
1871 40 1
1871 89 1
1871 1367 1
1871 1425 1
1871 2207 1
1871 2212 1
1871 2225 1
1871 2566 1
1871 2673 1
1871 2972 1
1871 3034 1
1871 3678 1
1871 3746 1
1871 4507 1
1872 30 1
1872 1007 1
1872 1077 1
1872 1809 1
1873 96 1
1873 292 1
1873 318 1
1873 483 1
1873 3242 1
1873 4203 1
1874 17 1
1874 21 1
1874 1463 1
1874 1470 1
1874 2414 1
1874 2585 1
1874 3727 1
1874 3969 1
1874 4545 1
1874 4729 1
1875 1 1
1875 25 1
1875 52 1
1875 1595 1
1875 1890 1
1875 2360 1
1875 2520 1
1875 4353 1
1876 76 1
1876 500 1
1876 929 1
1876 1252 1
1876 2642 1
1876 3988 1
1877 77 1
1877 176 1
1877 888 1
1877 1411 1
1877 1889 1
1878 31 1
1878 77 1
1878 1036 1
1878 1524 1
1878 3636 1
1879 12 1
1879 65 1
1879 295 1
1879 1614 1
1879 2262 1
1879 2993 1
1879 3578 1
1879 3907 1
1879 4037 1
1880 17 1
1880 170 1
1880 671 1
1880 1202 1
1880 3151 1
1880 4552 1
1881 192 1
1881 333 1
1881 592 1
1881 1524 1
1881 3158 1
1882 3 1
1882 117 1
1882 443 1
1882 616 1
1882 2188 1
1882 2876 1
1883 6 1
1883 530 1
1883 817 1
1883 1148 1
1883 2090 1
1884 1 1
1884 287 1
1884 420 1
1884 923 1
1884 3752 1
1885 47 1
1885 143 1
1885 461 1
1885 1575 1
1885 3886 1
1885 4929 1
1886 6 1
1886 147 1
1886 568 1
1886 1099 1
1886 1956 1
1886 1978 1
1886 2156 1
1886 2160 1
1886 2365 1
1886 3235 1
1886 3526 1
1886 4631 1
1887 75 1
1887 98 1
1887 1656 1
1887 1727 1
1887 1932 1
1887 3016 1
1887 3339 1
1887 3370 1
1887 4717 1
1888 45 1
1888 235 1
1888 836 1
1888 1728 1
1888 4513 1
1889 118 1
1889 129 1
1889 573 1
1889 1877 1
1889 4395 1
1890 292 1
1890 307 1
1890 1614 1
1890 1875 1
1890 1992 1
1890 3122 1
1891 147 1
1891 170 1
1891 207 1
1891 1439 1
1891 2927 1
1891 4212 1
1891 4762 1
1892 21 1
1892 210 1
1892 1523 1
1892 1789 1
1892 2083 1
1892 2631 1
1893 78 1
1893 85 1
1893 741 1
1893 1072 1
1893 2478 1
1893 2965 1
1894 6 1
1894 535 1
1894 818 1
1894 1478 1
1894 3235 1
1895 712 1
1895 1664 1
1895 1845 1
1895 1859 1
1895 3014 1
1895 3185 1
1895 4119 1
1896 75 1
1896 235 1
1896 876 1
1896 1162 1
1896 2377 1
1896 3278 1
1896 4131 1
1896 4802 1
1897 103 1
1897 251 1
1897 318 1
1897 1610 1
1897 2842 1
1897 3083 1
1897 3420 1
1897 3937 1
1898 10 1
1898 113 1
1898 1527 1
1898 1536 1
1898 2030 1
1898 4247 1
1899 12 1
1899 88 1
1899 345 1
1899 1774 1
1899 2447 1
1899 3358 1
1899 3841 1
1900 98 1
1900 213 1
1900 326 1
1900 444 1
1901 14 1
1901 89 1
1901 113 1
1901 1272 1
1901 1946 1
1901 1951 1
1901 2426 1
1901 2535 1
1901 3260 1
1901 3431 1
1901 4678 1
1901 4836 1
1902 175 1
1902 462 1
1902 1251 1
1902 1528 1
1902 4607 1
1903 329 1
1903 1163 1
1903 1193 1
1903 1812 1
1903 2690 1
1903 3118 1
1903 3211 1
1903 4183 1
1903 4736 1
1904 8 1
1904 327 1
1904 712 1
1904 1530 1
1904 4865 1
1904 4953 1
1905 34 1
1905 141 1
1905 473 1
1905 1424 1
1906 10 1
1906 410 1
1906 564 1
1906 589 1
1906 1907 1
1906 3533 1
1906 3738 1
1907 73 1
1907 828 1
1907 1857 1
1907 1906 1
1907 3102 1
1907 4707 1
1908 255 1
1908 311 1
1908 1231 1
1908 1273 1
1908 2087 1
1908 3139 1
1908 3501 1
1909 47 1
1909 176 1
1909 523 1
1909 673 1
1909 3527 1
1909 4591 1
1910 10 1
1910 26 1
1910 45 1
1910 590 1
1910 3161 1
1910 3819 1
1910 4260 1
1911 94 1
1911 143 1
1911 313 1
1911 427 1
1911 3127 1
1911 4119 1
1911 4656 1
1912 16 1
1912 209 1
1912 267 1
1912 917 1
1912 2999 1
1912 3020 1
1912 3230 1
1912 3416 1
1912 3417 1
1912 3672 1
1913 6 1
1913 85 1
1913 898 1
1913 1751 1
1913 2013 1
1913 2420 1
1913 4687 1
1914 141 1
1914 240 1
1914 1022 1
1914 1753 1
1914 2669 1
1914 2779 1
1914 4693 1
1915 8 1
1915 58 1
1915 96 1
1915 423 1
1915 2620 1
1915 3067 1
1916 99 1
1916 174 1
1916 568 1
1916 623 1
1916 2692 1
1916 3704 1
1917 235 1
1917 635 1
1917 885 1
1917 1783 1
1917 3592 1
1918 207 1
1918 229 1
1918 237 1
1918 424 1
1919 1 1
1919 39 1
1919 278 1
1919 1491 1
1919 2651 1
1919 3367 1
1920 10 1
1920 152 1
1920 640 1
1920 1002 1
1920 3012 1
1920 3521 1
1921 9 1
1921 100 1
1921 1266 1
1921 1344 1
1921 2129 1
1922 1 1
1922 188 1
1922 533 1
1922 1021 1
1922 2734 1
1922 4029 1
1922 4567 1
1923 412 1
1923 495 1
1923 808 1
1923 955 1
1923 2694 1
1923 3310 1
1923 4739 1
1924 76 1
1924 109 1
1924 183 1
1924 1202 1
1925 133 1
1925 258 1
1925 1393 1
1925 1437 1
1925 4030 1
1926 47 1
1926 142 1
1926 508 1
1926 1509 1
1926 2197 1
1926 2810 1
1927 18 1
1927 117 1
1927 761 1
1927 1330 1
1927 2308 1
1927 2419 1
1927 2522 1
1927 2867 1
1928 437 1
1928 574 1
1928 629 1
1928 1443 1
1928 2227 1
1928 3852 1
1928 4433 1
1929 11 1
1929 54 1
1929 884 1
1929 1047 1
1929 2069 1
1929 2595 1
1930 1342 1
1930 1585 1
1930 1594 1
1930 1843 1
1930 3943 1
1930 4601 1
1930 4878 1
1931 31 1
1931 352 1
1931 1265 1
1931 1600 1
1931 3250 1
1931 3593 1
1931 3749 1
1931 4509 1
1932 157 1
1932 818 1
1932 875 1
1932 1887 1
1932 3621 1
1933 6 1
1933 129 1
1933 392 1
1933 977 1
1933 1953 1
1933 2237 1
1933 3734 1
1933 3807 1
1933 4467 1
1934 1 1
1934 153 1
1934 1216 1
1934 1561 1
1934 1936 1
1934 2470 1
1934 3063 1
1935 7 1
1935 131 1
1935 385 1
1935 421 1
1935 2583 1
1935 2982 1
1935 3056 1
1935 3188 1
1935 3626 1
1935 3721 1
1935 3979 1
1935 4056 1
1935 4635 1
1936 90 1
1936 171 1
1936 251 1
1936 1934 1
1936 3695 1
1936 3986 1
1937 92 1
1937 298 1
1937 545 1
1937 820 1
1937 3886 1
1937 4862 1
1937 4913 1
1938 287 1
1938 891 1
1938 1312 1
1938 1364 1
1938 3119 1
1938 4006 1
1939 54 1
1939 1022 1
1939 1128 1
1939 1207 1
1939 2105 1
1939 2339 1
1939 2846 1
1940 26 1
1940 90 1
1940 203 1
1940 464 1
1940 2411 1
1941 503 1
1941 621 1
1941 772 1
1941 1385 1
1941 2664 1
1941 4382 1
1942 65 1
1942 206 1
1942 722 1
1942 1111 1
1942 2670 1
1943 8 1
1943 45 1
1943 1061 1
1943 1274 1
1943 2336 1
1943 2509 1
1943 3035 1
1943 3156 1
1944 22 1
1944 147 1
1944 352 1
1944 873 1
1944 2164 1
1944 2761 1
1944 3626 1
1944 3785 1
1945 1 1
1945 353 1
1945 1631 1
1945 1822 1
1945 2473 1
1945 4175 1
1946 625 1
1946 912 1
1946 955 1
1946 1901 1
1946 2493 1
1946 2671 1
1947 108 1
1947 385 1
1947 441 1
1947 1486 1
1947 2348 1
1947 3033 1
1947 3098 1
1947 3243 1
1948 38 1
1948 285 1
1948 573 1
1948 719 1
1949 62 1
1949 302 1
1949 739 1
1949 1131 1
1949 2366 1
1949 2400 1
1950 5 1
1950 53 1
1950 166 1
1950 945 1
1950 2609 1
1950 4567 1
1951 257 1
1951 318 1
1951 552 1
1951 1901 1
1951 2325 1
1951 3857 1
1952 188 1
1952 336 1
1952 1035 1
1952 1328 1
1952 3214 1
1952 3874 1
1953 23 1
1953 189 1
1953 684 1
1953 1933 1
1953 2791 1
1953 2989 1
1953 3219 1
1953 4296 1
1954 1 1
1954 14 1
1954 573 1
1954 1188 1
1954 2124 1
1954 3872 1
1954 4512 1
1954 4869 1
1955 9 1
1955 897 1
1955 1463 1
1955 1657 1
1955 2612 1
1955 3021 1
1955 3373 1
1955 4058 1
1956 10 1
1956 40 1
1956 1379 1
1956 1886 1
1956 4421 1
1957 21 1
1957 31 1
1957 292 1
1957 1661 1
1957 2798 1
1957 3614 1
1958 187 1
1958 233 1
1958 349 1
1958 1000 1
1958 2252 1
1958 3079 1
1958 4604 1
1959 3 1
1959 394 1
1959 436 1
1959 720 1
1959 3021 1
1959 3595 1
1960 272 1
1960 705 1
1960 1218 1
1960 1813 1
1960 3286 1
1961 8 1
1961 49 1
1961 412 1
1961 542 1
1961 2052 1
1961 3615 1
1961 4161 1
1962 15 1
1962 230 1
1962 497 1
1962 961 1
1963 194 1
1963 319 1
1963 603 1
1963 1419 1
1963 2134 1
1963 2498 1
1963 2815 1
1963 2912 1
1963 3515 1
1964 396 1
1964 511 1
1964 929 1
1964 1502 1
1965 11 1
1965 386 1
1965 1279 1
1965 1648 1
1965 2975 1
1966 56 1
1966 66 1
1966 458 1
1966 482 1
1966 2961 1
1966 3553 1
1967 230 1
1967 284 1
1967 437 1
1967 1256 1
1967 2165 1
1967 3338 1
1967 4203 1
1967 4327 1
1968 6 1
1968 51 1
1968 247 1
1968 503 1
1968 2730 1
1968 3581 1
1968 4165 1
1968 4316 1
1968 4707 1
1969 11 1
1969 570 1
1969 912 1
1969 1794 1
1969 2545 1
1969 3315 1
1969 4684 1
1970 75 1
1970 291 1
1970 610 1
1970 1856 1
1970 4494 1
1971 16 1
1971 108 1
1971 218 1
1971 482 1
1972 592 1
1972 723 1
1972 1452 1
1972 1489 1
1972 2541 1
1972 2642 1
1972 3357 1
1973 219 1
1973 480 1
1973 747 1
1973 1498 1
1974 38 1
1974 61 1
1974 64 1
1974 923 1
1974 2184 1
1974 2733 1
1975 68 1
1975 94 1
1975 430 1
1975 1511 1
1976 175 1
1976 819 1
1976 1070 1
1976 1691 1
1977 1 1
1977 186 1
1977 672 1
1977 1235 1
1977 3766 1
1978 118 1
1978 972 1
1978 1485 1
1978 1886 1
1978 2174 1
1978 4614 1
1978 4755 1
1979 92 1
1979 130 1
1979 472 1
1979 1502 1
1979 2338 1
1979 4077 1
1980 12 1
1980 75 1
1980 455 1
1980 844 1
1981 113 1
1981 221 1
1981 276 1
1981 1261 1
1981 2690 1
1981 4936 1
1982 210 1
1982 807 1
1982 1071 1
1982 1574 1
1982 2639 1
1982 2729 1
1982 2787 1
1982 3151 1
1982 3566 1
1982 3612 1
1983 36 1
1983 189 1
1983 307 1
1983 695 1
1983 1998 1
1983 2233 1
1983 3029 1
1983 3779 1
1983 4211 1
1983 4392 1
1983 4942 1
1984 1131 1
1984 1657 1
1984 1695 1
1984 1771 1
1984 2972 1
1984 3320 1
1984 3628 1
1984 3730 1
1984 4844 1
1985 34 1
1985 286 1
1985 442 1
1985 1127 1
1985 3453 1
1985 4290 1
1985 4527 1
1986 7 1
1986 955 1
1986 980 1
1986 1452 1
1986 2027 1
1986 2228 1
1986 2289 1
1986 2414 1
1986 2731 1
1986 2876 1
1986 2911 1
1986 3482 1
1986 4003 1
1986 4449 1
1986 4522 1
1986 4636 1
1987 8 1
1987 800 1
1987 1193 1
1987 1458 1
1987 2170 1
1987 2555 1
1987 2937 1
1988 46 1
1988 199 1
1988 470 1
1988 480 1
1988 2488 1
1988 2803 1
1988 4561 1
1989 31 1
1989 373 1
1989 994 1
1989 1788 1
1989 2646 1
1989 2874 1
1990 34 1
1990 37 1
1990 345 1
1990 1108 1
1990 2033 1
1990 2486 1
1990 3639 1
1990 4309 1
1991 354 1
1991 476 1
1991 1566 1
1991 1851 1
1991 2709 1
1991 3258 1
1992 830 1
1992 1567 1
1992 1739 1
1992 1890 1
1993 136 1
1993 274 1
1993 1327 1
1993 1540 1
1993 2007 1
1993 4036 1
1994 250 1
1994 329 1
1994 763 1
1994 1046 1
1995 623 1
1995 1074 1
1995 1566 1
1995 1604 1
1995 4405 1
1996 11 1
1996 291 1
1996 294 1
1996 704 1
1996 2546 1
1997 56 1
1997 204 1
1997 222 1
1997 303 1
1997 2256 1
1998 27 1
1998 46 1
1998 405 1
1998 1983 1
1998 2198 1
1998 3829 1
1999 14 1
1999 23 1
1999 91 1
1999 1176 1
1999 2219 1
1999 2417 1
1999 2428 1
1999 2467 1
1999 2766 1
1999 3583 1
1999 3912 1
1999 4080 1
2000 132 1
2000 487 1
2000 617 1
2000 1261 1
2000 2271 1
2001 23 1
2001 46 1
2001 1114 1
2001 1416 1
2001 2092 1
2001 2330 1
2001 3435 1
2001 4093 1
2002 61 1
2002 1263 1
2002 1428 1
2002 1772 1
2003 292 1
2003 415 1
2003 1302 1
2003 1633 1
2004 301 1
2004 609 1
2004 615 1
2004 1717 1
2004 4188 1
2005 140 1
2005 147 1
2005 191 1
2005 697 1
2006 17 1
2006 46 1
2006 419 1
2006 1195 1
2006 2089 1
2006 2281 1
2006 2366 1
2006 2472 1
2006 2506 1
2006 2890 1
2006 3505 1
2007 304 1
2007 684 1
2007 1457 1
2007 1993 1
2007 3222 1
2007 3361 1
2007 3461 1
2007 3742 1
2008 123 1
2008 138 1
2008 280 1
2008 970 1
2008 2289 1
2008 2654 1
2008 3107 1
2009 278 1
2009 697 1
2009 699 1
2009 1011 1
2009 4723 1
2010 356 1
2010 362 1
2010 652 1
2010 1453 1
2010 3234 1
2010 3490 1
2010 3822 1
2010 4834 1
2010 4872 1
2011 32 1
2011 832 1
2011 1086 1
2011 1188 1
2011 4783 1
2012 324 1
2012 1188 1
2012 1521 1
2012 1556 1
2012 2117 1
2012 2270 1
2012 2321 1
2012 3031 1
2012 3440 1
2013 180 1
2013 587 1
2013 1363 1
2013 1913 1
2013 2094 1
2013 2964 1
2014 94 1
2014 401 1
2014 923 1
2014 1195 1
2014 2946 1
2014 2951 1
2015 129 1
2015 864 1
2015 1293 1
2015 1550 1
2016 66 1
2016 221 1
2016 473 1
2016 866 1
2016 2419 1
2017 92 1
2017 673 1
2017 1378 1
2017 1526 1
2018 344 1
2018 590 1
2018 1309 1
2018 1709 1
2018 2091 1
2018 2267 1
2018 4298 1
2019 46 1
2019 341 1
2019 713 1
2019 1296 1
2019 2120 1
2019 2126 1
2019 2341 1
2019 2372 1
2019 2780 1
2019 2949 1
2020 172 1
2020 297 1
2020 395 1
2020 587 1
2020 3426 1
2020 3776 1
2020 3904 1
2021 698 1
2021 1015 1
2021 1542 1
2021 1702 1
2021 2341 1
2021 3421 1
2021 3578 1
2021 4313 1
2022 5 1
2022 239 1
2022 269 1
2022 1440 1
2022 4718 1
2023 12 1
2023 111 1
2023 502 1
2023 1358 1
2023 2450 1
2024 61 1
2024 233 1
2024 923 1
2024 1167 1
2024 3683 1
2024 4413 1
2024 4506 1
2024 4801 1
2025 87 1
2025 286 1
2025 365 1
2025 1234 1
2025 2104 1
2026 5 1
2026 436 1
2026 558 1
2026 1649 1
2026 2704 1
2027 12 1
2027 129 1
2027 1797 1
2027 1986 1
2028 147 1
2028 300 1
2028 669 1
2028 1557 1
2028 2879 1
2028 2903 1
2028 3959 1
2028 4227 1
2028 4441 1
2029 56 1
2029 387 1
2029 888 1
2029 1616 1
2030 140 1
2030 1142 1
2030 1734 1
2030 1898 1
2030 2611 1
2030 4052 1
2031 30 1
2031 125 1
2031 400 1
2031 1721 1
2031 3077 1
2031 3246 1
2031 4419 1
2031 4544 1
2031 4668 1
2031 4763 1
2032 16 1
2032 76 1
2032 918 1
2032 993 1
2032 2555 1
2032 3677 1
2032 4152 1
2032 4477 1
2032 4801 1
2032 4851 1
2033 291 1
2033 570 1
2033 958 1
2033 1990 1
2033 2728 1
2033 3693 1
2033 4745 1
2034 165 1
2034 229 1
2034 430 1
2034 1501 1
2035 136 1
2035 194 1
2035 435 1
2035 1735 1
2035 3015 1
2036 43 1
2036 154 1
2036 320 1
2036 1130 1
2036 3187 1
2036 3232 1
2036 4024 1
2037 6 1
2037 30 1
2037 171 1
2037 732 1
2037 2438 1
2037 4287 1
2038 425 1
2038 592 1
2038 799 1
2038 1466 1
2038 3140 1
2038 3460 1
2038 3648 1
2038 3659 1
2038 3972 1
2038 4442 1
2038 4478 1
2039 276 1
2039 381 1
2039 828 1
2039 1816 1
2039 2392 1
2039 2621 1
2039 3842 1
2039 4018 1
2039 4338 1
2040 16 1
2040 89 1
2040 429 1
2040 1717 1
2040 2196 1
2040 3601 1
2040 4175 1
2040 4357 1
2040 4426 1
2040 4441 1
2040 4758 1
2041 149 1
2041 973 1
2041 1228 1
2041 1296 1
2041 2764 1
2041 2945 1
2041 4984 1
2042 75 1
2042 285 1
2042 712 1
2042 792 1
2042 4252 1
2042 4901 1
2042 4908 1
2043 3 1
2043 454 1
2043 876 1
2043 1126 1
2043 2055 1
2043 2590 1
2044 10 1
2044 146 1
2044 256 1
2044 619 1
2044 2299 1
2044 2647 1
2044 3885 1
2045 9 1
2045 1222 1
2045 1233 1
2045 1691 1
2045 2758 1
2045 3357 1
2046 120 1
2046 183 1
2046 502 1
2046 729 1
2046 2425 1
2046 4022 1
2047 6 1
2047 44 1
2047 1100 1
2047 1431 1
2047 2960 1
2047 3691 1
2047 4134 1
2047 4168 1
2048 1 1
2048 309 1
2048 829 1
2048 1674 1
2049 96 1
2049 399 1
2049 828 1
2049 1292 1
2049 2958 1
2049 3846 1
2050 6 1
2050 9 1
2050 37 1
2050 1169 1
2050 2871 1
2050 4518 1
2051 34 1
2051 42 1
2051 113 1
2051 742 1
2051 2154 1
2051 2782 1
2051 3720 1
2052 351 1
2052 710 1
2052 1480 1
2052 1961 1
2052 2831 1
2052 3333 1
2053 78 1
2053 131 1
2053 254 1
2053 487 1
2053 2827 1
2053 2845 1
2053 4817 1
2054 36 1
2054 101 1
2054 733 1
2054 1409 1
2055 251 1
2055 792 1
2055 1717 1
2055 2043 1
2055 2121 1
2055 2752 1
2055 2873 1
2055 3941 1
2056 132 1
2056 1069 1
2056 1494 1
2056 1679 1
2056 3479 1
2056 4809 1
2057 40 1
2057 1043 1
2057 1445 1
2057 1783 1
2057 2142 1
2057 3023 1
2057 3197 1
2057 3216 1
2057 3475 1
2057 4214 1
2058 123 1
2058 537 1
2058 594 1
2058 1216 1
2059 103 1
2059 257 1
2059 962 1
2059 1766 1
2060 85 1
2060 219 1
2060 1084 1
2060 1230 1
2060 3100 1
2060 3810 1
2061 318 1
2061 514 1
2061 620 1
2061 1435 1
2061 4080 1
2062 123 1
2062 228 1
2062 577 1
2062 658 1
2063 6 1
2063 451 1
2063 602 1
2063 1433 1
2063 3025 1
2063 3169 1
2063 3206 1
2063 3706 1
2063 4992 1
2064 160 1
2064 218 1
2064 700 1
2064 756 1
2064 2923 1
2064 3926 1
2064 4102 1
2065 52 1
2065 554 1
2065 717 1
2065 766 1
2066 180 1
2066 508 1
2066 969 1
2066 1040 1
2066 2406 1
2066 2821 1
2066 2958 1
2067 45 1
2067 141 1
2067 623 1
2067 919 1
2067 2842 1
2067 3911 1
2067 4541 1
2067 4777 1
2068 56 1
2068 231 1
2068 395 1
2068 424 1
2068 3320 1
2069 632 1
2069 685 1
2069 856 1
2069 1929 1
2069 2787 1
2069 3000 1
2070 1 1
2070 40 1
2070 371 1
2070 841 1
2070 2304 1
2070 2776 1
2071 21 1
2071 97 1
2071 479 1
2071 671 1
2071 2279 1
2071 2631 1
2071 3500 1
2071 3904 1
2071 4927 1
2072 901 1
2072 966 1
2072 1660 1
2072 1827 1
2073 175 1
2073 291 1
2073 959 1
2073 1240 1
2074 3 1
2074 6 1
2074 143 1
2074 621 1
2074 3444 1
2074 4578 1
2074 4691 1
2075 265 1
2075 738 1
2075 983 1
2075 1110 1
2076 291 1
2076 493 1
2076 521 1
2076 539 1
2076 2818 1
2076 3000 1
2076 3423 1
2076 4073 1
2077 17 1
2077 72 1
2077 307 1
2077 671 1
2077 2504 1
2077 2711 1
2077 3428 1
2077 3480 1
2077 4002 1
2078 5 1
2078 154 1
2078 204 1
2078 1280 1
2079 6 1
2079 127 1
2079 147 1
2079 821 1
2079 2390 1
2079 2839 1
2079 4631 1
2080 50 1
2080 612 1
2080 1389 1
2080 1433 1
2080 2740 1
2080 2896 1
2080 3190 1
2080 3709 1
2080 4624 1
2081 123 1
2081 231 1
2081 1180 1
2081 1533 1
2081 2705 1
2081 3906 1
2081 4669 1
2082 6 1
2082 11 1
2082 322 1
2082 1221 1
2082 2216 1
2083 13 1
2083 17 1
2083 787 1
2083 1892 1
2083 2211 1
2083 2246 1
2083 2327 1
2083 2563 1
2083 2666 1
2083 3268 1
2083 3860 1
2083 4778 1
2084 6 1
2084 46 1
2084 239 1
2084 937 1
2084 2159 1
2084 3596 1
2085 210 1
2085 475 1
2085 1583 1
2085 1681 1
2086 12 1
2086 68 1
2086 110 1
2086 242 1
2086 2115 1
2086 2314 1
2086 3149 1
2086 3504 1
2086 3736 1
2087 316 1
2087 756 1
2087 1366 1
2087 1908 1
2087 2596 1
2087 3251 1
2087 3831 1
2087 4809 1
2087 4887 1
2088 30 1
2088 1060 1
2088 1225 1
2088 1589 1
2088 3091 1
2088 3338 1
2088 4011 1
2088 4687 1
2089 10 1
2089 165 1
2089 1529 1
2089 2006 1
2089 4523 1
2090 506 1
2090 908 1
2090 1619 1
2090 1883 1
2090 3027 1
2090 4406 1
2091 1515 1
2091 1561 1
2091 1758 1
2091 2018 1
2091 2898 1
2091 3569 1
2091 4154 1
2091 4638 1
2091 4652 1
2092 64 1
2092 596 1
2092 1328 1
2092 2001 1
2092 2664 1
2092 3970 1
2093 210 1
2093 929 1
2093 1110 1
2093 1638 1
2094 602 1
2094 1182 1
2094 1761 1
2094 2013 1
2094 3771 1
2094 3930 1
2095 234 1
2095 1108 1
2095 1192 1
2095 1638 1
2095 2940 1
2096 43 1
2096 331 1
2096 644 1
2096 1225 1
2096 2195 1
2096 2393 1
2096 3466 1
2096 3488 1
2096 3954 1
2097 141 1
2097 308 1
2097 360 1
2097 1264 1
2097 3653 1
2097 4457 1
2098 20 1
2098 426 1
2098 750 1
2098 798 1
2099 27 1
2099 30 1
2099 93 1
2099 107 1
2099 3574 1
2099 4058 1
2099 4708 1
2100 75 1
2100 121 1
2100 303 1
2100 975 1
2100 4238 1
2101 1 1
2101 118 1
2101 1631 1
2101 1811 1
2101 4381 1
2101 4546 1
2101 4823 1
2102 1167 1
2102 1312 1
2102 1420 1
2102 1609 1
2103 23 1
2103 120 1
2103 335 1
2103 373 1
2103 2531 1
2103 2624 1
2104 244 1
2104 310 1
2104 713 1
2104 2025 1
2104 2930 1
2104 3206 1
2104 3328 1
2104 4006 1
2104 4016 1
2105 238 1
2105 1037 1
2105 1684 1
2105 1939 1
2105 2888 1
2105 3061 1
2105 3756 1
2105 4010 1
2105 4504 1
2106 1 1
2106 2 1
2106 6 1
2106 8 1
2106 2905 1
2106 3400 1
2106 3401 1
2106 4986 1
2107 12 1
2107 43 1
2107 752 1
2107 831 1
2107 2635 1
2108 105 1
2108 106 1
2108 126 1
2108 872 1
2108 2901 1
2108 3384 1
2108 4314 1
2108 4617 1
2109 10 1
2109 276 1
2109 805 1
2109 1271 1
2109 2742 1
2109 3101 1
2109 4002 1
2109 4612 1
2110 45 1
2110 225 1
2110 1079 1
2110 1769 1
2111 1 1
2111 18 1
2111 269 1
2111 1710 1
2111 2192 1
2111 3489 1
2112 1 1
2112 11 1
2112 138 1
2112 152 1
2112 2148 1
2112 2678 1
2112 3602 1
2112 4460 1
2113 6 1
2113 645 1
2113 863 1
2113 1322 1
2113 4402 1
2114 45 1
2114 49 1
2114 244 1
2114 1188 1
2114 4471 1
2115 169 1
2115 239 1
2115 788 1
2115 2086 1
2115 2906 1
2115 4138 1
2116 39 1
2116 56 1
2116 177 1
2116 1735 1
2116 3365 1
2116 3462 1
2116 3702 1
2116 4458 1
2117 171 1
2117 478 1
2117 1003 1
2117 2012 1
2117 2778 1
2117 2922 1
2117 3086 1
2117 3300 1
2117 3899 1
2117 4830 1
2118 18 1
2118 414 1
2118 748 1
2118 957 1
2118 2275 1
2118 2565 1
2118 3129 1
2118 3861 1
2119 45 1
2119 147 1
2119 273 1
2119 1695 1
2119 2911 1
2119 4831 1
2120 538 1
2120 658 1
2120 1274 1
2120 2019 1
2120 3911 1
2121 56 1
2121 516 1
2121 951 1
2121 2055 1
2121 3227 1
2121 3377 1
2121 3396 1
2121 4326 1
2122 3 1
2122 176 1
2122 214 1
2122 915 1
2123 22 1
2123 60 1
2123 494 1
2123 1089 1
2123 3076 1
2124 53 1
2124 616 1
2124 831 1
2124 1954 1
2124 2128 1
2124 3348 1
2124 3350 1
2125 2 1
2125 5 1
2125 290 1
2125 979 1
2125 2770 1
2126 274 1
2126 493 1
2126 1115 1
2126 2019 1
2126 4171 1
2127 24 1
2127 453 1
2127 720 1
2127 1389 1
2127 3336 1
2127 4962 1
2128 51 1
2128 118 1
2128 1731 1
2128 2124 1
2128 3559 1
2128 4015 1
2129 503 1
2129 586 1
2129 1242 1
2129 1921 1
2129 3869 1
2129 3926 1
2130 141 1
2130 385 1
2130 412 1
2130 1109 1
2130 2874 1
2130 3332 1
2131 23 1
2131 170 1
2131 219 1
2131 998 1
2132 6 1
2132 145 1
2132 665 1
2132 1532 1
2133 158 1
2133 748 1
2133 1020 1
2133 1510 1
2133 4580 1
2133 4737 1
2134 108 1
2134 455 1
2134 1766 1
2134 1963 1
2134 2545 1
2134 3606 1
2134 4399 1
2135 118 1
2135 629 1
2135 669 1
2135 1701 1
2135 2140 1
2135 2219 1
2135 2909 1
2136 381 1
2136 944 1
2136 1377 1
2136 1742 1
2137 218 1
2137 339 1
2137 506 1
2137 1608 1
2137 2633 1
2137 3180 1
2137 3885 1
2137 4231 1
2137 4867 1
2138 106 1
2138 279 1
2138 779 1
2138 824 1
2138 2327 1
2138 3708 1
2138 4898 1
2139 10 1
2139 51 1
2139 100 1
2139 1378 1
2139 3412 1
2139 3432 1
2139 3650 1
2140 68 1
2140 152 1
2140 1271 1
2140 2135 1
2140 3130 1
2141 74 1
2141 154 1
2141 1317 1
2141 1801 1
2141 3085 1
2141 4355 1
2141 4471 1
2141 4556 1
2141 4828 1
2142 58 1
2142 769 1
2142 1839 1
2142 2057 1
2142 3429 1
2143 230 1
2143 257 1
2143 354 1
2143 671 1
2143 2174 1
2143 2269 1
2143 2377 1
2143 2789 1
2143 2878 1
2144 71 1
2144 113 1
2144 680 1
2144 1430 1
2144 2243 1
2144 4159 1
2145 8 1
2145 316 1
2145 508 1
2145 713 1
2145 2869 1
2145 4799 1
2146 183 1
2146 824 1
2146 994 1
2146 1476 1
2146 3238 1
2146 4878 1
2147 14 1
2147 42 1
2147 89 1
2147 233 1
2147 3392 1
2147 3837 1
2148 71 1
2148 139 1
2148 326 1
2148 2112 1
2148 4070 1
2149 8 1
2149 833 1
2149 886 1
2149 1133 1
2149 3831 1
2150 5 1
2150 24 1
2150 371 1
2150 1174 1
2150 3208 1
2150 3289 1
2151 9 1
2151 93 1
2151 170 1
2151 421 1
2151 2183 1
2151 2363 1
2152 359 1
2152 441 1
2152 1001 1
2152 1865 1
2153 10 1
2153 354 1
2153 637 1
2153 1177 1
2153 3271 1
2154 687 1
2154 802 1
2154 1364 1
2154 2051 1
2154 2843 1
2154 3368 1
2155 12 1
2155 568 1
2155 1704 1
2155 1845 1
2156 56 1
2156 117 1
2156 1680 1
2156 1886 1
2156 3441 1
2156 4249 1
2156 4508 1
2157 6 1
2157 55 1
2157 456 1
2157 1230 1
2157 4922 1
2158 481 1
2158 546 1
2158 715 1
2158 962 1
2158 2731 1
2158 3564 1
2158 4475 1
2159 1 1
2159 322 1
2159 519 1
2159 2084 1
2159 4403 1
2159 4682 1
2160 7 1
2160 55 1
2160 761 1
2160 1886 1
2160 2538 1
2160 2592 1
2160 4903 1
2161 300 1
2161 466 1
2161 708 1
2161 1627 1
2161 3360 1
2161 3700 1
2161 3813 1
2161 4623 1
2162 187 1
2162 192 1
2162 296 1
2162 726 1
2163 25 1
2163 101 1
2163 1273 1
2163 1762 1
2163 2408 1
2163 4162 1
2163 4793 1
2163 4885 1
2164 8 1
2164 180 1
2164 964 1
2164 1944 1
2165 10 1
2165 385 1
2165 652 1
2165 1967 1
2165 2340 1
2165 3946 1
2166 1 1
2166 12 1
2166 1141 1
2166 1260 1
2166 3456 1
2167 27 1
2167 38 1
2167 421 1
2167 1011 1
2167 2335 1
2168 516 1
2168 711 1
2168 843 1
2168 1580 1
2168 2300 1
2168 2335 1
2168 3019 1
2168 3275 1
2168 3490 1
2169 33 1
2169 1114 1
2169 1150 1
2169 1450 1
2169 2203 1
2169 2346 1
2169 3436 1
2169 3768 1
2169 4074 1
2169 4374 1
2169 4471 1
2169 4984 1
2170 324 1
2170 729 1
2170 831 1
2170 1987 1
2170 3154 1
2170 4158 1
2171 252 1
2171 1082 1
2171 1436 1
2171 1607 1
2171 3323 1
2172 153 1
2172 290 1
2172 1197 1
2172 1225 1
2172 3346 1
2172 4657 1
2173 65 1
2173 152 1
2173 1264 1
2173 1387 1
2173 3603 1
2173 3978 1
2173 4850 1
2174 239 1
2174 284 1
2174 1978 1
2174 2143 1
2174 3555 1
2175 254 1
2175 447 1
2175 739 1
2175 923 1
2176 36 1
2176 208 1
2176 1265 1
2176 1404 1
2176 3493 1
2176 3886 1
2177 26 1
2177 195 1
2177 645 1
2177 818 1
2177 2217 1
2178 28 1
2178 45 1
2178 82 1
2178 1089 1
2178 3380 1
2179 94 1
2179 516 1
2179 1179 1
2179 1747 1
2179 3230 1
2179 3546 1
2179 3651 1
2179 4868 1
2180 128 1
2180 579 1
2180 1232 1
2180 1480 1
2180 2833 1
2180 4373 1
2181 6 1
2181 33 1
2181 339 1
2181 1345 1
2181 2441 1
2181 3067 1
2181 4007 1
2182 7 1
2182 246 1
2182 486 1
2182 560 1
2182 2240 1
2182 2342 1
2182 3503 1
2182 4818 1
2183 3 1
2183 103 1
2183 477 1
2183 2151 1
2184 271 1
2184 833 1
2184 1726 1
2184 1974 1
2184 3963 1
2185 368 1
2185 433 1
2185 568 1
2185 1230 1
2186 21 1
2186 118 1
2186 909 1
2186 1580 1
2187 6 1
2187 557 1
2187 561 1
2187 621 1
2187 2483 1
2187 3159 1
2187 3639 1
2188 1 1
2188 10 1
2188 1712 1
2188 1882 1
2188 2256 1
2188 2457 1
2188 3222 1
2188 3339 1
2188 4465 1
2189 51 1
2189 54 1
2189 97 1
2189 504 1
2189 2259 1
2189 2866 1
2189 2986 1
2189 3128 1
2189 3549 1
2189 4726 1
2190 31 1
2190 48 1
2190 147 1
2190 1721 1
2190 2302 1
2190 2965 1
2190 3447 1
2190 4430 1
2191 12 1
2191 56 1
2191 625 1
2191 1252 1
2191 2944 1
2192 14 1
2192 147 1
2192 497 1
2192 2111 1
2192 4537 1
2193 606 1
2193 1087 1
2193 1301 1
2193 1640 1
2193 2404 1
2193 4039 1
2194 14 1
2194 74 1
2194 676 1
2194 824 1
2194 4977 1
2195 212 1
2195 461 1
2195 607 1
2195 2096 1
2195 3509 1
2195 3680 1
2195 3967 1
2195 4331 1
2196 81 1
2196 1308 1
2196 1620 1
2196 2040 1
2196 3166 1
2196 3426 1
2197 24 1
2197 106 1
2197 1533 1
2197 1926 1
2197 2531 1
2197 2566 1
2197 3655 1
2198 96 1
2198 217 1
2198 1741 1
2198 1998 1
2199 18 1
2199 72 1
2199 418 1
2199 587 1
2200 62 1
2200 495 1
2200 615 1
2200 763 1
2200 3049 1
2200 4475 1
2201 6 1
2201 503 1
2201 1448 1
2201 1598 1
2201 4114 1
2201 4220 1
2201 4515 1
2202 12 1
2202 58 1
2202 1046 1
2202 1071 1
2202 2329 1
2202 4694 1
2203 20 1
2203 57 1
2203 1422 1
2203 2169 1
2203 2814 1
2203 3436 1
2203 4660 1
2204 1 1
2204 53 1
2204 177 1
2204 401 1
2204 2234 1
2205 78 1
2205 171 1
2205 355 1
2205 1693 1
2205 2328 1
2205 3263 1
2205 3433 1
2205 4931 1
2206 452 1
2206 640 1
2206 830 1
2206 945 1
2206 2345 1
2207 640 1
2207 1601 1
2207 1608 1
2207 1871 1
2207 2679 1
2207 3882 1
2208 184 1
2208 265 1
2208 371 1
2208 956 1
2208 3201 1
2209 63 1
2209 194 1
2209 433 1
2209 833 1
2209 3951 1
2210 27 1
2210 38 1
2210 721 1
2210 1415 1
2210 3450 1
2211 212 1
2211 491 1
2211 522 1
2211 2083 1
2211 2864 1
2211 3807 1
2211 3887 1
2212 221 1
2212 264 1
2212 640 1
2212 1871 1
2213 387 1
2213 658 1
2213 738 1
2213 1286 1
2213 3257 1
2214 50 1
2214 62 1
2214 191 1
2214 951 1
2215 54 1
2215 123 1
2215 130 1
2215 740 1
2215 2311 1
2215 2901 1
2215 3928 1
2215 4550 1
2216 40 1
2216 258 1
2216 569 1
2216 2082 1
2216 2355 1
2217 539 1
2217 1329 1
2217 1795 1
2217 2177 1
2217 2354 1
2217 3928 1
2218 23 1
2218 828 1
2218 1131 1
2218 1657 1
2218 2576 1
2218 3310 1
2218 4842 1
2219 42 1
2219 545 1
2219 1999 1
2219 2135 1
2219 2634 1
2220 36 1
2220 675 1
2220 1200 1
2220 1331 1
2220 3413 1
2221 34 1
2221 77 1
2221 273 1
2221 706 1
2221 2325 1
2221 3096 1
2221 4640 1
2222 9 1
2222 81 1
2222 765 1
2222 1425 1
2223 5 1
2223 17 1
2223 491 1
2223 671 1
2223 4178 1
2223 4402 1
2224 56 1
2224 554 1
2224 1301 1
2224 1543 1
2224 2309 1
2224 2733 1
2224 3790 1
2225 2 1
2225 168 1
2225 441 1
2225 1871 1
2225 3543 1
2226 76 1
2226 361 1
2226 921 1
2226 1001 1
2227 245 1
2227 988 1
2227 1223 1
2227 1928 1
2227 2518 1
2227 4738 1
2228 652 1
2228 697 1
2228 1566 1
2228 1986 1
2229 204 1
2229 237 1
2229 302 1
2229 1439 1
2229 2347 1
2229 2627 1
2229 4798 1
2230 8 1
2230 478 1
2230 671 1
2230 905 1
2230 2811 1
2230 3151 1
2230 3598 1
2231 1 1
2231 1502 1
2231 1545 1
2231 1738 1
2231 3633 1
2231 3652 1
2231 3946 1
2232 81 1
2232 115 1
2232 490 1
2232 1137 1
2233 31 1
2233 669 1
2233 1203 1
2233 1983 1
2233 3439 1
2234 313 1
2234 337 1
2234 602 1
2234 2204 1
2234 3304 1
2234 4144 1
2234 4794 1
2234 4863 1
2234 4982 1
2235 20 1
2235 53 1
2235 91 1
2235 586 1
2235 2769 1
2235 4838 1
2236 53 1
2236 390 1
2236 787 1
2236 1695 1
2236 2607 1
2237 53 1
2237 246 1
2237 1534 1
2237 1933 1
2237 3429 1
2238 1 1
2238 93 1
2238 893 1
2238 1666 1
2238 2482 1
2239 34 1
2239 210 1
2239 344 1
2239 1627 1
2240 60 1
2240 328 1
2240 865 1
2240 2182 1
2240 3501 1
2240 3669 1
2240 3682 1
2241 27 1
2241 155 1
2241 805 1
2241 1089 1
2242 76 1
2242 131 1
2242 1332 1
2242 1644 1
2243 52 1
2243 180 1
2243 684 1
2243 2144 1
2243 3529 1
2244 7 1
2244 99 1
2244 675 1
2244 902 1
2245 857 1
2245 1556 1
2245 1568 1
2245 1785 1
2246 72 1
2246 343 1
2246 404 1
2246 2083 1
2246 3231 1
2246 3590 1
2246 4218 1
2247 81 1
2247 294 1
2247 362 1
2247 1863 1
2247 3757 1
2248 85 1
2248 161 1
2248 207 1
2248 997 1
2248 3017 1
2248 3393 1
2248 4130 1
2249 139 1
2249 799 1
2249 915 1
2249 1621 1
2249 2261 1
2250 23 1
2250 292 1
2250 665 1
2250 844 1
2250 2367 1
2250 3949 1
2250 4111 1
2251 248 1
2251 534 1
2251 545 1
2251 912 1
2251 2524 1
2251 2893 1
2252 8 1
2252 194 1
2252 1356 1
2252 1958 1
2252 2423 1
2252 3306 1
2252 3500 1
2253 54 1
2253 124 1
2253 543 1
2253 711 1
2253 3534 1
2254 12 1
2254 67 1
2254 142 1
2254 1660 1
2254 2718 1
2254 2977 1
2255 16 1
2255 193 1
2255 586 1
2255 1570 1
2255 3671 1
2256 698 1
2256 1587 1
2256 1997 1
2256 2188 1
2256 2747 1
2256 3533 1
2256 4550 1
2256 4569 1
2257 385 1
2257 704 1
2257 745 1
2257 1378 1
2257 2596 1
2257 2623 1
2257 2625 1
2257 3317 1
2257 4538 1
2257 4926 1
2258 25 1
2258 418 1
2258 552 1
2258 640 1
2258 4360 1
2259 419 1
2259 667 1
2259 1542 1
2259 2189 1
2260 25 1
2260 46 1
2260 63 1
2260 1660 1
2260 3482 1
2260 4473 1
2261 46 1
2261 127 1
2261 290 1
2261 2249 1
2261 2499 1
2261 3290 1
2262 633 1
2262 1529 1
2262 1622 1
2262 1879 1
2262 2703 1
2262 2765 1
2262 3441 1
2262 3927 1
2263 65 1
2263 237 1
2263 239 1
2263 1611 1
2263 3394 1
2264 15 1
2264 61 1
2264 116 1
2264 1594 1
2264 3159 1
2265 36 1
2265 76 1
2265 830 1
2265 1748 1
2265 3825 1
2265 4383 1
2266 88 1
2266 93 1
2266 304 1
2266 1804 1
2266 2608 1
2266 3207 1
2266 4445 1
2267 58 1
2267 1339 1
2267 1358 1
2267 2018 1
2267 3068 1
2267 4737 1
2268 105 1
2268 200 1
2268 353 1
2268 1207 1
2268 3086 1
2268 3275 1
2268 3402 1
2268 3916 1
2269 1418 1
2269 1614 1
2269 1780 1
2269 2143 1
2270 91 1
2270 596 1
2270 893 1
2270 2012 1
2271 80 1
2271 481 1
2271 1239 1
2271 2000 1
2272 1 1
2272 180 1
2272 1261 1
2272 1563 1
2272 2941 1
2272 4300 1
2272 4919 1
2273 941 1
2273 1035 1
2273 1192 1
2273 1256 1
2274 14 1
2274 575 1
2274 978 1
2274 1341 1
2274 4630 1
2275 46 1
2275 597 1
2275 909 1
2275 2118 1
2276 110 1
2276 113 1
2276 480 1
2276 973 1
2276 2485 1
2277 1 1
2277 141 1
2277 1261 1
2277 1682 1
2277 2371 1
2277 3039 1
2278 7 1
2278 337 1
2278 377 1
2278 1433 1
2278 2742 1
2278 3697 1
2279 11 1
2279 159 1
2279 750 1
2279 2071 1
2279 3611 1
2279 4895 1
2280 3 1
2280 1063 1
2280 1338 1
2280 1508 1
2281 139 1
2281 227 1
2281 727 1
2281 2006 1
2282 102 1
2282 111 1
2282 304 1
2282 1041 1
2282 2573 1
2282 2856 1
2282 3112 1
2282 3318 1
2282 3486 1
2283 29 1
2283 149 1
2283 266 1
2283 1407 1
2283 2448 1
2283 2455 1
2283 2830 1
2283 3044 1
2283 4140 1
2283 4171 1
2283 4935 1
2284 307 1
2284 364 1
2284 848 1
2284 1608 1
2284 2796 1
2285 1 1
2285 78 1
2285 415 1
2285 1742 1
2285 3028 1
2285 3746 1
2286 218 1
2286 487 1
2286 847 1
2286 929 1
2286 2740 1
2286 4182 1
2286 4245 1
2287 31 1
2287 106 1
2287 251 1
2287 1399 1
2288 212 1
2288 433 1
2288 605 1
2288 1051 1
2289 137 1
2289 449 1
2289 1986 1
2289 2008 1
2289 2763 1
2289 2908 1
2289 2994 1
2289 3271 1
2289 3414 1
2289 3715 1
2289 3721 1
2289 3851 1
2290 12 1
2290 532 1
2290 1627 1
2290 1857 1
2290 2989 1
2290 3167 1
2290 4143 1
2291 36 1
2291 137 1
2291 710 1
2291 1255 1
2292 818 1
2292 954 1
2292 1315 1
2292 1316 1
2292 2865 1
2293 78 1
2293 704 1
2293 1319 1
2293 1546 1
2294 6 1
2294 23 1
2294 1213 1
2294 1523 1
2294 3642 1
2295 6 1
2295 14 1
2295 523 1
2295 1729 1
2295 2711 1
2295 4302 1
2296 872 1
2296 1265 1
2296 1331 1
2296 1566 1
2296 2323 1
2296 3277 1
2296 3641 1
2296 4090 1
2297 398 1
2297 432 1
2297 713 1
2297 1208 1
2297 2497 1
2297 3211 1
2298 95 1
2298 115 1
2298 1292 1
2298 1301 1
2298 2526 1
2298 2592 1
2298 2659 1
2298 4206 1
2299 465 1
2299 751 1
2299 1392 1
2299 2044 1
2299 3767 1
2299 3918 1
2300 972 1
2300 1189 1
2300 1192 1
2300 2168 1
2300 3148 1
2300 4165 1
2300 4757 1
2301 14 1
2301 1120 1
2301 1501 1
2301 1640 1
2301 2968 1
2301 3232 1
2301 4593 1
2302 313 1
2302 1203 1
2302 1761 1
2302 2190 1
2302 2739 1
2302 2840 1
2302 3077 1
2302 3545 1
2302 3852 1
2303 125 1
2303 299 1
2303 337 1
2303 1752 1
2304 81 1
2304 717 1
2304 1225 1
2304 2070 1
2304 4089 1
2304 4110 1
2304 4599 1
2305 238 1
2305 1414 1
2305 1491 1
2305 1730 1
2305 2985 1
2306 167 1
2306 216 1
2306 255 1
2306 857 1
2306 2416 1
2306 2744 1
2306 3005 1
2306 3228 1
2306 3508 1
2306 3524 1
2306 3742 1
2306 4947 1
2307 327 1
2307 360 1
2307 528 1
2307 673 1
2307 2326 1
2307 3225 1
2307 3553 1
2307 4715 1
2307 4806 1
2308 658 1
2308 1323 1
2308 1762 1
2308 1927 1
2308 2435 1
2309 123 1
2309 178 1
2309 1209 1
2309 2224 1
2309 4918 1
2310 73 1
2310 458 1
2310 652 1
2310 1203 1
2310 4331 1
2310 4611 1
2310 4648 1
2311 297 1
2311 1137 1
2311 1260 1
2311 2215 1
2311 3189 1
2311 3234 1
2311 3376 1
2311 4412 1
2312 226 1
2312 491 1
2312 832 1
2312 1323 1
2313 85 1
2313 204 1
2313 583 1
2313 1135 1
2313 4974 1
2314 113 1
2314 618 1
2314 1087 1
2314 2086 1
2314 2954 1
2315 15 1
2315 30 1
2315 910 1
2315 1116 1
2315 2427 1
2315 2773 1
2315 3276 1
2315 3924 1
2315 4303 1
2316 45 1
2316 335 1
2316 605 1
2316 908 1
2317 11 1
2317 35 1
2317 1373 1
2317 1867 1
2317 2769 1
2317 3622 1
2318 17 1
2318 76 1
2318 236 1
2318 430 1
2318 4452 1
2318 4880 1
2319 72 1
2319 203 1
2319 1681 1
2319 1792 1
2319 2642 1
2320 1031 1
2320 1086 1
2320 1195 1
2320 1453 1
2320 3937 1
2321 61 1
2321 588 1
2321 1297 1
2321 2012 1
2321 2588 1
2321 3081 1
2321 3337 1
2321 3536 1
2321 3726 1
2322 43 1
2322 241 1
2322 447 1
2322 563 1
2322 4303 1
2323 81 1
2323 453 1
2323 1373 1
2323 2296 1
2323 2936 1
2324 243 1
2324 334 1
2324 868 1
2324 1214 1
2324 2987 1
2324 3649 1
2324 3801 1
2324 4746 1
2325 307 1
2325 506 1
2325 1951 1
2325 2221 1
2325 2895 1
2326 574 1
2326 905 1
2326 1614 1
2326 2307 1
2326 2812 1
2326 4288 1
2327 23 1
2327 1430 1
2327 2083 1
2327 2138 1
2327 2673 1
2327 2759 1
2327 3178 1
2327 4095 1
2328 91 1
2328 1239 1
2328 1274 1
2328 2205 1
2328 4814 1
2328 4884 1
2329 111 1
2329 1393 1
2329 1727 1
2329 2202 1
2329 2932 1
2329 3136 1
2329 3148 1
2329 3901 1
2329 4068 1
2329 4697 1
2329 4848 1
2329 4894 1
2330 138 1
2330 716 1
2330 1241 1
2330 2001 1
2330 4148 1
2331 23 1
2331 34 1
2331 503 1
2331 912 1
2331 2778 1
2331 4819 1
2332 66 1
2332 74 1
2332 586 1
2332 1207 1
2332 3181 1
2333 93 1
2333 925 1
2333 1034 1
2333 1235 1
2333 2351 1
2333 3437 1
2333 4343 1
2334 14 1
2334 134 1
2334 625 1
2334 1430 1
2334 2393 1
2335 100 1
2335 298 1
2335 2167 1
2335 2168 1
2335 3259 1
2335 4103 1
2335 4940 1
2336 61 1
2336 632 1
2336 1105 1
2336 1943 1
2337 19 1
2337 639 1
2337 808 1
2337 1765 1
2337 2519 1
2337 3150 1
2337 4783 1
2338 1 1
2338 57 1
2338 187 1
2338 1979 1
2339 43 1
2339 455 1
2339 1125 1
2339 1939 1
2340 111 1
2340 479 1
2340 552 1
2340 2165 1
2340 2589 1
2341 273 1
2341 278 1
2341 2019 1
2341 2021 1
2341 2618 1
2341 2700 1
2341 2881 1
2341 3171 1
2341 4300 1
2341 4649 1
2341 4690 1
2342 10 1
2342 1088 1
2342 1186 1
2342 2182 1
2343 6 1
2343 108 1
2343 727 1
2343 1088 1
2343 3852 1
2343 4529 1
2343 4867 1
2344 36 1
2344 206 1
2344 669 1
2344 1169 1
2345 53 1
2345 68 1
2345 423 1
2345 2206 1
2345 3239 1
2345 3397 1
2345 3669 1
2345 3981 1
2345 4484 1
2346 3 1
2346 388 1
2346 618 1
2346 2169 1
2347 206 1
2347 270 1
2347 1717 1
2347 2229 1
2347 2794 1
2347 2823 1
2347 4513 1
2348 430 1
2348 779 1
2348 1546 1
2348 1947 1
2349 573 1
2349 791 1
2349 923 1
2349 1362 1
2350 17 1
2350 88 1
2350 181 1
2350 483 1
2350 4943 1
2351 228 1
2351 1252 1
2351 1450 1
2351 2333 1
2351 3898 1
2351 4534 1
2352 54 1
2352 219 1
2352 1087 1
2352 1808 1
2352 2431 1
2352 4765 1
2353 29 1
2353 77 1
2353 410 1
2353 1301 1
2353 2604 1
2354 36 1
2354 109 1
2354 392 1
2354 2217 1
2354 4964 1
2355 515 1
2355 545 1
2355 840 1
2355 2216 1
2355 2667 1
2356 40 1
2356 569 1
2356 1084 1
2356 1385 1
2356 3066 1
2357 23 1
2357 42 1
2357 496 1
2357 1741 1
2357 2912 1
2357 4323 1
2358 310 1
2358 1227 1
2358 1243 1
2358 1338 1
2358 2714 1
2358 4291 1
2359 1 1
2359 1393 1
2359 1474 1
2359 1613 1
2360 6 1
2360 247 1
2360 1847 1
2360 1875 1
2361 27 1
2361 57 1
2361 143 1
2361 241 1
2361 3513 1
2361 3544 1
2361 3658 1
2361 4578 1
2362 58 1
2362 111 1
2362 176 1
2362 625 1
2362 3968 1
2363 210 1
2363 227 1
2363 940 1
2363 2151 1
2363 3924 1
2363 4519 1
2364 113 1
2364 375 1
2364 437 1
2364 1018 1
2364 3427 1
2365 496 1
2365 586 1
2365 1813 1
2365 1886 1
2365 3113 1
2365 3568 1
2365 4807 1
2366 492 1
2366 1597 1
2366 1949 1
2366 2006 1
2366 2435 1
2366 2727 1
2366 3177 1
2366 3452 1
2366 4196 1
2366 4371 1
2366 4745 1
2367 484 1
2367 1508 1
2367 1585 1
2367 2250 1
2367 4570 1
2368 12 1
2368 212 1
2368 291 1
2368 1478 1
2368 3145 1
2368 3170 1
2368 3535 1
2368 4729 1
2368 4953 1
2369 12 1
2369 86 1
2369 635 1
2369 1837 1
2370 1 1
2370 9 1
2370 186 1
2370 842 1
2370 3006 1
2370 3543 1
2371 604 1
2371 937 1
2371 1251 1
2371 2277 1
2371 3776 1
2372 175 1
2372 243 1
2372 1129 1
2372 2019 1
2372 4720 1
2373 224 1
2373 422 1
2373 623 1
2373 1371 1
2374 36 1
2374 645 1
2374 856 1
2374 1348 1
2374 4311 1
2375 6 1
2375 157 1
2375 706 1
2375 1277 1
2376 492 1
2376 727 1
2376 1584 1
2376 1603 1
2376 3214 1
2376 4321 1
2376 4361 1
2377 1 1
2377 337 1
2377 1896 1
2377 2143 1
2377 2939 1
2378 46 1
2378 102 1
2378 157 1
2378 485 1
2378 4767 1
2379 36 1
2379 201 1
2379 246 1
2379 392 1
2379 3437 1
2379 3564 1
2379 3906 1
2379 4384 1
2380 25 1
2380 77 1
2380 195 1
2380 531 1
2380 2848 1
2380 3557 1
2381 8 1
2381 1029 1
2381 1392 1
2381 1586 1
2381 2833 1
2381 4517 1
2382 23 1
2382 61 1
2382 334 1
2382 498 1
2382 3087 1
2382 3255 1
2383 352 1
2383 923 1
2383 1071 1
2383 1455 1
2384 6 1
2384 108 1
2384 327 1
2384 624 1
2385 6 1
2385 117 1
2385 1133 1
2385 1202 1
2385 2807 1
2386 1 1
2386 100 1
2386 147 1
2386 154 1
2386 2427 1
2387 249 1
2387 434 1
2387 1139 1
2387 1508 1
2388 269 1
2388 1152 1
2388 1429 1
2388 1702 1
2388 2597 1
2389 3 1
2389 298 1
2389 396 1
2389 707 1
2389 2479 1
2389 3493 1
2389 3672 1
2389 3950 1
2389 3954 1
2390 131 1
2390 334 1
2390 1256 1
2390 2079 1
2390 2463 1
2390 4010 1
2391 50 1
2391 59 1
2391 1500 1
2391 1823 1
2391 3072 1
2391 3172 1
2391 4159 1
2391 4928 1
2392 291 1
2392 657 1
2392 729 1
2392 2039 1
2392 2473 1
2392 3018 1
2393 964 1
2393 1344 1
2393 2096 1
2393 2334 1
2393 2639 1
2393 4261 1
2394 51 1
2394 189 1
2394 220 1
2394 693 1
2394 4054 1
2394 4292 1
2394 4645 1
2395 656 1
2395 1495 1
2395 1562 1
2395 1730 1
2395 3773 1
2395 3860 1
2396 75 1
2396 375 1
2396 409 1
2396 833 1
2396 3746 1
2396 3872 1
2397 126 1
2397 444 1
2397 961 1
2397 1495 1
2398 3 1
2398 30 1
2398 97 1
2398 111 1
2398 3474 1
2399 620 1
2399 757 1
2399 1039 1
2399 1571 1
2399 2785 1
2399 3829 1
2400 48 1
2400 301 1
2400 1463 1
2400 1949 1
2400 3041 1
2401 20 1
2401 256 1
2401 273 1
2401 1139 1
2402 16 1
2402 792 1
2402 1503 1
2402 1645 1
2402 3122 1
2402 3477 1
2403 103 1
2403 128 1
2403 189 1
2403 1128 1
2403 3818 1
2404 292 1
2404 1010 1
2404 1301 1
2404 2193 1
2404 4440 1
2404 4560 1
2404 4857 1
2405 217 1
2405 257 1
2405 1305 1
2405 1545 1
2406 54 1
2406 239 1
2406 304 1
2406 2066 1
2407 422 1
2407 546 1
2407 1315 1
2407 1677 1
2408 118 1
2408 530 1
2408 679 1
2408 2163 1
2409 27 1
2409 46 1
2409 760 1
2409 994 1
2410 138 1
2410 368 1
2410 907 1
2410 1372 1
2410 2700 1
2410 3133 1
2410 3360 1
2410 4034 1
2410 4847 1
2411 1 1
2411 64 1
2411 1681 1
2411 1940 1
2411 3342 1
2411 4521 1
2412 97 1
2412 163 1
2412 891 1
2412 895 1
2412 2723 1
2412 3222 1
2412 3765 1
2413 78 1
2413 456 1
2413 684 1
2413 919 1
2414 783 1
2414 1299 1
2414 1874 1
2414 1986 1
2414 3179 1
2414 3351 1
2414 3658 1
2415 510 1
2415 758 1
2415 953 1
2415 1661 1
2416 1 1
2416 281 1
2416 621 1
2416 2306 1
2416 4773 1
2417 205 1
2417 1048 1
2417 1063 1
2417 1999 1
2417 2434 1
2417 3120 1
2417 3824 1
2417 3912 1
2417 4342 1
2418 6 1
2418 69 1
2418 158 1
2418 857 1
2419 1515 1
2419 1730 1
2419 1927 1
2419 2016 1
2420 173 1
2420 828 1
2420 1699 1
2420 1913 1
2421 12 1
2421 55 1
2421 262 1
2421 524 1
2422 125 1
2422 173 1
2422 174 1
2422 204 1
2422 3024 1
2422 3446 1
2422 4670 1
2423 85 1
2423 163 1
2423 828 1
2423 2252 1
2423 4540 1
2424 61 1
2424 721 1
2424 820 1
2424 897 1
2424 2613 1
2424 2984 1
2424 3836 1
2424 3868 1
2424 4948 1
2425 12 1
2425 15 1
2425 146 1
2425 2046 1
2425 2549 1
2425 3192 1
2425 3554 1
2426 58 1
2426 102 1
2426 613 1
2426 1901 1
2426 3833 1
2427 91 1
2427 827 1
2427 2315 1
2427 2386 1
2427 4903 1
2428 74 1
2428 95 1
2428 786 1
2428 1999 1
2429 258 1
2429 396 1
2429 1558 1
2429 1664 1
2429 3237 1
2430 14 1
2430 25 1
2430 553 1
2430 1232 1
2430 2774 1
2431 422 1
2431 460 1
2431 1681 1
2431 2352 1
2431 2810 1
2431 3039 1
2432 560 1
2432 836 1
2432 1758 1
2432 1861 1
2433 3 1
2433 8 1
2433 419 1
2433 1519 1
2433 2554 1
2433 3999 1
2434 387 1
2434 543 1
2434 1693 1
2434 2417 1
2434 3840 1
2435 76 1
2435 132 1
2435 2308 1
2435 2366 1
2435 2617 1
2436 53 1
2436 486 1
2436 653 1
2436 1342 1
2437 595 1
2437 715 1
2437 1120 1
2437 1301 1
2437 2910 1
2437 3812 1
2437 3902 1
2437 3920 1
2437 4236 1
2438 85 1
2438 266 1
2438 1126 1
2438 2037 1
2438 2828 1
2438 4722 1
2439 63 1
2439 449 1
2439 1048 1
2439 1291 1
2439 3917 1
2439 4363 1
2439 4811 1
2439 4971 1
2440 75 1
2440 840 1
2440 1275 1
2440 1690 1
2441 269 1
2441 305 1
2441 321 1
2441 2181 1
2441 4859 1
2442 34 1
2442 361 1
2442 373 1
2442 1118 1
2442 2666 1
2442 2973 1
2442 3744 1
2442 4996 1
2443 47 1
2443 176 1
2443 550 1
2443 608 1
2443 3465 1
2443 3875 1
2444 343 1
2444 449 1
2444 1345 1
2444 1647 1
2444 3716 1
2445 1 1
2445 15 1
2445 337 1
2445 1504 1
2445 2504 1
2445 3256 1
2446 175 1
2446 263 1
2446 1460 1
2446 1665 1
2447 13 1
2447 144 1
2447 1000 1
2447 1899 1
2447 2567 1
2447 2863 1
2447 3259 1
2447 4106 1
2448 1 1
2448 9 1
2448 57 1
2448 2283 1
2448 2771 1
2448 4576 1
2449 401 1
2449 712 1
2449 1494 1
2449 1619 1
2449 3844 1
2450 5 1
2450 373 1
2450 908 1
2450 2023 1
2450 2586 1
2450 2930 1
2450 3313 1
2450 4288 1
2451 40 1
2451 800 1
2451 937 1
2451 1619 1
2451 2551 1
2451 4696 1
2452 30 1
2452 265 1
2452 401 1
2452 955 1
2452 3233 1
2452 3246 1
2453 48 1
2453 239 1
2453 341 1
2453 807 1
2454 29 1
2454 74 1
2454 224 1
2454 1080 1
2454 4188 1
2455 10 1
2455 497 1
2455 865 1
2455 2283 1
2455 3866 1
2456 81 1
2456 476 1
2456 746 1
2456 979 1
2456 2801 1
2457 74 1
2457 1055 1
2457 1743 1
2457 2188 1
2457 3314 1
2457 3332 1
2458 14 1
2458 37 1
2458 499 1
2458 643 1
2459 175 1
2459 285 1
2459 305 1
2459 1116 1
2459 4074 1
2459 4331 1
2460 14 1
2460 54 1
2460 94 1
2460 549 1
2460 3116 1
2461 21 1
2461 791 1
2461 1400 1
2461 1406 1
2462 46 1
2462 272 1
2462 374 1
2462 1697 1
2462 4176 1
2462 4193 1
2463 18 1
2463 615 1
2463 747 1
2463 2390 1
2463 2479 1
2463 2668 1
2463 4057 1
2464 122 1
2464 139 1
2464 539 1
2464 1681 1
2465 141 1
2465 662 1
2465 1317 1
2465 1754 1
2465 2471 1
2465 3021 1
2465 4169 1
2465 4554 1
2466 6 1
2466 71 1
2466 77 1
2466 279 1
2467 53 1
2467 76 1
2467 1703 1
2467 1999 1
2467 4437 1
2468 2 1
2468 255 1
2468 360 1
2468 953 1
2468 3502 1
2468 3742 1
2469 482 1
2469 617 1
2469 1036 1
2469 1288 1
2469 3138 1
2469 3917 1
2470 57 1
2470 846 1
2470 1402 1
2470 1934 1
2470 3083 1
2470 4495 1
2471 30 1
2471 392 1
2471 582 1
2471 2465 1
2471 3146 1
2471 3585 1
2471 4862 1
2472 516 1
2472 1152 1
2472 1678 1
2472 2006 1
2472 3069 1
2473 671 1
2473 854 1
2473 1945 1
2473 2392 1
2473 2619 1
2473 3153 1
2473 3435 1
2473 4019 1
2474 6 1
2474 56 1
2474 1091 1
2474 1807 1
2475 596 1
2475 836 1
2475 837 1
2475 1757 1
2475 2838 1
2476 10 1
2476 94 1
2476 158 1
2476 160 1
2476 2635 1
2476 3019 1
2477 103 1
2477 409 1
2477 487 1
2477 1480 1
2477 4250 1
2477 4625 1
2478 49 1
2478 610 1
2478 1771 1
2478 1893 1
2478 3307 1
2479 464 1
2479 978 1
2479 2389 1
2479 2463 1
2479 3050 1
2480 171 1
2480 251 1
2480 376 1
2480 836 1
2480 3193 1
2481 873 1
2481 917 1
2481 1021 1
2481 1613 1
2482 40 1
2482 80 1
2482 875 1
2482 2238 1
2482 2797 1
2482 4042 1
2483 240 1
2483 614 1
2483 1430 1
2483 2187 1
2484 185 1
2484 311 1
2484 723 1
2484 1645 1
2485 576 1
2485 1210 1
2485 1235 1
2485 2276 1
2486 81 1
2486 346 1
2486 1608 1
2486 1990 1
2486 4160 1
2487 5 1
2487 10 1
2487 164 1
2487 667 1
2487 3037 1
2487 3897 1
2488 3 1
2488 335 1
2488 1518 1
2488 1988 1
2488 2542 1
2488 3010 1
2488 4178 1
2488 4209 1
2489 161 1
2489 219 1
2489 587 1
2489 1258 1
2489 2505 1
2489 2577 1
2490 6 1
2490 192 1
2490 1047 1
2490 1375 1
2490 2640 1
2490 2707 1
2490 3433 1
2490 3874 1
2491 55 1
2491 323 1
2491 457 1
2491 1612 1
2491 3801 1
2491 4255 1
2491 4905 1
2491 4993 1
2492 65 1
2492 167 1
2492 1075 1
2492 1503 1
2492 2870 1
2492 4596 1
2493 319 1
2493 457 1
2493 671 1
2493 1946 1
2493 3115 1
2493 3587 1
2493 3795 1
2493 4093 1
2493 4767 1
2494 258 1
2494 329 1
2494 363 1
2494 966 1
2495 6 1
2495 32 1
2495 75 1
2495 582 1
2495 4172 1
2495 4250 1
2495 4932 1
2496 191 1
2496 273 1
2496 712 1
2496 1498 1
2496 3847 1
2496 4055 1
2497 36 1
2497 886 1
2497 1846 1
2497 2297 1
2497 4539 1
2497 4580 1
2498 430 1
2498 1237 1
2498 1402 1
2498 1963 1
2498 3221 1
2498 3586 1
2498 3692 1
2499 513 1
2499 836 1
2499 1177 1
2499 2261 1
2499 4835 1
2500 232 1
2500 346 1
2500 663 1
2500 973 1
2500 3008 1
2500 3502 1
2500 4407 1
2500 4599 1
2501 74 1
2501 111 1
2501 125 1
2501 769 1
2501 2897 1
2501 3035 1
2502 16 1
2502 30 1
2502 183 1
2502 246 1
2502 2544 1
2503 34 1
2503 243 1
2503 486 1
2503 993 1
2503 3224 1
2503 4358 1
2504 671 1
2504 1456 1
2504 2077 1
2504 2445 1
2504 3280 1
2505 217 1
2505 354 1
2505 762 1
2505 2489 1
2506 3 1
2506 497 1
2506 1858 1
2506 2006 1
2507 132 1
2507 320 1
2507 855 1
2507 1710 1
2507 2528 1
2507 3324 1
2508 1 1
2508 265 1
2508 425 1
2508 1295 1
2508 2936 1
2508 4610 1
2509 10 1
2509 132 1
2509 491 1
2509 1943 1
2510 8 1
2510 157 1
2510 1003 1
2510 1301 1
2510 3374 1
2510 3550 1
2510 3696 1
2510 4512 1
2511 9 1
2511 78 1
2511 838 1
2511 1080 1
2511 2581 1
2511 4237 1
2511 4532 1
2512 131 1
2512 428 1
2512 652 1
2512 1214 1
2512 4665 1
2513 6 1
2513 20 1
2513 401 1
2513 1425 1
2513 3264 1
2513 4755 1
2514 38 1
2514 213 1
2514 431 1
2514 611 1
2514 3441 1
2514 4078 1
2514 4398 1
2515 16 1
2515 1212 1
2515 1331 1
2515 1402 1
2515 2775 1
2515 3065 1
2515 3650 1
2515 4408 1
2516 765 1
2516 1587 1
2516 1595 1
2516 1812 1
2516 2679 1
2516 3124 1
2516 3452 1
2517 73 1
2517 531 1
2517 982 1
2517 1197 1
2518 621 1
2518 923 1
2518 1197 1
2518 2227 1
2518 4937 1
2519 86 1
2519 299 1
2519 1014 1
2519 2337 1
2519 3336 1
2519 3403 1
2519 3930 1
2520 6 1
2520 224 1
2520 1701 1
2520 1875 1
2520 4337 1
2521 13 1
2521 534 1
2521 1485 1
2521 1545 1
2521 2939 1
2522 7 1
2522 715 1
2522 955 1
2522 1927 1
2522 3544 1
2522 3643 1
2523 2 1
2523 147 1
2523 1014 1
2523 1727 1
2523 2696 1
2523 3154 1
2523 3189 1
2523 4262 1
2524 26 1
2524 498 1
2524 1257 1
2524 2251 1
2525 1 1
2525 24 1
2525 846 1
2525 1603 1
2526 145 1
2526 662 1
2526 860 1
2526 2298 1
2527 339 1
2527 1069 1
2527 1660 1
2527 1662 1
2527 3291 1
2527 4244 1
2527 4556 1
2528 28 1
2528 302 1
2528 702 1
2528 2507 1
2529 65 1
2529 435 1
2529 1054 1
2529 1846 1
2529 2994 1
2530 10 1
2530 18 1
2530 116 1
2530 1727 1
2530 3147 1
2531 393 1
2531 794 1
2531 2103 1
2531 2197 1
2531 3201 1
2532 131 1
2532 980 1
2532 1052 1
2532 1727 1
2532 2678 1
2533 121 1
2533 271 1
2533 309 1
2533 872 1
2533 2981 1
2533 3236 1
2534 3 1
2534 34 1
2534 118 1
2534 810 1
2534 4191 1
2535 192 1
2535 514 1
2535 1295 1
2535 1901 1
2535 3619 1
2536 5 1
2536 30 1
2536 274 1
2536 739 1
2537 9 1
2537 23 1
2537 40 1
2537 285 1
2537 3950 1
2537 4735 1
2537 4736 1
2538 137 1
2538 176 1
2538 428 1
2538 2160 1
2539 2 1
2539 91 1
2539 1341 1
2539 1838 1
2540 444 1
2540 642 1
2540 1498 1
2540 1692 1
2540 2926 1
2541 13 1
2541 1403 1
2541 1587 1
2541 1972 1
2542 147 1
2542 195 1
2542 1228 1
2542 2488 1
2542 2691 1
2543 78 1
2543 311 1
2543 696 1
2543 994 1
2543 3843 1
2544 29 1
2544 120 1
2544 589 1
2544 2502 1
2544 3867 1
2545 295 1
2545 1440 1
2545 1969 1
2545 2134 1
2546 327 1
2546 928 1
2546 1775 1
2546 1996 1
2546 2767 1
2547 9 1
2547 982 1
2547 1114 1
2547 1463 1
2547 2786 1
2547 3370 1
2548 466 1
2548 1003 1
2548 1273 1
2548 1761 1
2548 4136 1
2548 4279 1
2548 4685 1
2549 424 1
2549 548 1
2549 1631 1
2549 2425 1
2550 131 1
2550 194 1
2550 223 1
2550 949 1
2550 2778 1
2550 3684 1
2551 673 1
2551 851 1
2551 1684 1
2551 2451 1
2552 35 1
2552 104 1
2552 936 1
2552 1491 1
2553 88 1
2553 490 1
2553 765 1
2553 873 1
2553 2647 1
2553 2998 1
2553 4243 1
2553 4462 1
2553 4470 1
2553 4874 1
2554 18 1
2554 329 1
2554 515 1
2554 2433 1
2554 4838 1
2555 22 1
2555 1786 1
2555 1987 1
2555 2032 1
2556 158 1
2556 205 1
2556 406 1
2556 1627 1
2556 2822 1
2556 3256 1
2557 38 1
2557 52 1
2557 111 1
2557 1731 1
2557 4262 1
2558 3 1
2558 966 1
2558 968 1
2558 1638 1
2558 2852 1
2558 3030 1
2558 3704 1
2559 46 1
2559 65 1
2559 589 1
2559 1572 1
2559 3366 1
2559 3518 1
2560 12 1
2560 52 1
2560 177 1
2560 1533 1
2560 2583 1
2560 2675 1
2560 3848 1
2560 4062 1
2560 4835 1
2561 9 1
2561 134 1
2561 552 1
2561 578 1
2561 4608 1
2562 51 1
2562 118 1
2562 1368 1
2562 1813 1
2562 2699 1
2562 4389 1
2562 4909 1
2563 637 1
2563 945 1
2563 1130 1
2563 2083 1
2563 4769 1
2564 825 1
2564 1641 1
2564 1701 1
2564 1815 1
2564 4192 1
2565 65 1
2565 748 1
2565 1794 1
2565 2118 1
2566 503 1
2566 1509 1
2566 1871 1
2566 2197 1
2566 3053 1
2566 3371 1
2566 4315 1
2566 4536 1
2567 30 1
2567 58 1
2567 229 1
2567 2447 1
2567 3381 1
2567 3925 1
2567 4981 1
2568 106 1
2568 833 1
2568 1325 1
2568 1504 1
2569 29 1
2569 171 1
2569 400 1
2569 723 1
2570 6 1
2570 7 1
2570 45 1
2570 693 1
2570 2605 1
2570 3982 1
2570 4904 1
2571 11 1
2571 40 1
2571 80 1
2571 1509 1
2571 2725 1
2572 12 1
2572 22 1
2572 75 1
2572 508 1
2572 2780 1
2572 2797 1
2572 2813 1
2573 994 1
2573 1198 1
2573 1214 1
2573 2282 1
2573 3773 1
2573 3857 1
2573 4646 1
2574 90 1
2574 332 1
2574 499 1
2574 530 1
2574 2737 1
2574 3267 1
2575 1 1
2575 10 1
2575 628 1
2575 755 1
2575 2829 1
2575 4653 1
2576 187 1
2576 1025 1
2576 1192 1
2576 2218 1
2576 4184 1
2577 7 1
2577 1546 1
2577 1664 1
2577 2489 1
2578 137 1
2578 175 1
2578 326 1
2578 1589 1
2578 3163 1
2579 123 1
2579 571 1
2579 1364 1
2579 1709 1
2580 5 1
2580 16 1
2580 66 1
2580 106 1
2580 2691 1
2580 3249 1
2580 3808 1
2581 40 1
2581 143 1
2581 1339 1
2581 2511 1
2581 4015 1
2581 4430 1
2582 95 1
2582 474 1
2582 599 1
2582 706 1
2583 247 1
2583 999 1
2583 1935 1
2583 2560 1
2583 2860 1
2584 8 1
2584 208 1
2584 1228 1
2584 1776 1
2585 75 1
2585 210 1
2585 1832 1
2585 1874 1
2586 528 1
2586 836 1
2586 1311 1
2586 2450 1
2586 4411 1
2587 22 1
2587 819 1
2587 1847 1
2587 1866 1
2588 3 1
2588 361 1
2588 900 1
2588 2321 1
2588 3131 1
2588 3688 1
2589 271 1
2589 886 1
2589 959 1
2589 2340 1
2589 4321 1
2590 183 1
2590 1273 1
2590 1582 1
2590 2043 1
2591 6 1
2591 291 1
2591 430 1
2591 770 1
2591 2925 1
2591 3382 1
2591 4073 1
2592 1509 1
2592 1642 1
2592 2160 1
2592 2298 1
2592 2603 1
2592 3868 1
2593 38 1
2593 133 1
2593 207 1
2593 845 1
2593 3948 1
2594 6 1
2594 466 1
2594 1225 1
2594 1565 1
2594 3592 1
2595 6 1
2595 570 1
2595 602 1
2595 1929 1
2595 3084 1
2596 6 1
2596 30 1
2596 2087 1
2596 2257 1
2596 4920 1
2597 283 1
2597 372 1
2597 788 1
2597 2388 1
2597 2712 1
2597 4089 1
2598 3 1
2598 1108 1
2598 1324 1
2598 1556 1
2598 2920 1
2599 3 1
2599 141 1
2599 1200 1
2599 1495 1
2600 1 1
2600 56 1
2600 100 1
2600 149 1
2601 49 1
2601 144 1
2601 346 1
2601 511 1
2601 3149 1
2602 130 1
2602 210 1
2602 213 1
2602 1284 1
2602 2999 1
2602 3976 1
2602 4241 1
2603 692 1
2603 1214 1
2603 1566 1
2603 2592 1
2603 3545 1
2604 498 1
2604 630 1
2604 1845 1
2604 2353 1
2604 4065 1
2605 204 1
2605 556 1
2605 742 1
2605 2570 1
2605 4704 1
2606 50 1
2606 145 1
2606 376 1
2606 433 1
2606 3738 1
2607 692 1
2607 701 1
2607 1111 1
2607 2236 1
2607 3601 1
2607 4218 1
2607 4289 1
2608 27 1
2608 415 1
2608 1253 1
2608 2266 1
2608 3316 1
2609 143 1
2609 257 1
2609 682 1
2609 1950 1
2609 4103 1
2610 9 1
2610 182 1
2610 596 1
2610 658 1
2610 2907 1
2610 3884 1
2610 4315 1
2610 4529 1
2611 218 1
2611 966 1
2611 1206 1
2611 2030 1
2611 3329 1
2612 131 1
2612 1489 1
2612 1490 1
2612 1955 1
2612 2645 1
2612 2931 1
2612 3190 1
2612 3343 1
2613 45 1
2613 189 1
2613 604 1
2613 2424 1
2613 2845 1
2613 2891 1
2614 191 1
2614 520 1
2614 1688 1
2614 1856 1
2614 2737 1
2614 3981 1
2615 21 1
2615 83 1
2615 183 1
2615 729 1
2616 16 1
2616 28 1
2616 199 1
2616 861 1
2616 2659 1
2616 3480 1
2616 4772 1
2617 14 1
2617 124 1
2617 1239 1
2617 2435 1
2617 4614 1
2618 72 1
2618 1065 1
2618 1625 1
2618 2341 1
2618 2988 1
2618 4351 1
2619 147 1
2619 169 1
2619 1361 1
2619 2473 1
2619 3002 1
2619 3600 1
2619 4377 1
2620 433 1
2620 449 1
2620 574 1
2620 1915 1
2620 3356 1
2621 23 1
2621 34 1
2621 55 1
2621 2039 1
2621 2881 1
2621 3561 1
2621 3661 1
2622 5 1
2622 76 1
2622 1024 1
2622 1501 1
2622 3128 1
2622 3449 1
2623 6 1
2623 31 1
2623 88 1
2623 2257 1
2623 2656 1
2623 3491 1
2623 4688 1
2624 16 1
2624 717 1
2624 975 1
2624 2103 1
2624 3662 1
2625 34 1
2625 176 1
2625 413 1
2625 2257 1
2626 12 1
2626 59 1
2626 1136 1
2626 1167 1
2626 3350 1
2626 3734 1
2627 1084 1
2627 1249 1
2627 1403 1
2627 2229 1
2627 2757 1
2627 2992 1
2628 27 1
2628 855 1
2628 1613 1
2628 1622 1
2628 3252 1
2629 3 1
2629 123 1
2629 875 1
2629 1105 1
2629 2927 1
2629 3038 1
2629 4495 1
2629 4551 1
2630 76 1
2630 177 1
2630 1395 1
2630 1486 1
2631 6 1
2631 581 1
2631 1892 1
2631 2071 1
2631 4697 1
2632 76 1
2632 131 1
2632 354 1
2632 1485 1
2632 3656 1
2632 3747 1
2632 3957 1
2632 4084 1
2632 4177 1
2633 98 1
2633 373 1
2633 1032 1
2633 2137 1
2633 2967 1
2633 4048 1
2633 4550 1
2634 895 1
2634 1393 1
2634 1431 1
2634 2219 1
2634 3487 1
2634 3512 1
2634 3541 1
2634 3557 1
2634 3600 1
2635 27 1
2635 75 1
2635 2107 1
2635 2476 1
2636 38 1
2636 137 1
2636 1176 1
2636 1675 1
2636 3952 1
2636 4122 1
2637 78 1
2637 122 1
2637 134 1
2637 1291 1
2637 3552 1
2638 7 1
2638 223 1
2638 520 1
2638 1484 1
2638 3051 1
2639 318 1
2639 1228 1
2639 1982 1
2639 2393 1
2639 3199 1
2639 3856 1
2639 4155 1
2639 4184 1
2640 339 1
2640 761 1
2640 1829 1
2640 2490 1
2641 105 1
2641 677 1
2641 1477 1
2641 1495 1
2641 3022 1
2641 3593 1
2641 4732 1
2642 623 1
2642 1876 1
2642 1972 1
2642 2319 1
2642 3360 1
2643 116 1
2643 182 1
2643 568 1
2643 1603 1
2644 643 1
2644 951 1
2644 1315 1
2644 1363 1
2645 54 1
2645 403 1
2645 768 1
2645 2612 1
2645 3525 1
2646 11 1
2646 156 1
2646 1338 1
2646 1989 1
2647 5 1
2647 98 1
2647 2044 1
2647 2553 1
2647 2725 1
2647 3500 1
2648 65 1
2648 71 1
2648 823 1
2648 1287 1
2648 2922 1
2648 3115 1
2649 51 1
2649 578 1
2649 776 1
2649 1719 1
2649 2683 1
2649 2705 1
2649 4123 1
2650 120 1
2650 157 1
2650 494 1
2650 1589 1
2650 3754 1
2651 217 1
2651 744 1
2651 1440 1
2651 1919 1
2651 4989 1
2652 123 1
2652 212 1
2652 512 1
2652 1040 1
2652 3105 1
2653 154 1
2653 588 1
2653 833 1
2653 1360 1
2654 101 1
2654 166 1
2654 249 1
2654 2008 1
2654 3367 1
2654 4418 1
2654 4533 1
2655 81 1
2655 131 1
2655 1000 1
2655 1293 1
2655 2720 1
2655 3858 1
2655 3870 1
2656 257 1
2656 619 1
2656 1736 1
2656 2623 1
2657 30 1
2657 106 1
2657 243 1
2657 1103 1
2657 2868 1
2657 4129 1
2658 38 1
2658 265 1
2658 724 1
2658 993 1
2658 2915 1
2658 3894 1
2659 115 1
2659 1610 1
2659 2298 1
2659 2616 1
2659 3732 1
2660 9 1
2660 53 1
2660 1293 1
2660 1546 1
2660 2689 1
2660 2841 1
2661 31 1
2661 46 1
2661 118 1
2661 532 1
2661 4527 1
2662 48 1
2662 101 1
2662 577 1
2662 1384 1
2662 3802 1
2663 145 1
2663 204 1
2663 505 1
2663 1216 1
2664 103 1
2664 107 1
2664 1941 1
2664 2092 1
2664 2675 1
2664 4877 1
2665 511 1
2665 1029 1
2665 1132 1
2665 1425 1
2665 2847 1
2665 3097 1
2665 3539 1
2666 38 1
2666 64 1
2666 2083 1
2666 2442 1
2666 3717 1
2667 23 1
2667 72 1
2667 755 1
2667 2355 1
2667 2798 1
2667 3727 1
2667 4820 1
2668 171 1
2668 766 1
2668 1080 1
2668 2463 1
2668 4156 1
2669 18 1
2669 464 1
2669 488 1
2669 1914 1
2669 3635 1
2669 4230 1
2669 4764 1
2670 61 1
2670 519 1
2670 1168 1
2670 1942 1
2670 2837 1
2670 3418 1
2670 4124 1
2670 4493 1
2671 299 1
2671 666 1
2671 710 1
2671 1946 1
2672 387 1
2672 604 1
2672 820 1
2672 923 1
2672 3119 1
2673 12 1
2673 639 1
2673 1871 1
2673 2327 1
2673 4593 1
2674 118 1
2674 131 1
2674 152 1
2674 577 1
2674 4100 1
2674 4362 1
2674 4552 1
2675 302 1
2675 1115 1
2675 2560 1
2675 2664 1
2675 4469 1
2676 78 1
2676 353 1
2676 1536 1
2676 1607 1
2676 3113 1
2677 34 1
2677 81 1
2677 816 1
2677 1068 1
2677 2716 1
2677 2870 1
2677 3438 1
2678 737 1
2678 1480 1
2678 2112 1
2678 2532 1
2678 3895 1
2678 4044 1
2679 979 1
2679 1019 1
2679 2207 1
2679 2516 1
2680 7 1
2680 175 1
2680 419 1
2680 535 1
2680 3664 1
2680 4213 1
2680 4540 1
2680 4861 1
2680 4872 1
2681 23 1
2681 239 1
2681 343 1
2681 1690 1
2681 3383 1
2682 46 1
2682 74 1
2682 486 1
2682 742 1
2683 93 1
2683 310 1
2683 455 1
2683 2649 1
2683 3089 1
2683 3997 1
2683 4050 1
2683 4136 1
2684 289 1
2684 801 1
2684 859 1
2684 1660 1
2685 76 1
2685 202 1
2685 433 1
2685 624 1
2686 18 1
2686 634 1
2686 1411 1
2686 1835 1
2687 229 1
2687 439 1
2687 1180 1
2687 1807 1
2687 3949 1
2688 57 1
2688 766 1
2688 1089 1
2688 1275 1
2688 4924 1
2689 210 1
2689 749 1
2689 1023 1
2689 2660 1
2689 3487 1
2689 3738 1
2690 884 1
2690 1613 1
2690 1903 1
2690 1981 1
2690 3054 1
2691 89 1
2691 1093 1
2691 2542 1
2691 2580 1
2691 4661 1
2691 4786 1
2692 10 1
2692 497 1
2692 566 1
2692 1916 1
2692 4532 1
2693 7 1
2693 12 1
2693 1526 1
2693 1849 1
2693 3550 1
2693 4235 1
2694 53 1
2694 187 1
2694 1354 1
2694 1923 1
2695 17 1
2695 609 1
2695 1060 1
2695 1550 1
2695 3798 1
2696 23 1
2696 52 1
2696 292 1
2696 2523 1
2697 11 1
2697 172 1
2697 335 1
2697 399 1
2697 2960 1
2697 4747 1
2698 385 1
2698 953 1
2698 1020 1
2698 1317 1
2698 4267 1
2699 6 1
2699 1008 1
2699 1219 1
2699 2562 1
2700 61 1
2700 1414 1
2700 2341 1
2700 2410 1
2700 3315 1
2701 77 1
2701 206 1
2701 1349 1
2701 1693 1
2701 4231 1
2702 36 1
2702 84 1
2702 209 1
2702 1283 1
2703 99 1
2703 210 1
2703 1541 1
2703 2262 1
2703 3052 1
2703 3890 1
2703 4013 1
2704 217 1
2704 1470 1
2704 1850 1
2704 2026 1
2704 3915 1
2705 271 1
2705 281 1
2705 2081 1
2705 2649 1
2705 3793 1
2706 209 1
2706 382 1
2706 676 1
2706 1445 1
2706 4069 1
2706 4692 1
2707 80 1
2707 109 1
2707 260 1
2707 2490 1
2707 2955 1
2707 3804 1
2707 4390 1
2708 2 1
2708 45 1
2708 144 1
2708 612 1
2709 29 1
2709 319 1
2709 1228 1
2709 1991 1
2709 3796 1
2710 53 1
2710 102 1
2710 749 1
2710 1086 1
2710 3637 1
2711 412 1
2711 701 1
2711 2077 1
2711 2295 1
2711 3442 1
2712 50 1
2712 516 1
2712 1416 1
2712 2597 1
2712 2996 1
2713 411 1
2713 586 1
2713 885 1
2713 1267 1
2713 2715 1
2713 3414 1
2713 4164 1
2714 45 1
2714 384 1
2714 1123 1
2714 2358 1
2714 3916 1
2715 40 1
2715 147 1
2715 523 1
2715 2713 1
2715 4224 1
2716 1113 1
2716 1724 1
2716 1837 1
2716 2677 1
2716 2818 1
2716 4948 1
2717 111 1
2717 239 1
2717 425 1
2717 1687 1
2718 382 1
2718 402 1
2718 621 1
2718 2254 1
2718 2873 1
2718 4716 1
2719 30 1
2719 38 1
2719 341 1
2719 1229 1
2719 2756 1
2719 2871 1
2719 3618 1
2719 4028 1
2720 30 1
2720 147 1
2720 471 1
2720 2655 1
2721 5 1
2721 24 1
2721 671 1
2721 846 1
2721 3336 1
2721 3490 1
2721 3666 1
2721 3767 1
2721 3866 1
2721 4172 1
2722 98 1
2722 206 1
2722 526 1
2722 701 1
2722 4510 1
2723 8 1
2723 1202 1
2723 1339 1
2723 2412 1
2723 2880 1
2723 4139 1
2723 4211 1
2724 1 1
2724 31 1
2724 53 1
2724 1350 1
2724 3038 1
2725 143 1
2725 1523 1
2725 2571 1
2725 2647 1
2726 1 1
2726 30 1
2726 621 1
2726 1385 1
2727 24 1
2727 91 1
2727 399 1
2727 2366 1
2727 2854 1
2728 8 1
2728 120 1
2728 348 1
2728 2033 1
2729 11 1
2729 302 1
2729 1384 1
2729 1982 1
2729 3609 1
2729 4014 1
2730 132 1
2730 399 1
2730 1540 1
2730 1968 1
2731 1075 1
2731 1240 1
2731 1986 1
2731 2158 1
2731 2878 1
2731 3566 1
2731 3635 1
2731 4742 1
2732 1 1
2732 184 1
2732 352 1
2732 1393 1
2732 4850 1
2732 4926 1
2733 34 1
2733 1428 1
2733 1974 1
2733 2224 1
2733 3109 1
2733 4295 1
2734 115 1
2734 361 1
2734 1667 1
2734 1922 1
2735 1 1
2735 7 1
2735 488 1
2735 1635 1
2735 3095 1
2735 3645 1
2735 3817 1
2735 4053 1
2735 4498 1
2736 17 1
2736 1148 1
2736 1203 1
2736 1485 1
2736 3481 1
2737 7 1
2737 1019 1
2737 2574 1
2737 2614 1
2737 3042 1
2737 4978 1
2738 11 1
2738 82 1
2738 159 1
2738 578 1
2739 27 1
2739 117 1
2739 642 1
2739 2302 1
2739 2844 1
2739 3145 1
2740 951 1
2740 1155 1
2740 2080 1
2740 2286 1
2741 51 1
2741 173 1
2741 267 1
2741 1000 1
2742 6 1
2742 1204 1
2742 2109 1
2742 2278 1
2742 4282 1
2742 4693 1
2743 10 1
2743 12 1
2743 359 1
2743 626 1
2743 2913 1
2743 4088 1
2743 4160 1
2744 11 1
2744 41 1
2744 1312 1
2744 2306 1
2744 3013 1
2744 3736 1
2744 4845 1
2745 7 1
2745 91 1
2745 912 1
2745 1340 1
2745 2794 1
2745 3425 1
2745 4210 1
2745 4269 1
2745 4378 1
2746 492 1
2746 669 1
2746 968 1
2746 1235 1
2746 4087 1
2747 231 1
2747 891 1
2747 1241 1
2747 2256 1
2747 3072 1
2747 4487 1
2748 571 1
2748 647 1
2748 1323 1
2748 1437 1
2748 4066 1
2749 41 1
2749 356 1
2749 557 1
2749 1385 1
2750 1 1
2750 40 1
2750 129 1
2750 1495 1
2751 12 1
2751 147 1
2751 221 1
2751 1145 1
2751 2867 1
2752 478 1
2752 859 1
2752 1016 1
2752 2055 1
2752 4260 1
2753 14 1
2753 267 1
2753 864 1
2753 1482 1
2753 3010 1
2753 3060 1
2753 4590 1
2754 28 1
2754 109 1
2754 728 1
2754 1318 1
2754 3695 1
2754 3854 1
2754 4473 1
2754 4715 1
2755 156 1
2755 181 1
2755 365 1
2755 449 1
2756 19 1
2756 27 1
2756 227 1
2756 2719 1
2756 2953 1
2756 3208 1
2756 4272 1
2757 9 1
2757 467 1
2757 766 1
2757 2627 1
2758 88 1
2758 149 1
2758 1351 1
2758 2045 1
2758 3596 1
2758 3837 1
2758 4146 1
2758 4479 1
2758 4699 1
2758 4722 1
2758 4848 1
2758 4915 1
2759 6 1
2759 288 1
2759 1502 1
2759 2327 1
2759 3238 1
2760 101 1
2760 996 1
2760 1035 1
2760 1546 1
2761 519 1
2761 743 1
2761 1007 1
2761 1944 1
2762 6 1
2762 176 1
2762 277 1
2762 1831 1
2762 2929 1
2763 2 1
2763 645 1
2763 1411 1
2763 2289 1
2763 4910 1
2764 405 1
2764 406 1
2764 698 1
2764 2041 1
2765 12 1
2765 72 1
2765 610 1
2765 2262 1
2766 51 1
2766 357 1
2766 1482 1
2766 1999 1
2767 426 1
2767 487 1
2767 1339 1
2767 2546 1
2767 3815 1
2768 356 1
2768 680 1
2768 703 1
2768 1048 1
2769 202 1
2769 1212 1
2769 2235 1
2769 2317 1
2770 166 1
2770 247 1
2770 1350 1
2770 2125 1
2770 3119 1
2771 123 1
2771 642 1
2771 1119 1
2771 2448 1
2771 4322 1
2771 4450 1
2772 27 1
2772 349 1
2772 466 1
2772 476 1
2773 20 1
2773 38 1
2773 109 1
2773 2315 1
2773 4275 1
2774 223 1
2774 347 1
2774 348 1
2774 2430 1
2774 3447 1
2775 337 1
2775 399 1
2775 927 1
2775 2515 1
2776 355 1
2776 816 1
2776 1358 1
2776 2070 1
2777 671 1
2777 1014 1
2777 1076 1
2777 1442 1
2778 237 1
2778 2117 1
2778 2331 1
2778 2550 1
2779 301 1
2779 1072 1
2779 1461 1
2779 1914 1
2779 3507 1
2780 79 1
2780 85 1
2780 2019 1
2780 2572 1
2780 3907 1
2781 291 1
2781 800 1
2781 952 1
2781 1195 1
2781 4296 1
2782 2 1
2782 12 1
2782 444 1
2782 2051 1
2782 4586 1
2782 4810 1
2782 4988 1
2783 131 1
2783 206 1
2783 723 1
2783 1865 1
2784 7 1
2784 17 1
2784 253 1
2784 321 1
2784 2949 1
2784 3973 1
2784 4336 1
2785 30 1
2785 564 1
2785 1218 1
2785 2399 1
2785 2805 1
2785 3556 1
2785 4480 1
2786 1 1
2786 6 1
2786 1155 1
2786 2547 1
2786 3165 1
2786 3220 1
2786 3638 1
2786 4092 1
2786 4383 1
2786 4770 1
2787 1116 1
2787 1637 1
2787 1982 1
2787 2069 1
2788 21 1
2788 721 1
2788 1384 1
2788 1761 1
2788 2851 1
2789 500 1
2789 897 1
2789 898 1
2789 2143 1
2789 3405 1
2790 1 1
2790 345 1
2790 587 1
2790 1056 1
2790 3321 1
2791 587 1
2791 1606 1
2791 1771 1
2791 1953 1
2791 3483 1
2792 97 1
2792 305 1
2792 1312 1
2792 1819 1
2792 3132 1
2793 34 1
2793 85 1
2793 104 1
2793 115 1
2793 2960 1
2794 10 1
2794 118 1
2794 2347 1
2794 2745 1
2795 313 1
2795 683 1
2795 882 1
2795 1648 1
2795 3163 1
2796 16 1
2796 98 1
2796 302 1
2796 2284 1
2797 151 1
2797 824 1
2797 2482 1
2797 2572 1
2797 3191 1
2797 3257 1
2797 4373 1
2797 4551 1
2797 4730 1
2798 34 1
2798 653 1
2798 1957 1
2798 2667 1
2798 4669 1
2799 43 1
2799 571 1
2799 1160 1
2799 1432 1
2799 4526 1
2800 308 1
2800 450 1
2800 1204 1
2800 1777 1
2801 46 1
2801 621 1
2801 662 1
2801 2456 1
2801 4790 1
2802 5 1
2802 257 1
2802 348 1
2802 1757 1
2802 3485 1
2803 31 1
2803 246 1
2803 1181 1
2803 1988 1
2803 4012 1
2803 4056 1
2804 106 1
2804 652 1
2804 865 1
2804 913 1
2804 2983 1
2804 3372 1
2804 3424 1
2804 4490 1
2805 447 1
2805 783 1
2805 897 1
2805 2785 1
2805 3001 1
2805 4171 1
2806 14 1
2806 186 1
2806 709 1
2806 1588 1
2806 3379 1
2807 159 1
2807 736 1
2807 1802 1
2807 2385 1
2807 3750 1
2807 3777 1
2808 195 1
2808 348 1
2808 1384 1
2808 1399 1
2808 4803 1
2809 40 1
2809 58 1
2809 271 1
2809 1456 1
2810 23 1
2810 91 1
2810 1926 1
2810 2431 1
2810 4268 1
2811 21 1
2811 149 1
2811 1182 1
2811 2230 1
2811 3455 1
2811 4191 1
2811 4571 1
2812 17 1
2812 108 1
2812 217 1
2812 2326 1
2812 4138 1
2812 4452 1
2812 4510 1
2813 268 1
2813 345 1
2813 1452 1
2813 2572 1
2813 4837 1
2814 287 1
2814 383 1
2814 1096 1
2814 2203 1
2815 140 1
2815 187 1
2815 491 1
2815 1963 1
2815 3047 1
2815 3939 1
2816 97 1
2816 503 1
2816 508 1
2816 1845 1
2817 1 1
2817 91 1
2817 126 1
2817 1003 1
2817 2950 1
2818 503 1
2818 1576 1
2818 2076 1
2818 2716 1
2818 2842 1
2818 4249 1
2819 372 1
2819 443 1
2819 464 1
2819 1297 1
2819 3710 1
2819 3997 1
2819 4322 1
2820 11 1
2820 76 1
2820 320 1
2820 1827 1
2820 4581 1
2821 511 1
2821 528 1
2821 1549 1
2821 2066 1
2821 3353 1
2821 3699 1
2822 1346 1
2822 1486 1
2822 1747 1
2822 2556 1
2823 188 1
2823 189 1
2823 610 1
2823 2347 1
2823 4756 1
2824 43 1
2824 237 1
2824 513 1
2824 1264 1
2824 3623 1
2824 4045 1
2824 4841 1
2824 4958 1
2825 1 1
2825 44 1
2825 105 1
2825 418 1
2825 2839 1
2825 3260 1
2825 4234 1
2826 29 1
2826 109 1
2826 672 1
2826 1734 1
2827 38 1
2827 475 1
2827 1501 1
2827 2053 1
2827 2857 1
2828 7 1
2828 11 1
2828 34 1
2828 2438 1
2829 6 1
2829 117 1
2829 1271 1
2829 2575 1
2829 4997 1
2830 63 1
2830 1068 1
2830 1241 1
2830 2283 1
2830 2869 1
2830 4595 1
2831 66 1
2831 108 1
2831 672 1
2831 2052 1
2831 4016 1
2832 1 1
2832 27 1
2832 853 1
2832 1273 1
2832 4017 1
2832 4422 1
2832 4680 1
2832 4996 1
2833 1756 1
2833 1865 1
2833 2180 1
2833 2381 1
2834 21 1
2834 85 1
2834 638 1
2834 1148 1
2834 4751 1
2834 4965 1
2835 117 1
2835 263 1
2835 775 1
2835 1505 1
2835 3031 1
2835 3107 1
2835 3219 1
2836 545 1
2836 772 1
2836 1089 1
2836 1633 1
2836 3459 1
2836 4603 1
2837 183 1
2837 1039 1
2837 1334 1
2837 2670 1
2837 2860 1
2837 3114 1
2838 186 1
2838 497 1
2838 1451 1
2838 2475 1
2838 3569 1
2838 4379 1
2839 731 1
2839 931 1
2839 2079 1
2839 2825 1
2839 2923 1
2839 4141 1
2840 12 1
2840 843 1
2840 853 1
2840 2302 1
2840 3118 1
2840 4253 1
2840 4679 1
2841 1416 1
2841 1462 1
2841 1704 1
2841 2660 1
2841 3636 1
2842 1494 1
2842 1897 1
2842 2067 1
2842 2818 1
2843 3 1
2843 40 1
2843 146 1
2843 2154 1
2844 76 1
2844 247 1
2844 1847 1
2844 2739 1
2845 527 1
2845 1012 1
2845 2053 1
2845 2613 1
2845 3282 1
2845 4467 1
2846 430 1
2846 603 1
2846 796 1
2846 1939 1
2847 30 1
2847 583 1
2847 1755 1
2847 2665 1
2848 211 1
2848 1025 1
2848 1070 1
2848 2380 1
2848 3999 1
2848 4133 1
2849 65 1
2849 205 1
2849 537 1
2849 1197 1
2849 3505 1
2850 52 1
2850 106 1
2850 167 1
2850 182 1
2850 2939 1
2851 71 1
2851 1703 1
2851 1743 1
2851 2788 1
2852 680 1
2852 972 1
2852 1094 1
2852 2558 1
2852 3889 1
2852 4311 1
2853 117 1
2853 271 1
2853 962 1
2853 1193 1
2853 2889 1
2853 3409 1
2854 24 1
2854 537 1
2854 1507 1
2854 2727 1
2855 26 1
2855 221 1
2855 355 1
2855 1699 1
2855 3962 1
2855 3986 1
2855 4239 1
2856 503 1
2856 1463 1
2856 1482 1
2856 2282 1
2857 392 1
2857 555 1
2857 1065 1
2857 2827 1
2857 4314 1
2857 4972 1
2858 125 1
2858 205 1
2858 226 1
2858 1262 1
2858 2887 1
2859 58 1
2859 231 1
2859 536 1
2859 911 1
2859 4040 1
2859 4178 1
2859 4308 1
2860 16 1
2860 1117 1
2860 2583 1
2860 2837 1
2861 30 1
2861 116 1
2861 1014 1
2861 1183 1
2861 3356 1
2861 4063 1
2862 59 1
2862 286 1
2862 364 1
2862 1195 1
2862 3902 1
2862 3957 1
2863 276 1
2863 413 1
2863 631 1
2863 2447 1
2863 4738 1
2863 4843 1
2864 30 1
2864 458 1
2864 584 1
2864 2211 1
2864 2940 1
2864 3024 1
2864 4876 1
2865 316 1
2865 348 1
2865 637 1
2865 2292 1
2865 3819 1
2866 531 1
2866 1324 1
2866 1781 1
2866 2189 1
2866 3146 1
2867 3 1
2867 687 1
2867 1927 1
2867 2751 1
2868 107 1
2868 284 1
2868 1315 1
2868 2657 1
2869 704 1
2869 900 1
2869 2145 1
2869 2830 1
2869 3625 1
2869 4974 1
2870 2 1
2870 1383 1
2870 2492 1
2870 2677 1
2870 3546 1
2870 3707 1
2871 1098 1
2871 1603 1
2871 2050 1
2871 2719 1
2872 1 1
2872 72 1
2872 85 1
2872 297 1
2872 3416 1
2873 217 1
2873 1624 1
2873 2055 1
2873 2718 1
2874 61 1
2874 618 1
2874 1989 1
2874 2130 1
2875 50 1
2875 123 1
2875 219 1
2875 1345 1
2876 240 1
2876 683 1
2876 1882 1
2876 1986 1
2876 4043 1
2877 41 1
2877 88 1
2877 1341 1
2877 1398 1
2878 11 1
2878 736 1
2878 2143 1
2878 2731 1
2878 4702 1
2879 88 1
2879 277 1
2879 646 1
2879 2028 1
2880 71 1
2880 242 1
2880 759 1
2880 2723 1
2881 524 1
2881 1480 1
2881 2341 1
2881 2621 1
2882 2 1
2882 207 1
2882 1756 1
2882 1776 1
2882 4711 1
2882 4986 1
2883 57 1
2883 131 1
2883 149 1
2883 565 1
2883 3580 1
2883 4075 1
2884 13 1
2884 514 1
2884 622 1
2884 787 1
2884 4723 1
2885 1 1
2885 46 1
2885 1064 1
2885 1413 1
2885 4281 1
2885 4305 1
2886 124 1
2886 145 1
2886 348 1
2886 1031 1
2887 23 1
2887 42 1
2887 356 1
2887 2858 1
2888 6 1
2888 1291 1
2888 1844 1
2888 2105 1
2889 139 1
2889 176 1
2889 1822 1
2889 2853 1
2889 4199 1
2889 4821 1
2890 105 1
2890 149 1
2890 1357 1
2890 2006 1
2890 3846 1
2891 315 1
2891 399 1
2891 413 1
2891 2613 1
2891 2982 1
2891 3086 1
2891 3592 1
2891 4102 1
2892 17 1
2892 67 1
2892 458 1
2892 1674 1
2893 331 1
2893 684 1
2893 1221 1
2893 2251 1
2893 4100 1
2893 4360 1
2894 546 1
2894 972 1
2894 1294 1
2894 1391 1
2894 2985 1
2895 3 1
2895 29 1
2895 1189 1
2895 2325 1
2896 51 1
2896 498 1
2896 975 1
2896 2080 1
2896 4766 1
2897 67 1
2897 449 1
2897 934 1
2897 2501 1
2897 3847 1
2897 4703 1
2898 240 1
2898 1727 1
2898 1792 1
2898 2091 1
2898 3228 1
2898 3569 1
2899 188 1
2899 345 1
2899 697 1
2899 972 1
2899 3813 1
2899 4787 1
2900 385 1
2900 465 1
2900 1137 1
2900 1595 1
2900 3701 1
2900 4236 1
2901 1055 1
2901 1259 1
2901 2108 1
2901 2215 1
2901 3088 1
2902 1 1
2902 92 1
2902 856 1
2902 1547 1
2902 3073 1
2903 261 1
2903 668 1
2903 1823 1
2903 2028 1
2904 30 1
2904 277 1
2904 621 1
2904 1446 1
2904 3765 1
2904 3792 1
2904 4302 1
2905 109 1
2905 817 1
2905 1036 1
2905 2106 1
2905 3398 1
2906 147 1
2906 1083 1
2906 1843 1
2906 2115 1
2907 7 1
2907 106 1
2907 157 1
2907 2610 1
2907 3395 1
2908 230 1
2908 959 1
2908 975 1
2908 2289 1
2909 280 1
2909 326 1
2909 620 1
2909 2135 1
2909 3123 1
2910 34 1
2910 265 1
2910 753 1
2910 2437 1
2910 4826 1
2911 1610 1
2911 1671 1
2911 1986 1
2911 2119 1
2911 3999 1
2912 126 1
2912 485 1
2912 1963 1
2912 2357 1
2912 3908 1
2913 102 1
2913 1080 1
2913 1538 1
2913 2743 1
2913 3714 1
2913 3801 1
2913 4285 1
2913 4566 1
2914 26 1
2914 108 1
2914 929 1
2914 1570 1
2915 1 1
2915 352 1
2915 443 1
2915 2658 1
2916 413 1
2916 736 1
2916 760 1
2916 975 1
2916 3342 1
2917 376 1
2917 691 1
2917 963 1
2917 1574 1
2918 117 1
2918 123 1
2918 414 1
2918 1007 1
2919 54 1
2919 290 1
2919 622 1
2919 1509 1
2919 4035 1
2920 6 1
2920 652 1
2920 723 1
2920 2598 1
2920 3673 1
2920 4139 1
2921 3 1
2921 233 1
2921 422 1
2921 1634 1
2922 1 1
2922 1000 1
2922 2117 1
2922 2648 1
2922 4753 1
2923 1 1
2923 513 1
2923 2064 1
2923 2839 1
2923 3213 1
2923 3297 1
2924 158 1
2924 698 1
2924 759 1
2924 1264 1
2924 3325 1
2924 3388 1
2925 8 1
2925 482 1
2925 935 1
2925 2591 1
2925 3281 1
2926 399 1
2926 503 1
2926 967 1
2926 2540 1
2927 36 1
2927 873 1
2927 1891 1
2927 2629 1
2927 3294 1
2928 256 1
2928 338 1
2928 1011 1
2928 1105 1
2928 3466 1
2928 4112 1
2929 326 1
2929 1411 1
2929 1595 1
2929 2762 1
2929 4640 1
2930 9 1
2930 1361 1
2930 2104 1
2930 2450 1
2930 3353 1
2931 1210 1
2931 1333 1
2931 1412 1
2931 2612 1
2932 139 1
2932 853 1
2932 1587 1
2932 2329 1
2932 4429 1
2933 98 1
2933 615 1
2933 1216 1
2933 1639 1
2934 30 1
2934 65 1
2934 958 1
2934 1396 1
2934 3514 1
2934 4476 1
2935 12 1
2935 149 1
2935 665 1
2935 903 1
2935 4952 1
2936 29 1
2936 164 1
2936 2323 1
2936 2508 1
2936 4888 1
2937 643 1
2937 669 1
2937 1652 1
2937 1987 1
2937 3441 1
2938 28 1
2938 29 1
2938 503 1
2938 1317 1
2938 3944 1
2939 186 1
2939 2377 1
2939 2521 1
2939 2850 1
2939 4449 1
2939 4578 1
2939 4955 1
2940 75 1
2940 83 1
2940 2095 1
2940 2864 1
2941 549 1
2941 1523 1
2941 1802 1
2941 2272 1
2941 4092 1
2942 26 1
2942 725 1
2942 1392 1
2942 1791 1
2942 3957 1
2943 1 1
2943 160 1
2943 242 1
2943 761 1
2944 23 1
2944 271 1
2944 1490 1
2944 2191 1
2945 516 1
2945 1010 1
2945 1494 1
2945 2041 1
2945 4096 1
2946 15 1
2946 319 1
2946 697 1
2946 2014 1
2947 637 1
2947 652 1
2947 833 1
2947 1125 1
2947 3988 1
2948 3 1
2948 115 1
2948 298 1
2948 779 1
2948 4301 1
2948 4416 1
2948 4556 1
2949 1219 1
2949 1822 1
2949 2019 1
2949 2784 1
2949 3465 1
2949 4410 1
2950 216 1
2950 671 1
2950 697 1
2950 2817 1
2950 3724 1
2951 14 1
2951 1319 1
2951 1518 1
2951 2014 1
2951 3164 1
2951 4724 1
2952 6 1
2952 109 1
2952 852 1
2952 1061 1
2953 102 1
2953 176 1
2953 868 1
2953 2756 1
2953 3582 1
2953 3638 1
2953 4853 1
2954 91 1
2954 530 1
2954 1240 1
2954 2314 1
2955 3 1
2955 901 1
2955 1667 1
2955 2707 1
2955 4361 1
2956 17 1
2956 45 1
2956 139 1
2956 835 1
2957 13 1
2957 38 1
2957 238 1
2957 315 1
2958 1726 1
2958 1837 1
2958 2049 1
2958 2066 1
2959 104 1
2959 969 1
2959 1356 1
2959 1364 1
2959 4466 1
2960 46 1
2960 2047 1
2960 2697 1
2960 2793 1
2960 3196 1
2961 578 1
2961 798 1
2961 1539 1
2961 1966 1
2962 5 1
2962 653 1
2962 768 1
2962 1000 1
2962 3402 1
2963 13 1
2963 27 1
2963 99 1
2963 1733 1
2963 2978 1
2963 3324 1
2963 3444 1
2963 3577 1
2964 18 1
2964 160 1
2964 384 1
2964 2013 1
2965 50 1
2965 62 1
2965 1893 1
2965 2190 1
2965 4676 1
2966 496 1
2966 563 1
2966 726 1
2966 1144 1
2967 115 1
2967 595 1
2967 1057 1
2967 2633 1
2968 8 1
2968 21 1
2968 1734 1
2968 2301 1
2968 3255 1
2968 3288 1
2969 25 1
2969 36 1
2969 157 1
2969 171 1
2970 1 1
2970 3 1
2970 197 1
2970 1837 1
2971 458 1
2971 635 1
2971 994 1
2971 1480 1
2972 25 1
2972 1469 1
2972 1871 1
2972 1984 1
2973 23 1
2973 1415 1
2973 1420 1
2973 2442 1
2973 4993 1
2974 183 1
2974 633 1
2974 652 1
2974 933 1
2974 4598 1
2975 5 1
2975 457 1
2975 852 1
2975 1965 1
2976 13 1
2976 160 1
2976 430 1
2976 1731 1
2977 1 1
2977 1118 1
2977 1576 1
2977 2254 1
2977 4705 1
2978 684 1
2978 748 1
2978 1020 1
2978 2963 1
2978 4929 1
2979 6 1
2979 184 1
2979 1248 1
2979 1827 1
2979 3607 1
2980 3 1
2980 294 1
2980 391 1
2980 554 1
2980 3479 1
2980 4355 1
2981 95 1
2981 988 1
2981 1237 1
2981 2533 1
2981 3989 1
2982 446 1
2982 1834 1
2982 1935 1
2982 2891 1
2983 164 1
2983 175 1
2983 1074 1
2983 2804 1
2983 3439 1
2983 4021 1
2984 729 1
2984 1219 1
2984 1834 1
2984 2424 1
2984 3703 1
2985 274 1
2985 1723 1
2985 2305 1
2985 2894 1
2985 4394 1
2986 23 1
2986 1364 1
2986 1682 1
2986 2189 1
2986 3359 1
2986 4304 1
2987 1283 1
2987 1309 1
2987 1428 1
2987 2324 1
2988 204 1
2988 1143 1
2988 1494 1
2988 2618 1
2988 4071 1
2989 369 1
2989 375 1
2989 1953 1
2989 2290 1
2989 3605 1
2989 3758 1
2989 3922 1
2989 4015 1
2989 4077 1
2989 4161 1
2990 149 1
2990 736 1
2990 1620 1
2990 1734 1
2990 4991 1
2991 1 1
2991 25 1
2991 79 1
2991 1687 1
2991 3030 1
2992 23 1
2992 1309 1
2992 1344 1
2992 2627 1
2993 241 1
2993 351 1
2993 1197 1
2993 1879 1
2994 74 1
2994 170 1
2994 2289 1
2994 2529 1
2994 3406 1
2994 4346 1
2994 4606 1
2995 98 1
2995 210 1
2995 440 1
2995 865 1
2996 56 1
2996 423 1
2996 908 1
2996 2712 1
2996 4833 1
2997 30 1
2997 87 1
2997 602 1
2997 632 1
2997 4802 1
2998 120 1
2998 400 1
2998 1105 1
2998 2553 1
2999 739 1
2999 968 1
2999 1912 1
2999 2602 1
2999 3523 1
3000 173 1
3000 180 1
3000 2069 1
3000 2076 1
3000 4700 1
3001 6 1
3001 1192 1
3001 1327 1
3001 2805 1
3001 3574 1
3002 875 1
3002 1386 1
3002 1415 1
3002 2619 1
3002 4878 1
3003 171 1
3003 268 1
3003 1106 1
3003 1719 1
3003 4432 1
3004 3 1
3004 19 1
3004 186 1
3004 1336 1
3004 3085 1
3004 4153 1
3005 63 1
3005 177 1
3005 826 1
3005 2306 1
3005 3600 1
3005 4886 1
3006 14 1
3006 292 1
3006 640 1
3006 2370 1
3007 69 1
3007 117 1
3007 335 1
3007 769 1
3008 6 1
3008 55 1
3008 821 1
3008 2500 1
3008 3974 1
3008 4934 1
3009 16 1
3009 761 1
3009 1021 1
3009 1427 1
3010 295 1
3010 571 1
3010 2488 1
3010 2753 1
3010 4259 1
3011 36 1
3011 114 1
3011 471 1
3011 702 1
3011 4630 1
3012 18 1
3012 76 1
3012 180 1
3012 1920 1
3012 4426 1
3012 4653 1
3013 230 1
3013 273 1
3013 816 1
3013 2744 1
3013 3289 1
3013 3561 1
3014 40 1
3014 85 1
3014 667 1
3014 1895 1
3014 3327 1
3014 4113 1
3015 463 1
3015 504 1
3015 840 1
3015 2035 1
3015 3087 1
3015 3274 1
3016 3 1
3016 115 1
3016 1599 1
3016 1887 1
3017 9 1
3017 13 1
3017 52 1
3017 2248 1
3017 3334 1
3018 287 1
3018 431 1
3018 824 1
3018 2392 1
3018 3511 1
3018 4004 1
3018 4272 1
3018 4849 1
3019 78 1
3019 377 1
3019 2168 1
3019 2476 1
3020 1 1
3020 532 1
3020 1750 1
3020 1912 1
3020 4454 1
3021 309 1
3021 1955 1
3021 1959 1
3021 2465 1
3021 3897 1
3022 217 1
3022 973 1
3022 1870 1
3022 2641 1
3022 4488 1
3023 58 1
3023 904 1
3023 1558 1
3023 2057 1
3023 3342 1
3024 45 1
3024 1710 1
3024 2422 1
3024 2864 1
3024 3077 1
3024 4033 1
3024 4150 1
3024 4542 1
3024 4788 1
3025 158 1
3025 321 1
3025 787 1
3025 2063 1
3025 3255 1
3025 3528 1
3025 3662 1
3025 3694 1
3025 3951 1
3025 4400 1
3025 4438 1
3025 4450 1
3026 20 1
3026 396 1
3026 1063 1
3026 1501 1
3026 3594 1
3026 3715 1
3026 4838 1
3027 385 1
3027 1255 1
3027 1528 1
3027 2090 1
3028 180 1
3028 1240 1
3028 1506 1
3028 2285 1
3028 3170 1
3028 4997 1
3029 238 1
3029 450 1
3029 935 1
3029 1983 1
3029 3420 1
3029 4306 1
3030 646 1
3030 1347 1
3030 2558 1
3030 2991 1
3031 909 1
3031 1338 1
3031 2012 1
3031 2835 1
3031 3712 1
3031 4127 1
3032 132 1
3032 788 1
3032 1064 1
3032 1657 1
3032 3417 1
3032 3786 1
3033 224 1
3033 516 1
3033 1281 1
3033 1947 1
3033 3037 1
3034 102 1
3034 249 1
3034 1118 1
3034 1871 1
3034 3331 1
3034 3950 1
3034 4342 1
3035 170 1
3035 1616 1
3035 1943 1
3035 2501 1
3036 674 1
3036 979 1
3036 1072 1
3036 1520 1
3037 495 1
3037 533 1
3037 2487 1
3037 3033 1
3038 60 1
3038 1029 1
3038 2629 1
3038 2724 1
3039 89 1
3039 895 1
3039 2277 1
3039 2431 1
3040 6 1
3040 109 1
3040 272 1
3040 1274 1
3040 3619 1
3041 129 1
3041 476 1
3041 675 1
3041 2400 1
3041 3734 1
3041 3754 1
3041 4776 1
3042 161 1
3042 603 1
3042 1088 1
3042 2737 1
3042 4497 1
3043 10 1
3043 946 1
3043 1024 1
3043 1290 1
3044 6 1
3044 645 1
3044 1273 1
3044 2283 1
3044 3173 1
3044 3545 1
3044 3894 1
3045 23 1
3045 754 1
3045 1141 1
3045 1730 1
3045 3421 1
3046 6 1
3046 331 1
3046 619 1
3046 1013 1
3046 4381 1
3046 4680 1
3047 24 1
3047 899 1
3047 915 1
3047 2815 1
3047 3097 1
3047 3664 1
3047 3943 1
3047 4168 1
3048 17 1
3048 331 1
3048 682 1
3048 884 1
3048 4491 1
3049 40 1
3049 157 1
3049 728 1
3049 2200 1
3050 840 1
3050 883 1
3050 1802 1
3050 2479 1
3050 3067 1
3050 3703 1
3051 205 1
3051 213 1
3051 401 1
3051 2638 1
3051 4928 1
3052 12 1
3052 229 1
3052 412 1
3052 2703 1
3052 3432 1
3052 4111 1
3053 289 1
3053 1035 1
3053 1150 1
3053 2566 1
3053 3475 1
3054 120 1
3054 186 1
3054 1390 1
3054 2690 1
3054 3673 1
3055 36 1
3055 329 1
3055 625 1
3055 1232 1
3056 1 1
3056 32 1
3056 640 1
3056 1935 1
3056 4421 1
3057 268 1
3057 522 1
3057 1351 1
3057 1384 1
3057 3342 1
3057 4377 1
3058 180 1
3058 217 1
3058 352 1
3058 1297 1
3058 3169 1
3059 50 1
3059 388 1
3059 633 1
3059 669 1
3059 4749 1
3060 30 1
3060 41 1
3060 90 1
3060 2753 1
3060 3423 1
3061 9 1
3061 67 1
3061 1026 1
3061 2105 1
3061 3332 1
3061 3427 1
3062 6 1
3062 72 1
3062 147 1
3062 546 1
3062 4733 1
3063 21 1
3063 273 1
3063 1178 1
3063 1934 1
3063 3199 1
3063 3760 1
3063 3983 1
3064 1 1
3064 8 1
3064 603 1
3064 908 1
3065 34 1
3065 313 1
3065 972 1
3065 2515 1
3065 3130 1
3065 3748 1
3065 4887 1
3066 12 1
3066 103 1
3066 972 1
3066 2356 1
3067 109 1
3067 1915 1
3067 2181 1
3067 3050 1
3067 3679 1
3067 4349 1
3068 409 1
3068 603 1
3068 1717 1
3068 2267 1
3068 4100 1
3069 36 1
3069 62 1
3069 111 1
3069 2472 1
3069 4856 1
3070 60 1
3070 134 1
3070 212 1
3070 385 1
3071 8 1
3071 22 1
3071 97 1
3071 313 1
3071 3181 1
3072 787 1
3072 1289 1
3072 2391 1
3072 2747 1
3073 908 1
3073 1032 1
3073 1115 1
3073 2902 1
3073 4338 1
3073 4496 1
3073 4622 1
3073 4741 1
3074 3 1
3074 303 1
3074 1167 1
3074 1611 1
3075 90 1
3075 109 1
3075 488 1
3075 1724 1
3075 4696 1
3075 4960 1
3076 6 1
3076 351 1
3076 640 1
3076 2123 1
3076 3436 1
3077 1167 1
3077 2031 1
3077 2302 1
3077 3024 1
3078 50 1
3078 967 1
3078 1550 1
3078 1832 1
3079 9 1
3079 1322 1
3079 1323 1
3079 1958 1
3080 29 1
3080 276 1
3080 932 1
3080 1355 1
3080 3419 1
3080 3761 1
3080 4041 1
3080 4217 1
3080 4598 1
3080 4599 1
3081 495 1
3081 702 1
3081 1463 1
3081 2321 1
3082 87 1
3082 523 1
3082 846 1
3082 1637 1
3082 3834 1
3083 103 1
3083 419 1
3083 1897 1
3083 2470 1
3083 3376 1
3083 4385 1
3083 4635 1
3084 49 1
3084 1032 1
3084 1603 1
3084 2595 1
3084 3840 1
3084 4775 1
3085 711 1
3085 864 1
3085 2141 1
3085 3004 1
3086 240 1
3086 2117 1
3086 2268 1
3086 2891 1
3086 3485 1
3087 78 1
3087 929 1
3087 2382 1
3087 3015 1
3088 3 1
3088 12 1
3088 1097 1
3088 2901 1
3088 4546 1
3089 438 1
3089 1720 1
3089 1802 1
3089 2683 1
3089 3103 1
3089 3378 1
3089 3447 1
3089 3856 1
3089 4647 1
3090 501 1
3090 598 1
3090 888 1
3090 1661 1
3091 9 1
3091 36 1
3091 433 1
3091 2088 1
3091 3363 1
3091 3747 1
3092 525 1
3092 620 1
3092 833 1
3092 1189 1
3092 3491 1
3093 403 1
3093 951 1
3093 1047 1
3093 1252 1
3093 3760 1
3094 9 1
3094 147 1
3094 528 1
3094 737 1
3095 434 1
3095 481 1
3095 1224 1
3095 2735 1
3096 479 1
3096 667 1
3096 1226 1
3096 2221 1
3097 189 1
3097 616 1
3097 2665 1
3097 3047 1
3098 54 1
3098 522 1
3098 1215 1
3098 1947 1
3098 3965 1
3099 32 1
3099 92 1
3099 250 1
3099 1590 1
3100 18 1
3100 219 1
3100 458 1
3100 2060 1
3100 4072 1
3101 27 1
3101 63 1
3101 1276 1
3101 2109 1
3101 3726 1
3101 4260 1
3101 4439 1
3101 4683 1
3102 36 1
3102 57 1
3102 878 1
3102 1907 1
3103 76 1
3103 199 1
3103 1826 1
3103 3089 1
3103 3203 1
3103 4891 1
3104 113 1
3104 752 1
3104 961 1
3104 1082 1
3104 3746 1
3105 100 1
3105 450 1
3105 1083 1
3105 2652 1
3105 4701 1
3106 10 1
3106 523 1
3106 1193 1
3106 1319 1
3106 3626 1
3107 432 1
3107 533 1
3107 2008 1
3107 2835 1
3108 6 1
3108 22 1
3108 385 1
3108 1801 1
3108 3162 1
3108 3795 1
3109 459 1
3109 667 1
3109 800 1
3109 2733 1
3109 3329 1
3110 479 1
3110 1411 1
3110 1572 1
3110 1665 1
3110 3228 1
3111 14 1
3111 24 1
3111 1336 1
3111 1490 1
3112 137 1
3112 159 1
3112 1436 1
3112 2282 1
3112 3547 1
3113 621 1
3113 651 1
3113 2365 1
3113 2676 1
3114 1 1
3114 85 1
3114 1399 1
3114 2837 1
3114 3414 1
3115 358 1
3115 1713 1
3115 2493 1
3115 2648 1
3116 1 1
3116 36 1
3116 1058 1
3116 2460 1
3116 4157 1
3117 35 1
3117 525 1
3117 645 1
3117 1430 1
3117 3608 1
3118 540 1
3118 1064 1
3118 1903 1
3118 2840 1
3118 4065 1
3119 72 1
3119 1938 1
3119 2672 1
3119 2770 1
3119 3286 1
3120 45 1
3120 59 1
3120 1422 1
3120 2417 1
3121 493 1
3121 646 1
3121 899 1
3121 1661 1
3122 61 1
3122 71 1
3122 1890 1
3122 2402 1
3123 3 1
3123 176 1
3123 345 1
3123 2909 1
3123 3893 1
3123 4431 1
3124 204 1
3124 1020 1
3124 1654 1
3124 2516 1
3124 4586 1
3125 91 1
3125 443 1
3125 596 1
3125 939 1
3125 3559 1
3126 51 1
3126 92 1
3126 461 1
3126 1304 1
3126 3361 1
3126 3749 1
3126 3787 1
3126 4415 1
3127 65 1
3127 195 1
3127 1301 1
3127 1911 1
3128 327 1
3128 1234 1
3128 2189 1
3128 2622 1
3129 292 1
3129 660 1
3129 769 1
3129 2118 1
3129 3442 1
3130 186 1
3130 750 1
3130 2140 1
3130 3065 1
3130 3670 1
3131 16 1
3131 129 1
3131 666 1
3131 2588 1
3131 4146 1
3131 4207 1
3132 11 1
3132 440 1
3132 1342 1
3132 2792 1
3132 3695 1
3132 4105 1
3133 154 1
3133 512 1
3133 1693 1
3133 2410 1
3133 3725 1
3134 1 1
3134 11 1
3134 1546 1
3134 1665 1
3134 3677 1
3134 3843 1
3134 4278 1
3134 4299 1
3134 4642 1
3135 205 1
3135 240 1
3135 1062 1
3135 1179 1
3135 4139 1
3135 4705 1
3136 210 1
3136 891 1
3136 1212 1
3136 2329 1
3137 78 1
3137 417 1
3137 486 1
3137 1134 1
3137 3166 1
3137 4912 1
3138 3 1
3138 96 1
3138 772 1
3138 2469 1
3138 3460 1
3139 743 1
3139 1180 1
3139 1387 1
3139 1908 1
3139 4867 1
3140 39 1
3140 385 1
3140 387 1
3140 2038 1
3140 3797 1
3140 4727 1
3141 6 1
3141 8 1
3141 186 1
3141 553 1
3141 4633 1
3141 4807 1
3142 28 1
3142 385 1
3142 497 1
3142 1251 1
3143 60 1
3143 739 1
3143 1349 1
3143 1372 1
3144 23 1
3144 114 1
3144 141 1
3144 437 1
3145 11 1
3145 240 1
3145 2368 1
3145 2739 1
3146 115 1
3146 580 1
3146 2471 1
3146 2866 1
3147 496 1
3147 719 1
3147 1577 1
3147 2530 1
3147 3404 1
3147 4602 1
3148 53 1
3148 388 1
3148 2300 1
3148 2329 1
3148 3244 1
3148 4395 1
3149 152 1
3149 308 1
3149 2086 1
3149 2601 1
3150 131 1
3150 1762 1
3150 1782 1
3150 2337 1
3151 147 1
3151 1880 1
3151 1982 1
3151 2230 1
3152 9 1
3152 119 1
3152 794 1
3152 1418 1
3152 4217 1
3152 4677 1
3153 81 1
3153 530 1
3153 1511 1
3153 2473 1
3153 3176 1
3153 4587 1
3153 4958 1
3154 134 1
3154 158 1
3154 2170 1
3154 2523 1
3154 3797 1
3155 72 1
3155 95 1
3155 106 1
3155 1250 1
3156 74 1
3156 754 1
3156 840 1
3156 1943 1
3156 3227 1
3156 3537 1
3156 4988 1
3157 73 1
3157 371 1
3157 1091 1
3157 1271 1
3157 3243 1
3158 175 1
3158 228 1
3158 1715 1
3158 1881 1
3158 3731 1
3158 3848 1
3158 4369 1
3159 3 1
3159 1017 1
3159 2187 1
3159 2264 1
3159 4340 1
3160 6 1
3160 91 1
3160 453 1
3160 713 1
3160 3577 1
3160 4129 1
3161 6 1
3161 67 1
3161 919 1
3161 1910 1
3161 3582 1
3161 4041 1
3161 4472 1
3161 4874 1
3162 34 1
3162 398 1
3162 409 1
3162 3108 1
3163 315 1
3163 1487 1
3163 2578 1
3163 2795 1
3163 3511 1
3163 4371 1
3163 4700 1
3164 111 1
3164 120 1
3164 1633 1
3164 2951 1
3164 4454 1
3165 497 1
3165 1115 1
3165 1116 1
3165 2786 1
3165 4709 1
3166 6 1
3166 1755 1
3166 2196 1
3166 3137 1
3166 3383 1
3166 3781 1
3167 34 1
3167 247 1
3167 1308 1
3167 2290 1
3168 74 1
3168 141 1
3168 161 1
3168 502 1
3168 4125 1
3168 4257 1
3168 4317 1
3169 1246 1
3169 1827 1
3169 2063 1
3169 3058 1
3169 3808 1
3170 123 1
3170 410 1
3170 2368 1
3170 3028 1
3170 3332 1
3171 16 1
3171 17 1
3171 1396 1
3171 2341 1
3171 4012 1
3172 34 1
3172 666 1
3172 1608 1
3172 2391 1
3173 600 1
3173 1019 1
3173 1765 1
3173 3044 1
3174 8 1
3174 93 1
3174 319 1
3174 747 1
3175 155 1
3175 610 1
3175 851 1
3175 1608 1
3176 34 1
3176 182 1
3176 696 1
3176 3153 1
3177 150 1
3177 239 1
3177 729 1
3177 2366 1
3177 4771 1
3178 6 1
3178 723 1
3178 734 1
3178 2327 1
3178 4157 1
3179 6 1
3179 371 1
3179 1418 1
3179 2414 1
3180 6 1
3180 183 1
3180 261 1
3180 2137 1
3180 4771 1
3181 78 1
3181 158 1
3181 2332 1
3181 3071 1
3181 3924 1
3181 4936 1
3182 527 1
3182 535 1
3182 563 1
3182 1523 1
3182 4778 1
3183 110 1
3183 243 1
3183 1261 1
3183 1273 1
3184 77 1
3184 153 1
3184 773 1
3184 1677 1
3185 52 1
3185 82 1
3185 302 1
3185 1895 1
3186 11 1
3186 107 1
3186 799 1
3186 1340 1
3186 3966 1
3187 11 1
3187 734 1
3187 1272 1
3187 2036 1
3187 4167 1
3188 219 1
3188 625 1
3188 1172 1
3188 1935 1
3189 466 1
3189 1073 1
3189 2311 1
3189 2523 1
3190 48 1
3190 434 1
3190 2080 1
3190 2612 1
3191 54 1
3191 247 1
3191 1768 1
3191 2797 1
3191 3245 1
3191 4202 1
3191 4924 1
3192 5 1
3192 61 1
3192 1693 1
3192 2425 1
3193 158 1
3193 170 1
3193 1452 1
3193 2480 1
3193 3285 1
3193 3827 1
3193 4286 1
3194 1 1
3194 64 1
3194 356 1
3194 761 1
3195 186 1
3195 240 1
3195 319 1
3195 508 1
3196 40 1
3196 423 1
3196 1688 1
3196 2960 1
3197 28 1
3197 547 1
3197 1867 1
3197 2057 1
3198 14 1
3198 1176 1
3198 1318 1
3198 1521 1
3198 3478 1
3198 3908 1
3198 4401 1
3199 524 1
3199 631 1
3199 2639 1
3199 3063 1
3199 4329 1
3199 4592 1
3199 4962 1
3200 30 1
3200 144 1
3200 399 1
3200 1523 1
3201 186 1
3201 620 1
3201 2208 1
3201 2531 1
3201 3540 1
3201 4431 1
3202 100 1
3202 185 1
3202 251 1
3202 1019 1
3202 3394 1
3202 3682 1
3202 4759 1
3202 4794 1
3203 35 1
3203 687 1
3203 1517 1
3203 3103 1
3203 4047 1
3203 4588 1
3204 85 1
3204 111 1
3204 802 1
3204 1218 1
3205 326 1
3205 886 1
3205 1300 1
3205 1701 1
3205 3534 1
3206 1117 1
3206 1614 1
3206 2063 1
3206 2104 1
3207 10 1
3207 53 1
3207 191 1
3207 2266 1
3208 427 1
3208 502 1
3208 2150 1
3208 2756 1
3208 3361 1
3208 3413 1
3208 4374 1
3208 4404 1
3209 76 1
3209 112 1
3209 1494 1
3209 1858 1
3209 3404 1
3209 3625 1
3209 3657 1
3209 3888 1
3209 4404 1
3210 34 1
3210 382 1
3210 680 1
3210 916 1
3210 4282 1
3210 4815 1
3211 137 1
3211 760 1
3211 1903 1
3211 2297 1
3211 3780 1
3212 45 1
3212 62 1
3212 187 1
3212 1061 1
3212 3548 1
3212 3621 1
3213 101 1
3213 305 1
3213 406 1
3213 2923 1
3214 357 1
3214 1517 1
3214 1952 1
3214 2376 1
3215 12 1
3215 83 1
3215 228 1
3215 714 1
3215 3262 1
3216 18 1
3216 528 1
3216 673 1
3216 2057 1
3217 11 1
3217 36 1
3217 371 1
3217 1001 1
3218 287 1
3218 343 1
3218 355 1
3218 760 1
3219 754 1
3219 1709 1
3219 1953 1
3219 2835 1
3219 4872 1
3220 93 1
3220 870 1
3220 1839 1
3220 2786 1
3220 3776 1
3220 4325 1
3221 342 1
3221 365 1
3221 617 1
3221 2498 1
3221 4754 1
3222 499 1
3222 2007 1
3222 2188 1
3222 2412 1
3223 14 1
3223 32 1
3223 1106 1
3223 1306 1
3223 4357 1
3224 41 1
3224 251 1
3224 1294 1
3224 2503 1
3225 75 1
3225 80 1
3225 299 1
3225 2307 1
3226 40 1
3226 127 1
3226 1060 1
3226 1697 1
3227 24 1
3227 861 1
3227 2121 1
3227 3156 1
3227 4210 1
3228 1332 1
3228 2306 1
3228 2898 1
3228 3110 1
3229 2 1
3229 28 1
3229 51 1
3229 932 1
3229 4269 1
3230 7 1
3230 1692 1
3230 1912 1
3230 2179 1
3230 4392 1
3231 106 1
3231 195 1
3231 1713 1
3231 2246 1
3232 59 1
3232 688 1
3232 2036 1
3232 2301 1
3232 3343 1
3232 3906 1
3232 4034 1
3232 4470 1
3233 32 1
3233 157 1
3233 285 1
3233 2452 1
3234 9 1
3234 17 1
3234 2010 1
3234 2311 1
3234 3526 1
3234 3784 1
3234 4513 1
3234 4852 1
3235 594 1
3235 1167 1
3235 1886 1
3235 1894 1
3235 4358 1
3235 4436 1
3236 139 1
3236 327 1
3236 503 1
3236 2533 1
3236 4060 1
3237 3 1
3237 265 1
3237 637 1
3237 2429 1
3237 4186 1
3238 792 1
3238 1567 1
3238 2146 1
3238 2759 1
3238 4208 1
3239 25 1
3239 691 1
3239 1051 1
3239 2345 1
3239 3299 1
3240 625 1
3240 634 1
3240 744 1
3240 1751 1
3240 4185 1
3240 4718 1
3241 126 1
3241 384 1
3241 519 1
3241 765 1
3242 10 1
3242 32 1
3242 152 1
3242 1873 1
3243 110 1
3243 1738 1
3243 1947 1
3243 3157 1
3244 822 1
3244 1197 1
3244 1642 1
3244 3148 1
3244 3946 1
3245 1364 1
3245 1442 1
3245 1608 1
3245 3191 1
3246 924 1
3246 1561 1
3246 2031 1
3246 2452 1
3247 90 1
3247 188 1
3247 460 1
3247 1115 1
3247 4535 1
3248 318 1
3248 350 1
3248 423 1
3248 717 1
3248 4149 1
3248 4596 1
3249 23 1
3249 24 1
3249 768 1
3249 2580 1
3250 94 1
3250 1292 1
3250 1799 1
3250 1931 1
3250 3422 1
3250 3670 1
3251 528 1
3251 1021 1
3251 1049 1
3251 2087 1
3251 4668 1
3252 9 1
3252 445 1
3252 504 1
3252 2628 1
3253 142 1
3253 315 1
3253 603 1
3253 1834 1
3253 3625 1
3254 51 1
3254 736 1
3254 1732 1
3254 1870 1
3255 587 1
3255 2382 1
3255 2968 1
3255 3025 1
3255 3716 1
3255 4048 1
3256 23 1
3256 169 1
3256 2445 1
3256 2556 1
3257 2 1
3257 211 1
3257 2213 1
3257 2797 1
3258 115 1
3258 741 1
3258 1607 1
3258 1991 1
3258 4112 1
3259 51 1
3259 960 1
3259 2335 1
3259 2447 1
3260 646 1
3260 1830 1
3260 1901 1
3260 2825 1
3260 3650 1
3261 397 1
3261 1337 1
3261 1502 1
3261 1843 1
3262 22 1
3262 621 1
3262 1418 1
3262 3215 1
3262 3759 1
3263 12 1
3263 48 1
3263 135 1
3263 2205 1
3264 24 1
3264 1074 1
3264 1584 1
3264 2513 1
3265 34 1
3265 946 1
3265 1044 1
3265 1342 1
3266 226 1
3266 611 1
3266 1598 1
3266 1835 1
3267 16 1
3267 65 1
3267 211 1
3267 2574 1
3267 4009 1
3267 4853 1
3268 30 1
3268 1542 1
3268 1568 1
3268 2083 1
3269 2 1
3269 117 1
3269 231 1
3269 560 1
3269 3349 1
3270 30 1
3270 571 1
3270 624 1
3270 1524 1
3270 3606 1
3270 3719 1
3270 3953 1
3270 4180 1
3271 91 1
3271 229 1
3271 2153 1
3271 2289 1
3272 20 1
3272 169 1
3272 923 1
3272 1695 1
3272 3939 1
3273 13 1
3273 276 1
3273 1063 1
3273 1186 1
3273 4166 1
3273 4654 1
3274 412 1
3274 420 1
3274 710 1
3274 3015 1
3274 4591 1
3275 122 1
3275 604 1
3275 2168 1
3275 2268 1
3275 4970 1
3276 158 1
3276 972 1
3276 1739 1
3276 2315 1
3276 4626 1
3276 4987 1
3277 132 1
3277 769 1
3277 1226 1
3277 2296 1
3277 3373 1
3277 4435 1
3277 4604 1
3278 207 1
3278 217 1
3278 683 1
3278 1896 1
3278 4967 1
3279 73 1
3279 194 1
3279 589 1
3279 1243 1
3280 575 1
3280 1381 1
3280 1449 1
3280 2504 1
3280 3563 1
3280 3825 1
3281 27 1
3281 90 1
3281 216 1
3281 2925 1
3282 74 1
3282 481 1
3282 1322 1
3282 2845 1
3282 4278 1
3283 229 1
3283 290 1
3283 459 1
3283 1418 1
3283 3340 1
3283 3732 1
3283 3739 1
3283 4817 1
3284 43 1
3284 51 1
3284 369 1
3284 885 1
3285 8 1
3285 124 1
3285 1415 1
3285 3193 1
3286 85 1
3286 1840 1
3286 1960 1
3286 3119 1
3287 7 1
3287 323 1
3287 439 1
3287 727 1
3287 3474 1
3287 4359 1
3288 3 1
3288 32 1
3288 327 1
3288 2968 1
3289 34 1
3289 210 1
3289 2150 1
3289 3013 1
3289 4453 1
3289 4693 1
3290 373 1
3290 755 1
3290 1706 1
3290 2261 1
3291 18 1
3291 1232 1
3291 1495 1
3291 2527 1
3291 4514 1
3292 277 1
3292 509 1
3292 923 1
3292 1598 1
3292 4562 1
3293 73 1
3293 138 1
3293 457 1
3293 1567 1
3294 656 1
3294 711 1
3294 832 1
3294 2927 1
3294 4898 1
3295 12 1
3295 28 1
3295 247 1
3295 252 1
3295 3426 1
3296 17 1
3296 62 1
3296 144 1
3296 669 1
3296 3496 1
3297 42 1
3297 460 1
3297 1423 1
3297 2923 1
3297 3523 1
3298 209 1
3298 899 1
3298 1064 1
3298 1391 1
3298 3744 1
3298 4246 1
3299 1 1
3299 204 1
3299 587 1
3299 3239 1
3300 387 1
3300 610 1
3300 946 1
3300 2117 1
3300 3929 1
3300 4325 1
3300 4933 1
3301 55 1
3301 435 1
3301 1395 1
3301 1641 1
3302 628 1
3302 1024 1
3302 1598 1
3302 1645 1
3303 28 1
3303 684 1
3303 725 1
3303 726 1
3304 286 1
3304 519 1
3304 723 1
3304 2234 1
3305 24 1
3305 254 1
3305 416 1
3305 666 1
3306 38 1
3306 713 1
3306 1191 1
3306 2252 1
3306 3333 1
3307 6 1
3307 729 1
3307 1169 1
3307 2478 1
3307 3734 1
3307 4897 1
3307 4942 1
3308 578 1
3308 743 1
3308 1039 1
3308 1613 1
3309 34 1
3309 1204 1
3309 1430 1
3309 1857 1
3310 323 1
3310 988 1
3310 1923 1
3310 2218 1
3310 4691 1
3311 83 1
3311 147 1
3311 243 1
3311 567 1
3312 12 1
3312 13 1
3312 1272 1
3312 1558 1
3312 3549 1
3313 45 1
3313 71 1
3313 1145 1
3313 2450 1
3314 311 1
3314 902 1
3314 1228 1
3314 2457 1
3314 3549 1
3315 1 1
3315 806 1
3315 1969 1
3315 2700 1
3315 3820 1
3316 929 1
3316 1258 1
3316 1574 1
3316 2608 1
3317 6 1
3317 56 1
3317 496 1
3317 2257 1
3317 4937 1
3318 308 1
3318 583 1
3318 1502 1
3318 2282 1
3318 4147 1
3319 6 1
3319 480 1
3319 558 1
3319 642 1
3319 3959 1
3319 4018 1
3320 328 1
3320 586 1
3320 1984 1
3320 2068 1
3320 4674 1
3321 61 1
3321 160 1
3321 978 1
3321 2790 1
3321 3479 1
3322 18 1
3322 859 1
3322 1066 1
3322 1562 1
3322 3763 1
3322 4183 1
3323 186 1
3323 703 1
3323 1084 1
3323 2171 1
3324 463 1
3324 959 1
3324 2507 1
3324 2963 1
3325 157 1
3325 739 1
3325 948 1
3325 2924 1
3326 41 1
3326 78 1
3326 122 1
3326 482 1
3326 3665 1
3326 3958 1
3327 192 1
3327 203 1
3327 392 1
3327 3014 1
3327 4110 1
3328 12 1
3328 146 1
3328 1099 1
3328 2104 1
3329 6 1
3329 1454 1
3329 2611 1
3329 3109 1
3330 7 1
3330 145 1
3330 1456 1
3330 1809 1
3330 4198 1
3331 905 1
3331 1027 1
3331 1724 1
3331 3034 1
3331 4644 1
3332 2130 1
3332 2457 1
3332 3061 1
3332 3170 1
3333 158 1
3333 891 1
3333 2052 1
3333 3306 1
3333 3883 1
3333 4365 1
3334 306 1
3334 951 1
3334 1217 1
3334 3017 1
3335 32 1
3335 176 1
3335 503 1
3335 1382 1
3335 4215 1
3336 291 1
3336 2127 1
3336 2519 1
3336 2721 1
3337 550 1
3337 1436 1
3337 1453 1
3337 2321 1
3337 4142 1
3338 79 1
3338 1032 1
3338 1967 1
3338 2088 1
3338 3778 1
3339 61 1
3339 821 1
3339 1887 1
3339 2188 1
3339 4507 1
3340 81 1
3340 503 1
3340 1091 1
3340 3283 1
3341 19 1
3341 220 1
3341 458 1
3341 1607 1
3341 3603 1
3342 2411 1
3342 2916 1
3342 3023 1
3342 3057 1
3343 13 1
3343 941 1
3343 2612 1
3343 3232 1
3343 3504 1
3343 4053 1
3343 4774 1
3343 4777 1
3343 4800 1
3343 4979 1
3344 188 1
3344 212 1
3344 763 1
3344 895 1
3344 4629 1
3345 356 1
3345 636 1
3345 845 1
3345 1795 1
3345 4163 1
3345 4854 1
3346 6 1
3346 43 1
3346 390 1
3346 2172 1
3347 51 1
3347 470 1
3347 1608 1
3347 1848 1
3347 3952 1
3348 6 1
3348 292 1
3348 1315 1
3348 2124 1
3349 32 1
3349 1169 1
3349 1749 1
3349 3269 1
3350 21 1
3350 506 1
3350 2124 1
3350 2626 1
3351 649 1
3351 968 1
3351 1374 1
3351 2414 1
3351 3669 1
3352 38 1
3352 318 1
3352 326 1
3352 466 1
3352 4626 1
3353 1211 1
3353 1865 1
3353 2821 1
3353 2930 1
3353 3468 1
3353 4412 1
3354 21 1
3354 390 1
3354 460 1
3354 658 1
3355 18 1
3355 52 1
3355 104 1
3355 1535 1
3355 4745 1
3356 46 1
3356 1169 1
3356 2620 1
3356 2861 1
3356 3584 1
3357 759 1
3357 1364 1
3357 1972 1
3357 2045 1
3358 56 1
3358 61 1
3358 254 1
3358 1899 1
3358 4061 1
3359 17 1
3359 33 1
3359 1599 1
3359 2986 1
3360 87 1
3360 2161 1
3360 2410 1
3360 2642 1
3360 3603 1
3361 302 1
3361 2007 1
3361 3126 1
3361 3208 1
3361 3538 1
3361 4193 1
3362 104 1
3362 242 1
3362 563 1
3362 1755 1
3362 4834 1
3363 223 1
3363 1151 1
3363 1726 1
3363 3091 1
3363 3472 1
3364 461 1
3364 520 1
3364 527 1
3364 1558 1
3365 119 1
3365 419 1
3365 717 1
3365 2116 1
3366 415 1
3366 1391 1
3366 1709 1
3366 2559 1
3366 4242 1
3367 267 1
3367 459 1
3367 1919 1
3367 2654 1
3368 399 1
3368 945 1
3368 1716 1
3368 2154 1
3368 3544 1
3368 4427 1
3369 48 1
3369 180 1
3369 281 1
3369 1202 1
3369 4864 1
3370 10 1
3370 615 1
3370 1887 1
3370 2547 1
3371 42 1
3371 108 1
3371 1500 1
3371 2566 1
3371 3592 1
3371 4071 1
3372 23 1
3372 571 1
3372 1424 1
3372 2804 1
3373 182 1
3373 1100 1
3373 1955 1
3373 3277 1
3374 407 1
3374 566 1
3374 704 1
3374 2510 1
3374 3571 1
3374 4710 1
3375 220 1
3375 304 1
3375 1203 1
3375 1395 1
3376 635 1
3376 829 1
3376 2311 1
3376 3083 1
3377 6 1
3377 30 1
3377 872 1
3377 2121 1
3378 5 1
3378 341 1
3378 1116 1
3378 3089 1
3378 4021 1
3379 482 1
3379 1277 1
3379 1372 1
3379 2806 1
3379 4163 1
3380 355 1
3380 434 1
3380 1119 1
3380 2178 1
3380 3460 1
3381 72 1
3381 707 1
3381 1758 1
3381 2567 1
3381 4411 1
3382 153 1
3382 364 1
3382 968 1
3382 2591 1
3383 13 1
3383 1724 1
3383 2681 1
3383 3166 1
3384 3 1
3384 154 1
3384 1028 1
3384 2108 1
3384 4413 1
3384 4805 1
3384 4955 1
3385 18 1
3385 809 1
3385 1014 1
3385 1230 1
3385 3745 1
3386 1 1
3386 72 1
3386 309 1
3386 652 1
3387 1 1
3387 249 1
3387 640 1
3387 1530 1
3387 3512 1
3388 138 1
3388 239 1
3388 402 1
3388 2924 1
3389 7 1
3389 207 1
3389 646 1
3389 811 1
3389 3576 1
3389 4101 1
3389 4494 1
3390 6 1
3390 14 1
3390 91 1
3390 331 1
3390 3750 1
3391 7 1
3391 23 1
3391 873 1
3391 1001 1
3391 4122 1
3392 75 1
3392 78 1
3392 923 1
3392 2147 1
3393 6 1
3393 494 1
3393 914 1
3393 2248 1
3394 137 1
3394 1107 1
3394 2263 1
3394 3202 1
3395 43 1
3395 304 1
3395 1366 1
3395 2907 1
3396 113 1
3396 605 1
3396 1236 1
3396 2121 1
3396 4436 1
3397 95 1
3397 121 1
3397 196 1
3397 2345 1
3397 3949 1
3397 4094 1
3398 164 1
3398 289 1
3398 605 1
3398 2905 1
3398 3455 1
3398 4509 1
3398 4720 1
3399 12 1
3399 56 1
3399 98 1
3399 1434 1
3399 3944 1
3400 3 1
3400 399 1
3400 498 1
3400 2106 1
3400 4985 1
3401 325 1
3401 1115 1
3401 1702 1
3401 2106 1
3401 4474 1
3402 176 1
3402 733 1
3402 2268 1
3402 2962 1
3402 3515 1
3403 8 1
3403 139 1
3403 1828 1
3403 2519 1
3404 97 1
3404 118 1
3404 3147 1
3404 3209 1
3404 3493 1
3404 4186 1
3405 188 1
3405 502 1
3405 872 1
3405 2789 1
3405 4225 1
3406 46 1
3406 72 1
3406 1827 1
3406 2994 1
3406 3431 1
3406 3668 1
3406 4094 1
3406 4533 1
3407 17 1
3407 262 1
3407 376 1
3407 1798 1
3408 6 1
3408 14 1
3408 476 1
3408 1401 1
3408 4639 1
3409 321 1
3409 689 1
3409 729 1
3409 2853 1
3409 3941 1
3410 6 1
3410 71 1
3410 578 1
3410 1463 1
3410 3493 1
3411 28 1
3411 111 1
3411 686 1
3411 1001 1
3412 26 1
3412 727 1
3412 1459 1
3412 2139 1
3412 3892 1
3412 4443 1
3413 535 1
3413 613 1
3413 2220 1
3413 3208 1
3414 626 1
3414 2289 1
3414 2713 1
3414 3114 1
3414 3887 1
3414 3947 1
3415 122 1
3415 451 1
3415 1465 1
3415 1592 1
3415 4205 1
3415 4300 1
3416 88 1
3416 511 1
3416 1912 1
3416 2872 1
3416 3594 1
3417 356 1
3417 381 1
3417 1912 1
3417 3032 1
3418 1 1
3418 242 1
3418 619 1
3418 2670 1
3418 3620 1
3419 232 1
3419 267 1
3419 545 1
3419 3080 1
3419 4774 1
3420 504 1
3420 1474 1
3420 1897 1
3420 3029 1
3421 137 1
3421 961 1
3421 2021 1
3421 3045 1
3422 72 1
3422 425 1
3422 1701 1
3422 3250 1
3422 4927 1
3423 1 1
3423 811 1
3423 2076 1
3423 3060 1
3423 4537 1
3424 91 1
3424 678 1
3424 737 1
3424 2804 1
3424 3752 1
3425 83 1
3425 1421 1
3425 1677 1
3425 2745 1
3426 796 1
3426 2020 1
3426 2196 1
3426 3295 1
3426 3751 1
3427 283 1
3427 671 1
3427 2364 1
3427 3061 1
3427 3739 1
3428 342 1
3428 507 1
3428 944 1
3428 2077 1
3429 62 1
3429 1502 1
3429 2142 1
3429 2237 1
3429 4562 1
3430 24 1
3430 997 1
3430 1002 1
3430 1503 1
3431 415 1
3431 775 1
3431 1901 1
3431 3406 1
3432 63 1
3432 145 1
3432 2139 1
3432 3052 1
3432 4421 1
3433 115 1
3433 251 1
3433 2205 1
3433 2490 1
3434 58 1
3434 223 1
3434 225 1
3434 1560 1
3434 4049 1
3435 382 1
3435 1438 1
3435 2001 1
3435 2473 1
3435 4917 1
3436 24 1
3436 2169 1
3436 2203 1
3436 3076 1
3436 3511 1
3436 4069 1
3436 4767 1
3437 14 1
3437 367 1
3437 2333 1
3437 2379 1
3437 4107 1
3438 168 1
3438 195 1
3438 466 1
3438 2677 1
3438 4386 1
3439 598 1
3439 1247 1
3439 2233 1
3439 2983 1
3439 3679 1
3439 4849 1
3440 23 1
3440 91 1
3440 114 1
3440 2012 1
3440 4641 1
3441 2156 1
3441 2262 1
3441 2514 1
3441 2937 1
3441 4245 1
3442 7 1
3442 226 1
3442 2711 1
3442 3129 1
3443 36 1
3443 751 1
3443 1364 1
3443 1774 1
3443 3905 1
3444 98 1
3444 899 1
3444 2074 1
3444 2963 1
3444 4581 1
3445 32 1
3445 46 1
3445 262 1
3445 983 1
3445 3869 1
3446 245 1
3446 426 1
3446 947 1
3446 2422 1
3446 4667 1
3447 426 1
3447 2190 1
3447 2774 1
3447 3089 1
3447 3936 1
3447 4013 1
3447 4095 1
3448 32 1
3448 671 1
3448 1042 1
3448 1203 1
3448 4989 1
3449 1 1
3449 692 1
3449 935 1
3449 2622 1
3449 4248 1
3449 4525 1
3450 60 1
3450 386 1
3450 1484 1
3450 2210 1
3450 3663 1
3451 31 1
3451 133 1
3451 1084 1
3451 1111 1
3451 3471 1
3451 4190 1
3452 209 1
3452 563 1
3452 2366 1
3452 2516 1
3453 218 1
3453 727 1
3453 1094 1
3453 1985 1
3454 132 1
3454 143 1
3454 386 1
3454 1324 1
3455 334 1
3455 723 1
3455 2811 1
3455 3398 1
3455 3703 1
3455 4151 1
3456 6 1
3456 1009 1
3456 1671 1
3456 2166 1
3456 3821 1
3456 4090 1
3456 4497 1
3457 276 1
3457 497 1
3457 1040 1
3457 1325 1
3457 4205 1
3458 6 1
3458 9 1
3458 142 1
3458 1856 1
3459 519 1
3459 621 1
3459 1055 1
3459 2836 1
3460 249 1
3460 2038 1
3460 3138 1
3460 3380 1
3461 131 1
3461 232 1
3461 429 1
3461 2007 1
3461 3560 1
3461 4121 1
3462 55 1
3462 205 1
3462 944 1
3462 2116 1
3463 20 1
3463 678 1
3463 1260 1
3463 1293 1
3464 41 1
3464 486 1
3464 663 1
3464 717 1
3464 4233 1
3464 4520 1
3465 1260 1
3465 1296 1
3465 2443 1
3465 2949 1
3465 3970 1
3466 1197 1
3466 1455 1
3466 2096 1
3466 2928 1
3466 3482 1
3467 619 1
3467 723 1
3467 938 1
3467 985 1
3467 3780 1
3467 3973 1
3468 18 1
3468 195 1
3468 778 1
3468 3353 1
3468 4260 1
3469 108 1
3469 238 1
3469 908 1
3469 1273 1
3470 415 1
3470 856 1
3470 1453 1
3470 1657 1
3470 4905 1
3471 8 1
3471 40 1
3471 1730 1
3471 3451 1
3472 528 1
3472 1055 1
3472 1586 1
3472 3363 1
3473 132 1
3473 425 1
3473 966 1
3473 1648 1
3474 177 1
3474 494 1
3474 2398 1
3474 3287 1
3474 3859 1
3474 4946 1
3475 416 1
3475 1196 1
3475 2057 1
3475 3053 1
3476 1 1
3476 71 1
3476 656 1
3476 1526 1
3476 3579 1
3476 4097 1
3477 1 1
3477 148 1
3477 312 1
3477 2402 1
3478 302 1
3478 710 1
3478 1227 1
3478 3198 1
3478 4335 1
3479 50 1
3479 2056 1
3479 2980 1
3479 3321 1
3480 17 1
3480 20 1
3480 2077 1
3480 2616 1
3481 263 1
3481 1342 1
3481 1498 1
3481 2736 1
3482 11 1
3482 1986 1
3482 2260 1
3482 3466 1
3483 6 1
3483 43 1
3483 854 1
3483 2791 1
3483 4575 1
3484 30 1
3484 93 1
3484 252 1
3484 1766 1
3484 4137 1
3485 421 1
3485 1186 1
3485 2802 1
3485 3086 1
3486 122 1
3486 609 1
3486 1089 1
3486 2282 1
3486 3755 1
3487 491 1
3487 622 1
3487 2634 1
3487 2689 1
3487 4854 1
3488 819 1
3488 1510 1
3488 1701 1
3488 2096 1
3488 4520 1
3489 109 1
3489 1258 1
3489 1722 1
3489 2111 1
3489 4632 1
3489 4656 1
3489 4895 1
3490 1 1
3490 2010 1
3490 2168 1
3490 2721 1
3491 7 1
3491 46 1
3491 2623 1
3491 3092 1
3491 3523 1
3492 1 1
3492 7 1
3492 11 1
3492 604 1
3492 4375 1
3493 2176 1
3493 2389 1
3493 3404 1
3493 3410 1
3493 3808 1
3494 56 1
3494 81 1
3494 865 1
3494 1687 1
3495 376 1
3495 425 1
3495 507 1
3495 1577 1
3496 235 1
3496 491 1
3496 1279 1
3496 3296 1
3497 10 1
3497 17 1
3497 506 1
3497 563 1
3498 6 1
3498 237 1
3498 336 1
3498 977 1
3499 7 1
3499 106 1
3499 131 1
3499 1202 1
3500 253 1
3500 2071 1
3500 2252 1
3500 2647 1
3501 779 1
3501 966 1
3501 1908 1
3501 2240 1
3502 149 1
3502 893 1
3502 2468 1
3502 2500 1
3502 3581 1
3502 3739 1
3503 607 1
3503 1229 1
3503 1617 1
3503 2182 1
3503 4281 1
3503 4842 1
3504 925 1
3504 1080 1
3504 2086 1
3504 3343 1
3505 354 1
3505 511 1
3505 2006 1
3505 2849 1
3506 106 1
3506 206 1
3506 814 1
3506 1493 1
3506 3871 1
3507 568 1
3507 587 1
3507 1305 1
3507 2779 1
3508 76 1
3508 1141 1
3508 1614 1
3508 2306 1
3509 41 1
3509 106 1
3509 236 1
3509 2195 1
3510 37 1
3510 552 1
3510 1559 1
3510 1807 1
3511 1550 1
3511 3018 1
3511 3163 1
3511 3436 1
3512 348 1
3512 366 1
3512 2634 1
3512 3387 1
3513 270 1
3513 1381 1
3513 1495 1
3513 2361 1
3514 29 1
3514 120 1
3514 161 1
3514 2934 1
3515 141 1
3515 679 1
3515 1963 1
3515 3402 1
3515 4526 1
3516 278 1
3516 530 1
3516 954 1
3516 1105 1
3516 4874 1
3517 14 1
3517 48 1
3517 682 1
3517 1019 1
3518 487 1
3518 558 1
3518 639 1
3518 2559 1
3518 3629 1
3518 3675 1
3519 3 1
3519 273 1
3519 386 1
3519 1303 1
3520 38 1
3520 274 1
3520 598 1
3520 955 1
3520 3779 1
3520 4648 1
3521 38 1
3521 91 1
3521 1322 1
3521 1920 1
3521 3540 1
3522 25 1
3522 1000 1
3522 1577 1
3522 1652 1
3523 60 1
3523 2999 1
3523 3297 1
3523 3491 1
3524 217 1
3524 309 1
3524 363 1
3524 2306 1
3525 261 1
3525 562 1
3525 760 1
3525 2645 1
3526 63 1
3526 370 1
3526 1886 1
3526 3234 1
3527 11 1
3527 277 1
3527 1839 1
3527 1909 1
3528 619 1
3528 1131 1
3528 1384 1
3528 3025 1
3528 4231 1
3528 4446 1
3529 10 1
3529 101 1
3529 1455 1
3529 2243 1
3530 60 1
3530 71 1
3530 1231 1
3530 1689 1
3530 4381 1
3531 46 1
3531 93 1
3531 586 1
3531 602 1
3531 4835 1
3532 45 1
3532 61 1
3532 98 1
3532 636 1
3532 4057 1
3533 327 1
3533 1478 1
3533 1906 1
3533 2256 1
3533 3841 1
3533 3924 1
3533 4177 1
3534 64 1
3534 1243 1
3534 2253 1
3534 3205 1
3535 5 1
3535 6 1
3535 45 1
3535 2368 1
3535 4099 1
3536 220 1
3536 434 1
3536 1491 1
3536 2321 1
3536 4752 1
3536 4873 1
3537 5 1
3537 216 1
3537 819 1
3537 3156 1
3538 1 1
3538 127 1
3538 1861 1
3538 3361 1
3538 4234 1
3539 364 1
3539 489 1
3539 958 1
3539 2665 1
3540 207 1
3540 1751 1
3540 3201 1
3540 3521 1
3540 3854 1
3541 509 1
3541 1315 1
3541 1439 1
3541 2634 1
3541 3692 1
3541 4054 1
3541 4760 1
3541 4782 1
3541 4803 1
3542 307 1
3542 1158 1
3542 1367 1
3542 1840 1
3542 3720 1
3542 3766 1
3543 153 1
3543 219 1
3543 2225 1
3543 2370 1
3544 243 1
3544 2361 1
3544 2522 1
3544 3368 1
3545 1144 1
3545 2302 1
3545 2603 1
3545 3044 1
3545 3623 1
3545 4190 1
3545 4932 1
3546 285 1
3546 367 1
3546 2179 1
3546 2870 1
3546 3623 1
3547 25 1
3547 88 1
3547 1399 1
3547 3112 1
3547 4241 1
3548 165 1
3548 416 1
3548 1319 1
3548 3212 1
3549 1206 1
3549 2189 1
3549 3312 1
3549 3314 1
3550 723 1
3550 1412 1
3550 2510 1
3550 2693 1
3550 3806 1
3551 440 1
3551 1356 1
3551 1679 1
3551 1856 1
3552 141 1
3552 528 1
3552 1713 1
3552 2637 1
3553 846 1
3553 1627 1
3553 1966 1
3553 2307 1
3553 3982 1
3554 838 1
3554 1436 1
3554 1821 1
3554 2425 1
3555 63 1
3555 808 1
3555 1533 1
3555 2174 1
3556 25 1
3556 199 1
3556 582 1
3556 2785 1
3556 4151 1
3556 4459 1
3556 4538 1
3557 6 1
3557 34 1
3557 2380 1
3557 2634 1
3557 3740 1
3558 6 1
3558 44 1
3558 209 1
3558 524 1
3558 4526 1
3559 417 1
3559 1413 1
3559 2128 1
3559 3125 1
3560 666 1
3560 711 1
3560 1681 1
3560 3461 1
3561 80 1
3561 881 1
3561 2621 1
3561 3013 1
3562 2 1
3562 10 1
3562 595 1
3562 1681 1
3563 27 1
3563 989 1
3563 1452 1
3563 3280 1
3564 294 1
3564 1574 1
3564 2158 1
3564 2379 1
3565 5 1
3565 111 1
3565 549 1
3565 1446 1
3565 3741 1
3566 230 1
3566 1574 1
3566 1982 1
3566 2731 1
3566 4032 1
3566 4857 1
3567 3 1
3567 72 1
3567 76 1
3567 1206 1
3567 4888 1
3568 298 1
3568 464 1
3568 1240 1
3568 2365 1
3569 760 1
3569 2091 1
3569 2838 1
3569 2898 1
3570 147 1
3570 292 1
3570 1108 1
3570 1305 1
3570 4311 1
3571 23 1
3571 253 1
3571 1420 1
3571 3374 1
3571 3611 1
3571 4346 1
3572 548 1
3572 859 1
3572 1132 1
3572 1308 1
3573 30 1
3573 193 1
3573 526 1
3573 1035 1
3574 80 1
3574 1531 1
3574 2099 1
3574 3001 1
3575 532 1
3575 746 1
3575 1437 1
3575 1670 1
3575 4641 1
3576 121 1
3576 531 1
3576 1801 1
3576 3389 1
3577 59 1
3577 1084 1
3577 2963 1
3577 3160 1
3577 3724 1
3577 4005 1
3577 4833 1
3577 4916 1
3577 4960 1
3578 1343 1
3578 1499 1
3578 1879 1
3578 2021 1
3578 4489 1
3579 114 1
3579 733 1
3579 1517 1
3579 3476 1
3579 4894 1
3580 145 1
3580 317 1
3580 1114 1
3580 2883 1
3581 6 1
3581 867 1
3581 1968 1
3581 3502 1
3582 45 1
3582 317 1
3582 2953 1
3582 3161 1
3583 6 1
3583 234 1
3583 1168 1
3583 1999 1
3583 4065 1
3583 4489 1
3583 4604 1
3584 8 1
3584 453 1
3584 459 1
3584 3356 1
3585 15 1
3585 36 1
3585 1798 1
3585 2471 1
3585 4709 1
3586 52 1
3586 222 1
3586 1004 1
3586 2498 1
3586 4021 1
3587 171 1
3587 427 1
3587 1097 1
3587 2493 1
3588 141 1
3588 157 1
3588 169 1
3588 265 1
3589 42 1
3589 146 1
3589 622 1
3589 1508 1
3589 4292 1
3589 4558 1
3589 4795 1
3590 9 1
3590 45 1
3590 1348 1
3590 2246 1
3591 338 1
3591 1293 1
3591 1486 1
3591 1680 1
3592 1917 1
3592 2594 1
3592 2891 1
3592 3371 1
3592 4282 1
3593 134 1
3593 1195 1
3593 1931 1
3593 2641 1
3594 99 1
3594 409 1
3594 3026 1
3594 3416 1
3595 9 1
3595 981 1
3595 1280 1
3595 1959 1
3595 4292 1
3596 652 1
3596 780 1
3596 2084 1
3596 2758 1
3596 4684 1
3597 117 1
3597 212 1
3597 372 1
3597 1648 1
3597 4312 1
3598 123 1
3598 1225 1
3598 1585 1
3598 2230 1
3598 4817 1
3598 4827 1
3599 361 1
3599 476 1
3599 852 1
3599 1131 1
3600 1 1
3600 2619 1
3600 2634 1
3600 3005 1
3601 394 1
3601 1560 1
3601 2040 1
3601 2607 1
3601 4963 1
3602 14 1
3602 91 1
3602 98 1
3602 2112 1
3603 1617 1
3603 2173 1
3603 3341 1
3603 3360 1
3603 4727 1
3604 6 1
3604 263 1
3604 569 1
3604 1346 1
3605 142 1
3605 973 1
3605 1020 1
3605 2989 1
3606 746 1
3606 865 1
3606 2134 1
3606 3270 1
3607 48 1
3607 553 1
3607 953 1
3607 2979 1
3608 235 1
3608 271 1
3608 546 1
3608 3117 1
3608 3690 1
3609 15 1
3609 223 1
3609 739 1
3609 2729 1
3610 41 1
3610 85 1
3610 1015 1
3610 1207 1
3610 4072 1
3610 4603 1
3611 11 1
3611 474 1
3611 2279 1
3611 3571 1
3612 61 1
3612 594 1
3612 841 1
3612 1982 1
3612 4204 1
3613 123 1
3613 147 1
3613 1288 1
3613 1666 1
3614 65 1
3614 158 1
3614 563 1
3614 1957 1
3614 4813 1
3614 4961 1
3615 34 1
3615 128 1
3615 905 1
3615 1961 1
3616 68 1
3616 188 1
3616 193 1
3616 206 1
3616 3675 1
3617 54 1
3617 352 1
3617 653 1
3617 770 1
3618 77 1
3618 91 1
3618 371 1
3618 2719 1
3619 231 1
3619 1557 1
3619 2535 1
3619 3040 1
3620 1 1
3620 138 1
3620 275 1
3620 3418 1
3620 3783 1
3620 4548 1
3621 32 1
3621 1092 1
3621 1932 1
3621 3212 1
3621 3743 1
3621 4182 1
3622 146 1
3622 510 1
3622 1654 1
3622 2317 1
3623 519 1
3623 2824 1
3623 3545 1
3623 3546 1
3623 4367 1
3623 4852 1
3623 4871 1
3623 4922 1
3624 300 1
3624 461 1
3624 687 1
3624 935 1
3625 1080 1
3625 2869 1
3625 3209 1
3625 3253 1
3625 4087 1
3625 4847 1
3626 1114 1
3626 1935 1
3626 1944 1
3626 3106 1
3627 299 1
3627 309 1
3627 340 1
3627 1827 1
3627 4437 1
3628 102 1
3628 1086 1
3628 1783 1
3628 1984 1
3629 9 1
3629 45 1
3629 827 1
3629 3518 1
3629 4450 1
3629 4456 1
3629 4978 1
3630 88 1
3630 373 1
3630 620 1
3630 889 1
3631 79 1
3631 86 1
3631 563 1
3631 836 1
3632 114 1
3632 723 1
3632 1308 1
3632 1354 1
3632 3867 1
3633 27 1
3633 339 1
3633 1006 1
3633 2231 1
3633 3680 1
3633 4024 1
3633 4352 1
3634 1 1
3634 24 1
3634 294 1
3634 1660 1
3634 4769 1
3635 824 1
3635 1571 1
3635 2669 1
3635 2731 1
3635 4698 1
3636 14 1
3636 175 1
3636 1878 1
3636 2841 1
3637 530 1
3637 1401 1
3637 1454 1
3637 2710 1
3638 84 1
3638 495 1
3638 2786 1
3638 2953 1
3638 3705 1
3638 4244 1
3639 262 1
3639 697 1
3639 1990 1
3639 2187 1
3640 500 1
3640 809 1
3640 829 1
3640 1480 1
3640 4128 1
3641 30 1
3641 269 1
3641 455 1
3641 2296 1
3642 137 1
3642 281 1
3642 1765 1
3642 2294 1
3643 11 1
3643 25 1
3643 1081 1
3643 2522 1
3644 161 1
3644 170 1
3644 1097 1
3644 1719 1
3645 203 1
3645 1111 1
3645 1830 1
3645 2735 1
3645 4424 1
3645 4800 1
3646 117 1
3646 285 1
3646 921 1
3646 1855 1
3647 128 1
3647 183 1
3647 694 1
3647 789 1
3647 3883 1
3648 61 1
3648 876 1
3648 1732 1
3648 2038 1
3649 6 1
3649 14 1
3649 31 1
3649 2324 1
3649 4041 1
3650 706 1
3650 2139 1
3650 2515 1
3650 3260 1
3650 4076 1
3650 4091 1
3651 78 1
3651 189 1
3651 1539 1
3651 2179 1
3652 418 1
3652 1653 1
3652 1768 1
3652 2231 1
3653 769 1
3653 995 1
3653 1779 1
3653 2097 1
3654 34 1
3654 310 1
3654 315 1
3654 421 1
3654 3913 1
3655 246 1
3655 395 1
3655 909 1
3655 2197 1
3656 8 1
3656 32 1
3656 77 1
3656 2632 1
3656 4744 1
3657 309 1
3657 1437 1
3657 1452 1
3657 3209 1
3657 3932 1
3658 210 1
3658 663 1
3658 2361 1
3658 2414 1
3659 62 1
3659 432 1
3659 832 1
3659 2038 1
3659 4491 1
3660 478 1
3660 651 1
3660 796 1
3660 830 1
3660 3710 1
3661 919 1
3661 1232 1
3661 1410 1
3661 2621 1
3661 4025 1
3662 74 1
3662 1469 1
3662 2624 1
3662 3025 1
3663 318 1
3663 508 1
3663 1689 1
3663 3450 1
3663 4530 1
3663 4725 1
3664 1273 1
3664 1339 1
3664 2680 1
3664 3047 1
3665 5 1
3665 760 1
3665 1643 1
3665 3326 1
3666 252 1
3666 265 1
3666 438 1
3666 2721 1
3667 182 1
3667 193 1
3667 1477 1
3667 1498 1
3667 3828 1
3668 137 1
3668 710 1
3668 1444 1
3668 3406 1
3669 948 1
3669 2240 1
3669 2345 1
3669 3351 1
3669 3980 1
3669 4465 1
3669 4547 1
3670 120 1
3670 129 1
3670 3130 1
3670 3250 1
3671 518 1
3671 892 1
3671 963 1
3671 2255 1
3672 93 1
3672 1031 1
3672 1912 1
3672 2389 1
3673 141 1
3673 265 1
3673 2920 1
3673 3054 1
3674 29 1
3674 345 1
3674 610 1
3674 1115 1
3674 4017 1
3675 395 1
3675 678 1
3675 3518 1
3675 3616 1
3675 3733 1
3675 3953 1
3675 4712 1
3676 12 1
3676 209 1
3676 972 1
3676 1351 1
3676 4000 1
3677 68 1
3677 846 1
3677 2032 1
3677 3134 1
3677 4934 1
3678 324 1
3678 638 1
3678 1580 1
3678 1871 1
3679 939 1
3679 1169 1
3679 3067 1
3679 3439 1
3679 4362 1
3679 4637 1
3680 130 1
3680 399 1
3680 2195 1
3680 3633 1
3681 95 1
3681 1202 1
3681 1469 1
3681 1792 1
3682 98 1
3682 550 1
3682 2240 1
3682 3202 1
3683 6 1
3683 1181 1
3683 1185 1
3683 2024 1
3684 285 1
3684 420 1
3684 794 1
3684 2550 1
3684 3840 1
3684 4387 1
3684 4774 1
3685 7 1
3685 78 1
3685 1741 1
3685 1864 1
3686 9 1
3686 22 1
3686 1573 1
3686 1767 1
3686 4270 1
3686 4318 1
3686 4511 1
3687 16 1
3687 176 1
3687 1041 1
3687 1063 1
3688 746 1
3688 1362 1
3688 1610 1
3688 2588 1
3688 3809 1
3689 34 1
3689 201 1
3689 921 1
3689 1660 1
3689 3838 1
3689 3947 1
3689 4664 1
3690 123 1
3690 946 1
3690 1123 1
3690 3608 1
3691 387 1
3691 846 1
3691 1225 1
3691 2047 1
3692 298 1
3692 492 1
3692 2498 1
3692 3541 1
3693 72 1
3693 278 1
3693 614 1
3693 2033 1
3693 4181 1
3694 41 1
3694 433 1
3694 529 1
3694 3025 1
3695 100 1
3695 1936 1
3695 2754 1
3695 3132 1
3696 154 1
3696 243 1
3696 698 1
3696 2510 1
3697 619 1
3697 1035 1
3697 1097 1
3697 2278 1
3697 4370 1
3698 123 1
3698 148 1
3698 962 1
3698 1132 1
3699 14 1
3699 36 1
3699 1792 1
3699 2821 1
3699 4795 1
3700 412 1
3700 1106 1
3700 1192 1
3700 2161 1
3700 4463 1
3701 3 1
3701 216 1
3701 1229 1
3701 2900 1
3701 4341 1
3702 387 1
3702 825 1
3702 1786 1
3702 2116 1
3703 62 1
3703 2984 1
3703 3050 1
3703 3455 1
3703 4440 1
3704 14 1
3704 1148 1
3704 1916 1
3704 2558 1
3705 2 1
3705 327 1
3705 737 1
3705 3638 1
3706 23 1
3706 77 1
3706 106 1
3706 2063 1
3706 3813 1
3707 226 1
3707 374 1
3707 930 1
3707 2870 1
3708 107 1
3708 988 1
3708 1115 1
3708 2138 1
3708 4674 1
3709 1 1
3709 1241 1
3709 1260 1
3709 2080 1
3710 343 1
3710 993 1
3710 2819 1
3710 3660 1
3711 2 1
3711 108 1
3711 158 1
3711 645 1
3712 12 1
3712 527 1
3712 855 1
3712 3031 1
3713 107 1
3713 468 1
3713 1342 1
3713 1775 1
3714 191 1
3714 587 1
3714 1495 1
3714 2913 1
3715 108 1
3715 247 1
3715 2289 1
3715 3026 1
3715 4278 1
3716 249 1
3716 556 1
3716 2444 1
3716 3255 1
3717 444 1
3717 458 1
3717 696 1
3717 2666 1
3717 4477 1
3717 4677 1
3718 143 1
3718 281 1
3718 310 1
3718 386 1
3719 920 1
3719 979 1
3719 1577 1
3719 3270 1
3720 27 1
3720 45 1
3720 2051 1
3720 3542 1
3720 3788 1
3721 15 1
3721 1453 1
3721 1935 1
3721 2289 1
3722 31 1
3722 229 1
3722 770 1
3722 1041 1
3723 3 1
3723 519 1
3723 546 1
3723 1613 1
3723 4609 1
3724 36 1
3724 1191 1
3724 2950 1
3724 3577 1
3725 871 1
3725 1241 1
3725 1290 1
3725 3133 1
3725 4782 1
3726 1472 1
3726 1723 1
3726 2321 1
3726 3101 1
3726 4014 1
3727 5 1
3727 902 1
3727 1874 1
3727 2667 1
3728 81 1
3728 160 1
3728 453 1
3728 538 1
3729 58 1
3729 320 1
3729 529 1
3729 1607 1
3729 4268 1
3730 297 1
3730 455 1
3730 1337 1
3730 1984 1
3731 61 1
3731 980 1
3731 1169 1
3731 3158 1
3731 4475 1
3732 568 1
3732 704 1
3732 2659 1
3732 3283 1
3733 36 1
3733 898 1
3733 903 1
3733 3675 1
3734 1933 1
3734 2626 1
3734 3041 1
3734 3307 1
3734 4323 1
3735 87 1
3735 182 1
3735 302 1
3735 978 1
3736 143 1
3736 147 1
3736 2086 1
3736 2744 1
3737 98 1
3737 444 1
3737 853 1
3737 1342 1
3738 1454 1
3738 1906 1
3738 2606 1
3738 2689 1
3738 4347 1
3739 516 1
3739 3283 1
3739 3427 1
3739 3502 1
3740 107 1
3740 238 1
3740 1505 1
3740 3557 1
3740 4432 1
3741 38 1
3741 78 1
3741 548 1
3741 3565 1
3742 12 1
3742 2007 1
3742 2306 1
3742 2468 1
3742 4289 1
3742 4900 1
3743 1 1
3743 34 1
3743 301 1
3743 3621 1
3744 614 1
3744 1496 1
3744 2442 1
3744 3298 1
3744 3934 1
3744 4420 1
3745 1425 1
3745 1608 1
3745 1720 1
3745 3385 1
3746 1871 1
3746 2285 1
3746 2396 1
3746 3104 1
3747 130 1
3747 773 1
3747 2632 1
3747 3091 1
3748 31 1
3748 305 1
3748 1617 1
3748 3065 1
3748 4006 1
3749 213 1
3749 1547 1
3749 1931 1
3749 3126 1
3750 286 1
3750 1727 1
3750 2807 1
3750 3390 1
3751 58 1
3751 509 1
3751 1153 1
3751 3426 1
3751 4773 1
3752 6 1
3752 113 1
3752 1884 1
3752 3424 1
3753 36 1
3753 74 1
3753 1427 1
3753 1565 1
3754 1663 1
3754 1788 1
3754 2650 1
3754 3041 1
3754 4322 1
3754 4356 1
3755 28 1
3755 353 1
3755 1069 1
3755 3486 1
3755 4115 1
3756 355 1
3756 625 1
3756 701 1
3756 2105 1
3757 535 1
3757 647 1
3757 1011 1
3757 2247 1
3758 156 1
3758 583 1
3758 728 1
3758 2989 1
3759 5 1
3759 58 1
3759 841 1
3759 3262 1
3760 1292 1
3760 1510 1
3760 3063 1
3760 3093 1
3761 384 1
3761 1041 1
3761 1105 1
3761 3080 1
3762 5 1
3762 136 1
3762 1142 1
3762 1203 1
3762 4249 1
3763 1160 1
3763 1207 1
3763 1372 1
3763 3322 1
3764 76 1
3764 107 1
3764 278 1
3764 993 1
3765 152 1
3765 482 1
3765 2412 1
3765 2904 1
3766 77 1
3766 274 1
3766 1977 1
3766 3542 1
3767 117 1
3767 311 1
3767 2299 1
3767 2721 1
3768 45 1
3768 831 1
3768 919 1
3768 2169 1
3769 21 1
3769 836 1
3769 1282 1
3769 1729 1
3770 65 1
3770 209 1
3770 499 1
3770 1704 1
3771 53 1
3771 160 1
3771 760 1
3771 2094 1
3772 11 1
3772 320 1
3772 324 1
3772 1059 1
3772 4379 1
3772 4789 1
3773 141 1
3773 247 1
3773 2395 1
3773 2573 1
3773 4285 1
3773 4445 1
3774 40 1
3774 245 1
3774 596 1
3774 1334 1
3774 4193 1
3775 11 1
3775 60 1
3775 556 1
3775 715 1
3775 4163 1
3776 1216 1
3776 2020 1
3776 2371 1
3776 3220 1
3777 292 1
3777 393 1
3777 1736 1
3777 2807 1
3778 74 1
3778 593 1
3778 1832 1
3778 3338 1
3779 43 1
3779 46 1
3779 1983 1
3779 3520 1
3780 91 1
3780 469 1
3780 3211 1
3780 3467 1
3781 155 1
3781 292 1
3781 709 1
3781 3166 1
3782 76 1
3782 95 1
3782 1227 1
3782 1498 1
3783 1 1
3783 227 1
3783 1059 1
3783 3620 1
3783 4223 1
3783 4416 1
3783 4976 1
3784 34 1
3784 761 1
3784 804 1
3784 3234 1
3784 4929 1
3785 371 1
3785 1120 1
3785 1328 1
3785 1944 1
3786 31 1
3786 54 1
3786 624 1
3786 3032 1
3786 4601 1
3787 481 1
3787 1273 1
3787 1480 1
3787 3126 1
3788 91 1
3788 149 1
3788 1414 1
3788 3720 1
3788 4262 1
3789 1 1
3789 10 1
3789 1613 1
3789 1846 1
3790 6 1
3790 621 1
3790 1051 1
3790 2224 1
3791 6 1
3791 198 1
3791 229 1
3791 802 1
3792 14 1
3792 44 1
3792 458 1
3792 2904 1
3793 845 1
3793 1143 1
3793 1624 1
3793 2705 1
3794 54 1
3794 641 1
3794 684 1
3794 702 1
3794 4703 1
3795 123 1
3795 828 1
3795 2493 1
3795 3108 1
3796 168 1
3796 185 1
3796 239 1
3796 2709 1
3796 4586 1
3797 1 1
3797 101 1
3797 3140 1
3797 3154 1
3798 23 1
3798 66 1
3798 1264 1
3798 2695 1
3799 102 1
3799 583 1
3799 960 1
3799 1410 1
3799 4410 1
3800 12 1
3800 117 1
3800 359 1
3800 1010 1
3801 344 1
3801 2324 1
3801 2491 1
3801 2913 1
3802 12 1
3802 333 1
3802 684 1
3802 2662 1
3803 29 1
3803 72 1
3803 789 1
3803 1653 1
3804 12 1
3804 279 1
3804 731 1
3804 2707 1
3804 4082 1
3804 4248 1
3805 22 1
3805 155 1
3805 488 1
3805 1782 1
3805 4579 1
3805 4679 1
3806 29 1
3806 106 1
3806 1630 1
3806 3550 1
3807 45 1
3807 1765 1
3807 1933 1
3807 2211 1
3808 697 1
3808 2580 1
3808 3169 1
3808 3493 1
3808 4173 1
3808 4689 1
3809 51 1
3809 497 1
3809 519 1
3809 3688 1
3810 41 1
3810 549 1
3810 624 1
3810 2060 1
3811 210 1
3811 240 1
3811 659 1
3811 729 1
3812 390 1
3812 759 1
3812 988 1
3812 2437 1
3812 4051 1
3813 1503 1
3813 2161 1
3813 2899 1
3813 3706 1
3814 1 1
3814 399 1
3814 697 1
3814 1241 1
3815 39 1
3815 54 1
3815 1724 1
3815 2767 1
3815 4119 1
3815 4553 1
3816 103 1
3816 198 1
3816 289 1
3816 1000 1
3817 224 1
3817 430 1
3817 770 1
3817 2735 1
3818 388 1
3818 1095 1
3818 1594 1
3818 2403 1
3819 131 1
3819 1041 1
3819 1910 1
3819 2865 1
3819 4025 1
3820 1 1
3820 6 1
3820 845 1
3820 3315 1
3820 4251 1
3821 78 1
3821 152 1
3821 1274 1
3821 3456 1
3821 4804 1
3822 1 1
3822 5 1
3822 468 1
3822 2010 1
3822 4600 1
3823 1 1
3823 118 1
3823 303 1
3823 894 1
3824 10 1
3824 45 1
3824 251 1
3824 2417 1
3825 1558 1
3825 1683 1
3825 2265 1
3825 3280 1
3826 8 1
3826 37 1
3826 466 1
3826 497 1
3827 13 1
3827 265 1
3827 1169 1
3827 3193 1
3827 3965 1
3828 174 1
3828 395 1
3828 1647 1
3828 3667 1
3829 94 1
3829 943 1
3829 1998 1
3829 2399 1
3829 4407 1
3830 1 1
3830 327 1
3830 519 1
3830 1681 1
3831 152 1
3831 983 1
3831 2087 1
3831 2149 1
3832 77 1
3832 245 1
3832 612 1
3832 1356 1
3833 53 1
3833 419 1
3833 1522 1
3833 2426 1
3834 27 1
3834 361 1
3834 441 1
3834 3082 1
3835 6 1
3835 11 1
3835 307 1
3835 455 1
3836 10 1
3836 23 1
3836 173 1
3836 2424 1
3837 126 1
3837 507 1
3837 2147 1
3837 2758 1
3837 4485 1
3838 55 1
3838 246 1
3838 1093 1
3838 3689 1
3838 4695 1
3839 787 1
3839 808 1
3839 1620 1
3839 1777 1
3839 4482 1
3839 4861 1
3840 1169 1
3840 2434 1
3840 3084 1
3840 3684 1
3840 4776 1
3841 1069 1
3841 1438 1
3841 1899 1
3841 3533 1
3842 59 1
3842 187 1
3842 1086 1
3842 2039 1
3842 4715 1
3842 4928 1
3843 77 1
3843 558 1
3843 2543 1
3843 3134 1
3844 386 1
3844 1083 1
3844 1466 1
3844 2449 1
3845 343 1
3845 356 1
3845 904 1
3845 1361 1
3846 760 1
3846 1815 1
3846 2049 1
3846 2890 1
3846 4881 1
3847 11 1
3847 30 1
3847 2496 1
3847 2897 1
3847 4517 1
3848 116 1
3848 1794 1
3848 2560 1
3848 3158 1
3849 474 1
3849 1114 1
3849 1441 1
3849 1442 1
3850 46 1
3850 395 1
3850 788 1
3850 1208 1
3851 642 1
3851 753 1
3851 1010 1
3851 2289 1
3852 1040 1
3852 1928 1
3852 2302 1
3852 2343 1
3852 4231 1
3853 362 1
3853 377 1
3853 696 1
3853 1810 1
3853 4212 1
3854 761 1
3854 1636 1
3854 2754 1
3854 3540 1
3855 87 1
3855 194 1
3855 861 1
3855 1158 1
3855 3998 1
3856 435 1
3856 694 1
3856 2639 1
3856 3089 1
3856 4492 1
3857 9 1
3857 112 1
3857 1951 1
3857 2573 1
3858 1147 1
3858 1150 1
3858 1265 1
3858 2655 1
3859 36 1
3859 827 1
3859 1755 1
3859 3474 1
3860 547 1
3860 579 1
3860 2083 1
3860 2395 1
3861 36 1
3861 175 1
3861 1558 1
3861 2118 1
3862 55 1
3862 170 1
3862 262 1
3862 673 1
3862 4746 1
3863 320 1
3863 393 1
3863 441 1
3863 592 1
3863 4526 1
3864 95 1
3864 473 1
3864 540 1
3864 1207 1
3865 362 1
3865 430 1
3865 497 1
3865 1208 1
3865 4434 1
3866 270 1
3866 290 1
3866 2455 1
3866 2721 1
3866 4047 1
3867 1223 1
3867 1638 1
3867 2544 1
3867 3632 1
3867 4829 1
3868 1064 1
3868 1186 1
3868 2424 1
3868 2592 1
3869 364 1
3869 1501 1
3869 2129 1
3869 3445 1
3869 4372 1
3870 215 1
3870 573 1
3870 806 1
3870 2655 1
3871 204 1
3871 534 1
3871 1472 1
3871 3506 1
3872 136 1
3872 679 1
3872 1954 1
3872 2396 1
3873 802 1
3873 1158 1
3873 1779 1
3873 1789 1
3874 331 1
3874 451 1
3874 1952 1
3874 2490 1
3874 4617 1
3875 63 1
3875 131 1
3875 1341 1
3875 2443 1
3875 4271 1
3875 4785 1
3876 8 1
3876 45 1
3876 231 1
3876 250 1
3876 4184 1
3876 4608 1
3877 291 1
3877 399 1
3877 1665 1
3877 1771 1
3878 22 1
3878 70 1
3878 200 1
3878 237 1
3879 8 1
3879 30 1
3879 956 1
3879 1518 1
3880 428 1
3880 622 1
3880 711 1
3880 1120 1
3880 3915 1
3880 4091 1
3880 4778 1
3881 68 1
3881 944 1
3881 1563 1
3881 1848 1
3882 11 1
3882 1454 1
3882 1717 1
3882 2207 1
3883 373 1
3883 649 1
3883 3333 1
3883 3647 1
3883 4953 1
3884 8 1
3884 137 1
3884 271 1
3884 2610 1
3885 495 1
3885 755 1
3885 2044 1
3885 2137 1
3885 3938 1
3885 4035 1
3886 189 1
3886 1885 1
3886 1937 1
3886 2176 1
3886 4494 1
3887 116 1
3887 963 1
3887 2211 1
3887 3414 1
3887 4963 1
3887 4965 1
3888 19 1
3888 530 1
3888 1474 1
3888 3209 1
3888 3911 1
3889 287 1
3889 617 1
3889 1397 1
3889 2852 1
3890 640 1
3890 653 1
3890 1647 1
3890 2703 1
3891 53 1
3891 291 1
3891 978 1
3891 1614 1
3892 668 1
3892 1067 1
3892 1164 1
3892 3412 1
3893 418 1
3893 970 1
3893 1737 1
3893 3123 1
3893 4040 1
3893 4444 1
3893 4573 1
3894 99 1
3894 145 1
3894 2658 1
3894 3044 1
3895 289 1
3895 319 1
3895 1191 1
3895 2678 1
3895 4150 1
3895 4471 1
3896 51 1
3896 258 1
3896 819 1
3896 1527 1
3897 340 1
3897 544 1
3897 2487 1
3897 3021 1
3898 31 1
3898 340 1
3898 1116 1
3898 2351 1
3899 1197 1
3899 1417 1
3899 1760 1
3899 2117 1
3900 5 1
3900 10 1
3900 568 1
3900 1109 1
3901 5 1
3901 297 1
3901 1087 1
3901 2329 1
3902 683 1
3902 865 1
3902 2437 1
3902 2862 1
3903 19 1
3903 26 1
3903 826 1
3903 1351 1
3904 224 1
3904 1490 1
3904 2020 1
3904 2071 1
3904 4468 1
3905 203 1
3905 462 1
3905 1630 1
3905 3443 1
3906 222 1
3906 2081 1
3906 2379 1
3906 3232 1
3907 265 1
3907 1416 1
3907 1879 1
3907 2780 1
3908 1 1
3908 11 1
3908 2912 1
3908 3198 1
3908 4363 1
3909 278 1
3909 305 1
3909 1391 1
3909 1693 1
3909 4352 1
3910 424 1
3910 666 1
3910 743 1
3910 1574 1
3911 274 1
3911 2067 1
3911 2120 1
3911 3888 1
3912 224 1
3912 1818 1
3912 1999 1
3912 2417 1
3913 63 1
3913 76 1
3913 1206 1
3913 3654 1
3914 32 1
3914 304 1
3914 1205 1
3914 1248 1
3914 4620 1
3915 14 1
3915 1435 1
3915 2704 1
3915 3880 1
3916 335 1
3916 760 1
3916 2268 1
3916 2714 1
3917 6 1
3917 24 1
3917 2439 1
3917 2469 1
3917 4645 1
3918 839 1
3918 898 1
3918 1733 1
3918 2299 1
3919 160 1
3919 424 1
3919 496 1
3919 1239 1
3920 3 1
3920 535 1
3920 1552 1
3920 2437 1
3921 53 1
3921 62 1
3921 352 1
3921 1397 1
3922 1 1
3922 144 1
3922 750 1
3922 2989 1
3922 4712 1
3923 3 1
3923 396 1
3923 808 1
3923 1204 1
3924 2315 1
3924 2363 1
3924 3181 1
3924 3533 1
3925 29 1
3925 94 1
3925 1577 1
3925 2567 1
3926 1561 1
3926 1805 1
3926 2064 1
3926 2129 1
3927 116 1
3927 521 1
3927 728 1
3927 2262 1
3928 416 1
3928 506 1
3928 2215 1
3928 2217 1
3929 427 1
3929 729 1
3929 1510 1
3929 3300 1
3930 14 1
3930 782 1
3930 2094 1
3930 2519 1
3931 12 1
3931 17 1
3931 643 1
3931 1554 1
3932 6 1
3932 12 1
3932 372 1
3932 3657 1
3932 4620 1
3933 38 1
3933 81 1
3933 251 1
3933 882 1
3933 3994 1
3934 101 1
3934 131 1
3934 189 1
3934 3744 1
3934 4046 1
3934 4277 1
3934 4789 1
3935 51 1
3935 75 1
3935 172 1
3935 1294 1
3936 7 1
3936 123 1
3936 223 1
3936 3447 1
3937 51 1
3937 884 1
3937 1897 1
3937 2320 1
3938 14 1
3938 315 1
3938 453 1
3938 3885 1
3939 60 1
3939 270 1
3939 2815 1
3939 3272 1
3940 763 1
3940 841 1
3940 932 1
3940 1709 1
3941 1 1
3941 1100 1
3941 2055 1
3941 3409 1
3942 22 1
3942 24 1
3942 42 1
3942 1604 1
3943 45 1
3943 71 1
3943 1930 1
3943 3047 1
3943 4893 1
3944 395 1
3944 1001 1
3944 2938 1
3944 3399 1
3945 11 1
3945 147 1
3945 972 1
3945 1334 1
3946 347 1
3946 2165 1
3946 2231 1
3946 3244 1
3947 355 1
3947 395 1
3947 3414 1
3947 3689 1
3947 4068 1
3948 78 1
3948 625 1
3948 810 1
3948 2593 1
3949 425 1
3949 2250 1
3949 2687 1
3949 3397 1
3950 1502 1
3950 2389 1
3950 2537 1
3950 3034 1
3950 4649 1
3951 124 1
3951 368 1
3951 2209 1
3951 3025 1
3951 3974 1
3952 16 1
3952 430 1
3952 2636 1
3952 3347 1
3953 19 1
3953 189 1
3953 3270 1
3953 3675 1
3954 216 1
3954 652 1
3954 2096 1
3954 2389 1
3955 19 1
3955 23 1
3955 425 1
3955 779 1
3955 4325 1
3956 74 1
3956 300 1
3956 725 1
3956 776 1
3957 1170 1
3957 2632 1
3957 2862 1
3957 2942 1
3957 4028 1
3957 4406 1
3958 963 1
3958 1015 1
3958 1252 1
3958 3326 1
3959 24 1
3959 481 1
3959 2028 1
3959 3319 1
3960 56 1
3960 439 1
3960 1060 1
3960 1166 1
3961 8 1
3961 202 1
3961 257 1
3961 734 1
3961 4600 1
3962 7 1
3962 39 1
3962 1316 1
3962 2855 1
3963 152 1
3963 1317 1
3963 1561 1
3963 2184 1
3964 30 1
3964 90 1
3964 734 1
3964 1759 1
3965 1200 1
3965 1339 1
3965 3098 1
3965 3827 1
3966 646 1
3966 1053 1
3966 1547 1
3966 3186 1
3966 4859 1
3967 640 1
3967 760 1
3967 1735 1
3967 2195 1
3967 4116 1
3967 4386 1
3968 64 1
3968 381 1
3968 419 1
3968 2362 1
3968 4925 1
3969 85 1
3969 269 1
3969 812 1
3969 1874 1
3969 4324 1
3970 551 1
3970 1454 1
3970 2092 1
3970 3465 1
3970 4005 1
3971 73 1
3971 99 1
3971 943 1
3971 1114 1
3971 4109 1
3971 4191 1
3971 4879 1
3972 57 1
3972 423 1
3972 773 1
3972 2038 1
3973 561 1
3973 1413 1
3973 2784 1
3973 3467 1
3973 4200 1
3974 11 1
3974 19 1
3974 3008 1
3974 3951 1
3974 4156 1
3974 4161 1
3975 9 1
3975 45 1
3975 242 1
3975 1479 1
3976 19 1
3976 711 1
3976 932 1
3976 2602 1
3976 3992 1
3976 4499 1
3976 4681 1
3977 35 1
3977 843 1
3977 905 1
3977 1317 1
3978 1 1
3978 7 1
3978 71 1
3978 2173 1
3979 58 1
3979 217 1
3979 260 1
3979 1935 1
3980 26 1
3980 523 1
3980 1837 1
3980 3669 1
3980 4953 1
3981 1 1
3981 710 1
3981 2345 1
3981 2614 1
3982 31 1
3982 1440 1
3982 2570 1
3982 3553 1
3982 4631 1
3983 58 1
3983 434 1
3983 1742 1
3983 3063 1
3984 187 1
3984 526 1
3984 528 1
3984 687 1
3985 170 1
3985 691 1
3985 1065 1
3985 1396 1
3986 458 1
3986 602 1
3986 1936 1
3986 2855 1
3987 48 1
3987 172 1
3987 717 1
3987 837 1
3988 92 1
3988 835 1
3988 1876 1
3988 2947 1
3989 15 1
3989 154 1
3989 178 1
3989 2981 1
3989 4978 1
3990 143 1
3990 530 1
3990 1334 1
3990 1535 1
3990 4996 1
3991 933 1
3991 1323 1
3991 1727 1
3991 1820 1
3991 4042 1
3992 250 1
3992 334 1
3992 655 1
3992 3976 1
3992 4352 1
3993 58 1
3993 183 1
3993 434 1
3993 535 1
3994 169 1
3994 1004 1
3994 1452 1
3994 3933 1
3994 4317 1
3995 13 1
3995 48 1
3995 274 1
3995 1697 1
3996 72 1
3996 92 1
3996 248 1
3996 625 1
3997 2 1
3997 984 1
3997 2683 1
3997 2819 1
3998 1225 1
3998 1499 1
3998 1695 1
3998 3855 1
3999 168 1
3999 2433 1
3999 2848 1
3999 2911 1
3999 4841 1
4000 622 1
4000 829 1
4000 1834 1
4000 3676 1
4000 4523 1
4000 4652 1
4000 4956 1
4001 322 1
4001 773 1
4001 872 1
4001 1207 1
4002 243 1
4002 488 1
4002 2077 1
4002 2109 1
4003 61 1
4003 652 1
4003 1131 1
4003 1986 1
4004 3 1
4004 212 1
4004 876 1
4004 3018 1
4004 4359 1
4005 123 1
4005 291 1
4005 3577 1
4005 3970 1
4005 4365 1
4006 589 1
4006 1938 1
4006 2104 1
4006 3748 1
4007 10 1
4007 624 1
4007 1339 1
4007 2181 1
4008 46 1
4008 137 1
4008 263 1
4008 1713 1
4009 34 1
4009 137 1
4009 242 1
4009 3267 1
4009 4115 1
4009 4998 1
4010 419 1
4010 714 1
4010 2105 1
4010 2390 1
4010 4893 1
4011 6 1
4011 113 1
4011 986 1
4011 2088 1
4012 18 1
4012 61 1
4012 2803 1
4012 3171 1
4013 144 1
4013 324 1
4013 2703 1
4013 3447 1
4014 205 1
4014 1194 1
4014 2729 1
4014 3726 1
4015 274 1
4015 2128 1
4015 2581 1
4015 2989 1
4015 4212 1
4015 4284 1
4016 199 1
4016 297 1
4016 2104 1
4016 2831 1
4016 4643 1
4017 723 1
4017 1576 1
4017 2832 1
4017 3674 1
4017 4256 1
4017 4361 1
4018 73 1
4018 308 1
4018 2039 1
4018 3319 1
4018 4428 1
4018 4812 1
4019 6 1
4019 667 1
4019 717 1
4019 2473 1
4019 4230 1
4019 4517 1
4019 4714 1
4020 1107 1
4020 1291 1
4020 1308 1
4020 1712 1
4020 4458 1
4021 93 1
4021 2983 1
4021 3378 1
4021 3586 1
4022 171 1
4022 213 1
4022 1405 1
4022 2046 1
4023 493 1
4023 854 1
4023 1453 1
4023 1533 1
4024 14 1
4024 170 1
4024 2036 1
4024 3633 1
4025 7 1
4025 74 1
4025 3661 1
4025 3819 1
4025 4377 1
4025 4382 1
4025 4621 1
4026 16 1
4026 142 1
4026 1192 1
4026 1765 1
4026 4720 1
4027 66 1
4027 554 1
4027 961 1
4027 1172 1
4028 19 1
4028 51 1
4028 2719 1
4028 3957 1
4029 48 1
4029 176 1
4029 1774 1
4029 1922 1
4029 4566 1
4030 53 1
4030 147 1
4030 1221 1
4030 1925 1
4031 88 1
4031 1011 1
4031 1182 1
4031 1454 1
4032 1177 1
4032 1417 1
4032 1726 1
4032 3566 1
4033 466 1
4033 669 1
4033 833 1
4033 3024 1
4034 11 1
4034 173 1
4034 2410 1
4034 3232 1
4034 4386 1
4035 170 1
4035 226 1
4035 2919 1
4035 3885 1
4035 4138 1
4035 4895 1
4036 845 1
4036 1115 1
4036 1158 1
4036 1993 1
4036 4355 1
4037 27 1
4037 1022 1
4037 1757 1
4037 1879 1
4038 511 1
4038 1031 1
4038 1231 1
4038 1566 1
4038 4515 1
4039 54 1
4039 94 1
4039 630 1
4039 2193 1
4039 4930 1
4040 54 1
4040 373 1
4040 2859 1
4040 3893 1
4041 19 1
4041 3080 1
4041 3161 1
4041 3649 1
4042 117 1
4042 981 1
4042 2482 1
4042 3991 1
4043 6 1
4043 102 1
4043 716 1
4043 2876 1
4044 319 1
4044 610 1
4044 1829 1
4044 2678 1
4045 8 1
4045 144 1
4045 1023 1
4045 2824 1
4045 4731 1
4046 43 1
4046 563 1
4046 882 1
4046 3934 1
4046 4951 1
4047 54 1
4047 1688 1
4047 3203 1
4047 3866 1
4048 450 1
4048 493 1
4048 2633 1
4048 3255 1
4048 4104 1
4049 6 1
4049 863 1
4049 1792 1
4049 3434 1
4049 4660 1
4050 31 1
4050 70 1
4050 1299 1
4050 2683 1
4051 845 1
4051 1391 1
4051 1445 1
4051 3812 1
4052 61 1
4052 1001 1
4052 1653 1
4052 2030 1
4052 4828 1
4053 363 1
4053 1591 1
4053 2735 1
4053 3343 1
4054 474 1
4054 1093 1
4054 2394 1
4054 3541 1
4055 185 1
4055 738 1
4055 1143 1
4055 2496 1
4056 10 1
4056 1617 1
4056 1935 1
4056 2803 1
4056 4649 1
4057 247 1
4057 1578 1
4057 2463 1
4057 3532 1
4058 207 1
4058 968 1
4058 1955 1
4058 2099 1
4058 4556 1
4059 96 1
4059 615 1
4059 924 1
4059 1809 1
4059 4367 1
4060 23 1
4060 1070 1
4060 1467 1
4060 3236 1
4060 4255 1
4061 302 1
4061 1073 1
4061 1703 1
4061 3358 1
4062 21 1
4062 173 1
4062 801 1
4062 2560 1
4063 6 1
4063 1805 1
4063 1832 1
4063 2861 1
4064 25 1
4064 129 1
4064 984 1
4064 1396 1
4065 1013 1
4065 2604 1
4065 3118 1
4065 3583 1
4065 4539 1
4065 4736 1
4066 632 1
4066 648 1
4066 1202 1
4066 2748 1
4066 4414 1
4067 221 1
4067 301 1
4067 879 1
4067 1785 1
4067 4445 1
4068 76 1
4068 543 1
4068 2329 1
4068 3947 1
4069 1333 1
4069 1795 1
4069 2706 1
4069 3436 1
4069 4203 1
4069 4557 1
4070 4 1
4070 78 1
4070 421 1
4070 2148 1
4071 341 1
4071 1100 1
4071 2988 1
4071 3371 1
4072 56 1
4072 351 1
4072 3100 1
4072 3610 1
4073 31 1
4073 759 1
4073 2076 1
4073 2591 1
4074 596 1
4074 1608 1
4074 2169 1
4074 2459 1
4075 7 1
4075 30 1
4075 1276 1
4075 2883 1
4075 4403 1
4076 338 1
4076 473 1
4076 1457 1
4076 3650 1
4077 175 1
4077 697 1
4077 1979 1
4077 2989 1
4078 120 1
4078 217 1
4078 785 1
4078 2514 1
4079 679 1
4079 890 1
4079 1091 1
4079 1342 1
4080 30 1
4080 726 1
4080 1999 1
4080 2061 1
4081 67 1
4081 165 1
4081 357 1
4081 1554 1
4082 7 1
4082 37 1
4082 40 1
4082 3804 1
4083 3 1
4083 66 1
4083 765 1
4083 992 1
4084 23 1
4084 154 1
4084 424 1
4084 2632 1
4084 4307 1
4085 75 1
4085 536 1
4085 932 1
4085 1479 1
4086 237 1
4086 272 1
4086 297 1
4086 1008 1
4087 1265 1
4087 1836 1
4087 2746 1
4087 3625 1
4088 76 1
4088 1426 1
4088 1456 1
4088 2743 1
4089 746 1
4089 910 1
4089 2304 1
4089 2597 1
4089 4935 1
4090 81 1
4090 1451 1
4090 2296 1
4090 3456 1
4091 192 1
4091 584 1
4091 3650 1
4091 3880 1
4091 4275 1
4092 54 1
4092 230 1
4092 2786 1
4092 2941 1
4093 109 1
4093 324 1
4093 2001 1
4093 2493 1
4094 553 1
4094 758 1
4094 3397 1
4094 3406 1
4094 4879 1
4094 4949 1
4095 10 1
4095 1546 1
4095 2327 1
4095 3447 1
4095 4618 1
4096 36 1
4096 321 1
4096 563 1
4096 2945 1
4097 45 1
4097 244 1
4097 994 1
4097 3476 1
4097 4589 1
4098 755 1
4098 769 1
4098 885 1
4098 1787 1
4099 157 1
4099 1557 1
4099 1663 1
4099 3535 1
4100 1243 1
4100 2674 1
4100 2893 1
4100 3068 1
4101 10 1
4101 251 1
4101 923 1
4101 3389 1
4102 1 1
4102 303 1
4102 2064 1
4102 2891 1
4103 157 1
4103 786 1
4103 2335 1
4103 2609 1
4104 204 1
4104 1051 1
4104 1755 1
4104 4048 1
4105 6 1
4105 76 1
4105 1757 1
4105 3132 1
4106 363 1
4106 671 1
4106 1155 1
4106 2447 1
4107 12 1
4107 103 1
4107 420 1
4107 3437 1
4107 4457 1
4108 352 1
4108 418 1
4108 439 1
4108 1105 1
4109 47 1
4109 151 1
4109 370 1
4109 3971 1
4110 1259 1
4110 1267 1
4110 2304 1
4110 3327 1
4111 44 1
4111 1040 1
4111 2250 1
4111 3052 1
4112 180 1
4112 524 1
4112 2928 1
4112 3258 1
4113 300 1
4113 768 1
4113 1386 1
4113 3014 1
4113 4324 1
4113 4818 1
4114 3 1
4114 28 1
4114 154 1
4114 2201 1
4114 4728 1
4115 12 1
4115 394 1
4115 3755 1
4115 4009 1
4116 36 1
4116 342 1
4116 399 1
4116 3967 1
4117 9 1
4117 12 1
4117 93 1
4117 117 1
4118 15 1
4118 412 1
4118 450 1
4118 916 1
4119 178 1
4119 1895 1
4119 1911 1
4119 3815 1
4120 8 1
4120 18 1
4120 469 1
4120 1404 1
4121 38 1
4121 81 1
4121 1061 1
4121 3461 1
4122 149 1
4122 1233 1
4122 2636 1
4122 3391 1
4122 4856 1
4123 6 1
4123 1110 1
4123 1294 1
4123 2649 1
4124 10 1
4124 27 1
4124 117 1
4124 2670 1
4125 44 1
4125 367 1
4125 419 1
4125 3168 1
4126 30 1
4126 43 1
4126 88 1
4126 195 1
4126 4787 1
4127 1 1
4127 679 1
4127 961 1
4127 3031 1
4127 4396 1
4128 52 1
4128 212 1
4128 1578 1
4128 3640 1
4129 61 1
4129 290 1
4129 2657 1
4129 3160 1
4130 62 1
4130 81 1
4130 1821 1
4130 2248 1
4131 3 1
4131 118 1
4131 1486 1
4131 1896 1
4132 8 1
4132 304 1
4132 544 1
4132 1060 1
4132 4358 1
4133 474 1
4133 1009 1
4133 1470 1
4133 2848 1
4134 346 1
4134 1019 1
4134 1287 1
4134 2047 1
4134 4385 1
4135 216 1
4135 719 1
4135 1004 1
4135 1589 1
4136 118 1
4136 396 1
4136 2548 1
4136 2683 1
4136 4158 1
4137 351 1
4137 697 1
4137 1308 1
4137 3484 1
4138 968 1
4138 2115 1
4138 2812 1
4138 4035 1
4139 1240 1
4139 2723 1
4139 2920 1
4139 3135 1
4139 4221 1
4139 4855 1
4140 7 1
4140 163 1
4140 506 1
4140 2283 1
4141 52 1
4141 217 1
4141 1454 1
4141 2839 1
4141 4325 1
4142 8 1
4142 225 1
4142 1066 1
4142 3337 1
4143 166 1
4143 258 1
4143 345 1
4143 2290 1
4144 68 1
4144 1187 1
4144 1392 1
4144 2234 1
4144 4344 1
4144 4580 1
4144 4810 1
4145 1 1
4145 71 1
4145 667 1
4145 1291 1
4146 6 1
4146 8 1
4146 2758 1
4146 3131 1
4147 98 1
4147 230 1
4147 626 1
4147 3318 1
4148 123 1
4148 284 1
4148 878 1
4148 2330 1
4149 8 1
4149 776 1
4149 840 1
4149 3248 1
4150 78 1
4150 1238 1
4150 3024 1
4150 3895 1
4151 2 1
4151 38 1
4151 3455 1
4151 3556 1
4152 109 1
4152 770 1
4152 793 1
4152 2032 1
4153 1 1
4153 11 1
4153 438 1
4153 3004 1
4153 4419 1
4154 443 1
4154 751 1
4154 1301 1
4154 2091 1
4155 45 1
4155 131 1
4155 458 1
4155 2639 1
4155 4396 1
4156 225 1
4156 264 1
4156 2668 1
4156 3974 1
4156 4602 1
4157 388 1
4157 1801 1
4157 3116 1
4157 3178 1
4158 656 1
4158 823 1
4158 2170 1
4158 4136 1
4158 4969 1
4159 45 1
4159 1791 1
4159 2144 1
4159 2391 1
4160 519 1
4160 829 1
4160 2486 1
4160 2743 1
4160 4962 1
4161 1627 1
4161 1961 1
4161 2989 1
4161 3974 1
4162 17 1
4162 40 1
4162 137 1
4162 2163 1
4163 1334 1
4163 3345 1
4163 3379 1
4163 3775 1
4164 18 1
4164 552 1
4164 1429 1
4164 2713 1
4165 27 1
4165 361 1
4165 1968 1
4165 2300 1
4166 160 1
4166 676 1
4166 897 1
4166 3273 1
4167 7 1
4167 409 1
4167 1490 1
4167 3187 1
4168 315 1
4168 706 1
4168 2047 1
4168 3047 1
4169 183 1
4169 1294 1
4169 1314 1
4169 2465 1
4170 424 1
4170 698 1
4170 1669 1
4170 1713 1
4170 4435 1
4171 311 1
4171 2126 1
4171 2283 1
4171 2805 1
4172 567 1
4172 1180 1
4172 2495 1
4172 2721 1
4173 329 1
4173 796 1
4173 1514 1
4173 3808 1
4173 4213 1
4173 4655 1
4174 11 1
4174 98 1
4174 255 1
4174 753 1
4175 170 1
4175 387 1
4175 1945 1
4175 2040 1
4175 4708 1
4176 476 1
4176 1169 1
4176 1865 1
4176 2462 1
4176 4312 1
4177 34 1
4177 1328 1
4177 2632 1
4177 3533 1
4177 4211 1
4178 848 1
4178 2223 1
4178 2488 1
4178 2859 1
4179 117 1
4179 537 1
4179 544 1
4179 1253 1
4179 4978 1
4180 262 1
4180 1377 1
4180 1646 1
4180 3270 1
4181 356 1
4181 1114 1
4181 1139 1
4181 3693 1
4182 162 1
4182 1502 1
4182 2286 1
4182 3621 1
4183 14 1
4183 24 1
4183 1903 1
4183 3322 1
4183 4506 1
4183 4884 1
4184 125 1
4184 2576 1
4184 2639 1
4184 3876 1
4185 209 1
4185 460 1
4185 831 1
4185 3240 1
4186 16 1
4186 482 1
4186 3237 1
4186 3404 1
4187 5 1
4187 76 1
4187 174 1
4187 1126 1
4188 348 1
4188 1548 1
4188 2004 1
4188 2454 1
4189 36 1
4189 46 1
4189 228 1
4189 431 1
4189 4598 1
4190 519 1
4190 1402 1
4190 3451 1
4190 3545 1
4191 1773 1
4191 2534 1
4191 2811 1
4191 3971 1
4191 4458 1
4191 4557 1
4192 305 1
4192 324 1
4192 354 1
4192 2564 1
4193 603 1
4193 2462 1
4193 3361 1
4193 3774 1
4194 22 1
4194 142 1
4194 175 1
4194 1591 1
4194 4921 1
4195 78 1
4195 272 1
4195 1355 1
4195 1419 1
4196 6 1
4196 113 1
4196 326 1
4196 2366 1
4197 1 1
4197 46 1
4197 109 1
4197 1077 1
4198 1 1
4198 213 1
4198 843 1
4198 3330 1
4199 82 1
4199 292 1
4199 1804 1
4199 2889 1
4200 5 1
4200 1080 1
4200 1653 1
4200 3973 1
4201 45 1
4201 124 1
4201 622 1
4201 919 1
4202 16 1
4202 217 1
4202 497 1
4202 3191 1
4203 129 1
4203 1873 1
4203 1967 1
4203 4069 1
4203 4579 1
4203 4830 1
4204 145 1
4204 907 1
4204 1195 1
4204 3612 1
4204 4859 1
4205 180 1
4205 646 1
4205 3415 1
4205 3457 1
4206 39 1
4206 529 1
4206 1446 1
4206 2298 1
4207 23 1
4207 125 1
4207 529 1
4207 3131 1
4208 206 1
4208 485 1
4208 1394 1
4208 3238 1
4209 269 1
4209 378 1
4209 1748 1
4209 2488 1
4209 4349 1
4210 408 1
4210 1217 1
4210 2745 1
4210 3227 1
4210 4225 1
4210 4296 1
4210 4806 1
4211 3 1
4211 1983 1
4211 2723 1
4211 4177 1
4212 352 1
4212 1891 1
4212 3853 1
4212 4015 1
4213 539 1
4213 929 1
4213 2680 1
4213 4173 1
4214 1531 1
4214 1736 1
4214 1801 1
4214 2057 1
4214 4548 1
4214 4637 1
4215 440 1
4215 828 1
4215 1746 1
4215 3335 1
4216 62 1
4216 100 1
4216 222 1
4216 344 1
4217 800 1
4217 802 1
4217 3080 1
4217 3152 1
4218 22 1
4218 157 1
4218 2246 1
4218 2607 1
4219 10 1
4219 59 1
4219 340 1
4219 1364 1
4220 722 1
4220 1089 1
4220 1094 1
4220 2201 1
4221 175 1
4221 1008 1
4221 1318 1
4221 4139 1
4222 9 1
4222 34 1
4222 817 1
4222 1273 1
4223 142 1
4223 911 1
4223 1563 1
4223 3783 1
4224 502 1
4224 702 1
4224 1240 1
4224 2715 1
4224 4339 1
4225 9 1
4225 1228 1
4225 3405 1
4225 4210 1
4226 241 1
4226 656 1
4226 841 1
4226 1550 1
4227 64 1
4227 265 1
4227 312 1
4227 2028 1
4227 4532 1
4228 51 1
4228 77 1
4228 1041 1
4228 1452 1
4229 117 1
4229 170 1
4229 287 1
4229 1056 1
4229 4702 1
4230 320 1
4230 1419 1
4230 2669 1
4230 4019 1
4230 4706 1
4231 2137 1
4231 2701 1
4231 3528 1
4231 3852 1
4231 4330 1
4232 72 1
4232 152 1
4232 972 1
4232 1308 1
4232 4522 1
4233 217 1
4233 905 1
4233 1164 1
4233 3464 1
4234 9 1
4234 720 1
4234 2825 1
4234 3538 1
4235 1 1
4235 442 1
4235 1742 1
4235 2693 1
4235 4461 1
4235 4811 1
4235 4866 1
4236 740 1
4236 1089 1
4236 2437 1
4236 2900 1
4237 326 1
4237 453 1
4237 1618 1
4237 2511 1
4238 818 1
4238 1254 1
4238 1408 1
4238 2100 1
4239 37 1
4239 716 1
4239 1452 1
4239 2855 1
4240 111 1
4240 628 1
4240 1241 1
4240 1617 1
4241 188 1
4241 763 1
4241 2602 1
4241 3547 1
4242 139 1
4242 192 1
4242 1180 1
4242 3366 1
4243 758 1
4243 1378 1
4243 1430 1
4243 2553 1
4244 58 1
4244 775 1
4244 2527 1
4244 3638 1
4245 17 1
4245 108 1
4245 2286 1
4245 3441 1
4246 32 1
4246 225 1
4246 1020 1
4246 3298 1
4247 31 1
4247 450 1
4247 1125 1
4247 1898 1
4247 4329 1
4248 38 1
4248 1567 1
4248 3449 1
4248 3804 1
4249 1506 1
4249 2156 1
4249 2818 1
4249 3762 1
4250 460 1
4250 1684 1
4250 2477 1
4250 2495 1
4251 376 1
4251 770 1
4251 1563 1
4251 3820 1
4251 4894 1
4252 67 1
4252 373 1
4252 1503 1
4252 2042 1
4253 3 1
4253 93 1
4253 736 1
4253 2840 1
4254 178 1
4254 197 1
4254 265 1
4254 1077 1
4255 18 1
4255 38 1
4255 2491 1
4255 4060 1
4256 505 1
4256 705 1
4256 1129 1
4256 4017 1
4257 439 1
4257 611 1
4257 1648 1
4257 3168 1
4258 61 1
4258 621 1
4258 989 1
4258 1454 1
4259 80 1
4259 91 1
4259 169 1
4259 3010 1
4260 1910 1
4260 2752 1
4260 3101 1
4260 3468 1
4260 4421 1
4261 126 1
4261 1299 1
4261 1524 1
4261 2393 1
4262 840 1
4262 2523 1
4262 2557 1
4262 3788 1
4263 7 1
4263 24 1
4263 378 1
4263 874 1
4263 4585 1
4264 247 1
4264 267 1
4264 923 1
4264 1726 1
4265 78 1
4265 194 1
4265 767 1
4265 1264 1
4266 161 1
4266 413 1
4266 707 1
4266 962 1
4267 16 1
4267 1813 1
4267 1847 1
4267 2698 1
4268 29 1
4268 939 1
4268 2810 1
4268 3729 1
4268 4390 1
4269 29 1
4269 1748 1
4269 2745 1
4269 3229 1
4270 6 1
4270 21 1
4270 1315 1
4270 3686 1
4271 5 1
4271 207 1
4271 1453 1
4271 3875 1
4271 4830 1
4272 1414 1
4272 1481 1
4272 2756 1
4272 3018 1
4273 415 1
4273 874 1
4273 1278 1
4273 1638 1
4274 141 1
4274 525 1
4274 582 1
4274 1047 1
4275 1 1
4275 816 1
4275 2773 1
4275 4091 1
4275 4788 1
4276 61 1
4276 155 1
4276 251 1
4276 1108 1
4276 4508 1
4277 5 1
4277 345 1
4277 1023 1
4277 3934 1
4278 1414 1
4278 3134 1
4278 3282 1
4278 3715 1
4278 4392 1
4279 40 1
4279 281 1
4279 642 1
4279 2548 1
4280 18 1
4280 152 1
4280 179 1
4280 1401 1
4280 4457 1
4280 4853 1
4281 23 1
4281 961 1
4281 2885 1
4281 3503 1
4282 839 1
4282 2742 1
4282 3210 1
4282 3592 1
4283 18 1
4283 52 1
4283 139 1
4283 662 1
4284 51 1
4284 58 1
4284 876 1
4284 4015 1
4285 239 1
4285 406 1
4285 2913 1
4285 3773 1
4286 21 1
4286 130 1
4286 923 1
4286 3193 1
4287 112 1
4287 986 1
4287 1693 1
4287 2037 1
4287 4882 1
4288 63 1
4288 1005 1
4288 2326 1
4288 2450 1
4288 4385 1
4288 4745 1
4289 171 1
4289 501 1
4289 2607 1
4289 3742 1
4290 32 1
4290 37 1
4290 76 1
4290 1985 1
4291 11 1
4291 343 1
4291 478 1
4291 2358 1
4291 4445 1
4292 1392 1
4292 2394 1
4292 3589 1
4292 3595 1
4293 240 1
4293 351 1
4293 434 1
4293 1508 1
4293 4453 1
4294 62 1
4294 685 1
4294 1073 1
4294 1325 1
4294 4703 1
4294 4821 1
4295 354 1
4295 667 1
4295 1646 1
4295 2733 1
4296 535 1
4296 1953 1
4296 2781 1
4296 4210 1
4297 8 1
4297 23 1
4297 204 1
4297 1856 1
4298 62 1
4298 199 1
4298 792 1
4298 2018 1
4298 4932 1
4299 437 1
4299 568 1
4299 1242 1
4299 3134 1
4300 166 1
4300 2272 1
4300 2341 1
4300 3415 1
4301 6 1
4301 1185 1
4301 1346 1
4301 2948 1
4301 4946 1
4302 10 1
4302 185 1
4302 2295 1
4302 2904 1
4303 1 1
4303 1120 1
4303 2315 1
4303 2322 1
4304 218 1
4304 518 1
4304 1600 1
4304 2986 1
4305 263 1
4305 403 1
4305 1200 1
4305 2885 1
4306 123 1
4306 169 1
4306 500 1
4306 3029 1
4306 4502 1
4307 129 1
4307 132 1
4307 1312 1
4307 4084 1
4308 71 1
4308 711 1
4308 969 1
4308 2859 1
4308 4554 1
4309 55 1
4309 349 1
4309 589 1
4309 1990 1
4309 4640 1
4310 799 1
4310 875 1
4310 1249 1
4310 1403 1
4311 1779 1
4311 2374 1
4311 2852 1
4311 3570 1
4312 103 1
4312 1323 1
4312 3597 1
4312 4176 1
4313 516 1
4313 810 1
4313 1446 1
4313 2021 1
4313 4981 1
4314 737 1
4314 1550 1
4314 2108 1
4314 2857 1
4315 5 1
4315 1529 1
4315 2566 1
4315 2610 1
4316 6 1
4316 86 1
4316 1704 1
4316 1968 1
4317 969 1
4317 970 1
4317 3168 1
4317 3994 1
4318 26 1
4318 315 1
4318 545 1
4318 3686 1
4319 23 1
4319 176 1
4319 801 1
4319 1131 1
4320 71 1
4320 93 1
4320 126 1
4320 531 1
4321 1339 1
4321 1656 1
4321 2376 1
4321 2589 1
4322 188 1
4322 2771 1
4322 2819 1
4322 3754 1
4323 1394 1
4323 1741 1
4323 2357 1
4323 3734 1
4324 1 1
4324 6 1
4324 3969 1
4324 4113 1
4325 3220 1
4325 3300 1
4325 3955 1
4325 4141 1
4326 51 1
4326 1031 1
4326 1506 1
4326 2121 1
4327 958 1
4327 1292 1
4327 1790 1
4327 1967 1
4328 7 1
4328 103 1
4328 696 1
4328 1355 1
4329 14 1
4329 1815 1
4329 3199 1
4329 4247 1
4329 4705 1
4330 54 1
4330 176 1
4330 194 1
4330 4231 1
4331 1242 1
4331 2195 1
4331 2310 1
4331 2459 1
4332 21 1
4332 87 1
4332 1515 1
4332 1834 1
4333 167 1
4333 489 1
4333 533 1
4333 1120 1
4334 31 1
4334 149 1
4334 204 1
4334 1231 1
4335 40 1
4335 1454 1
4335 1530 1
4335 3478 1
4336 6 1
4336 1421 1
4336 1674 1
4336 2784 1
4337 386 1
4337 1573 1
4337 1616 1
4337 2520 1
4338 388 1
4338 978 1
4338 2039 1
4338 3073 1
4339 17 1
4339 697 1
4339 737 1
4339 4224 1
4340 76 1
4340 1019 1
4340 1102 1
4340 3159 1
4341 36 1
4341 61 1
4341 1365 1
4341 3701 1
4341 4832 1
4342 27 1
4342 385 1
4342 2417 1
4342 3034 1
4342 4360 1
4343 1 1
4343 412 1
4343 1228 1
4343 2333 1
4344 5 1
4344 964 1
4344 1506 1
4344 4144 1
4345 46 1
4345 441 1
4345 1375 1
4345 1548 1
4346 12 1
4346 326 1
4346 2994 1
4346 3571 1
4347 245 1
4347 457 1
4347 809 1
4347 3738 1
4348 142 1
4348 161 1
4348 308 1
4348 1544 1
4348 4583 1
4349 498 1
4349 1067 1
4349 3067 1
4349 4209 1
4350 8 1
4350 30 1
4350 355 1
4350 491 1
4351 142 1
4351 725 1
4351 1357 1
4351 2618 1
4352 35 1
4352 3633 1
4352 3909 1
4352 3992 1
4353 53 1
4353 85 1
4353 354 1
4353 1875 1
4354 30 1
4354 225 1
4354 537 1
4354 1142 1
4355 1332 1
4355 2141 1
4355 2980 1
4355 4036 1
4356 1 1
4356 8 1
4356 1001 1
4356 3754 1
4357 11 1
4357 1844 1
4357 2040 1
4357 3223 1
4358 1378 1
4358 2503 1
4358 3235 1
4358 4132 1
4359 196 1
4359 798 1
4359 3287 1
4359 4004 1
4359 4461 1
4360 1473 1
4360 2258 1
4360 2893 1
4360 4342 1
4361 1127 1
4361 2376 1
4361 2955 1
4361 4017 1
4362 13 1
4362 1274 1
4362 2674 1
4362 3679 1
4363 217 1
4363 1050 1
4363 2439 1
4363 3908 1
4364 10 1
4364 82 1
4364 1059 1
4364 1692 1
4365 843 1
4365 1602 1
4365 3333 1
4365 4005 1
4366 60 1
4366 571 1
4366 878 1
4366 1237 1
4367 16 1
4367 1742 1
4367 3623 1
4367 4059 1
4368 155 1
4368 258 1
4368 385 1
4368 684 1
4369 1 1
4369 891 1
4369 1132 1
4369 3158 1
4369 4661 1
4369 4750 1
4370 11 1
4370 1077 1
4370 1565 1
4370 3697 1
4371 11 1
4371 1509 1
4371 2366 1
4371 3163 1
4372 910 1
4372 1277 1
4372 1630 1
4372 3869 1
4373 206 1
4373 760 1
4373 2180 1
4373 2797 1
4374 1 1
4374 579 1
4374 2169 1
4374 3208 1
4375 52 1
4375 1234 1
4375 1525 1
4375 3492 1
4375 4950 1
4376 6 1
4376 598 1
4376 1103 1
4376 1408 1
4377 512 1
4377 2619 1
4377 3057 1
4377 4025 1
4377 4529 1
4378 797 1
4378 1529 1
4378 1532 1
4378 2745 1
4379 710 1
4379 1177 1
4379 2838 1
4379 3772 1
4380 149 1
4380 418 1
4380 621 1
4380 1561 1
4381 592 1
4381 2101 1
4381 3046 1
4381 3530 1
4382 108 1
4382 1560 1
4382 1941 1
4382 4025 1
4383 3 1
4383 497 1
4383 2265 1
4383 2786 1
4384 13 1
4384 85 1
4384 857 1
4384 2379 1
4385 908 1
4385 3083 1
4385 4134 1
4385 4288 1
4386 194 1
4386 3438 1
4386 3967 1
4386 4034 1
4387 579 1
4387 1130 1
4387 1481 1
4387 3684 1
4388 93 1
4388 785 1
4388 1419 1
4388 1864 1
4389 488 1
4389 508 1
4389 1273 1
4389 2562 1
4390 668 1
4390 747 1
4390 2707 1
4390 4268 1
4391 14 1
4391 691 1
4391 1378 1
4391 1858 1
4391 4566 1
4392 28 1
4392 1983 1
4392 3230 1
4392 4278 1
4393 170 1
4393 834 1
4393 1050 1
4393 1260 1
4393 4762 1
4394 134 1
4394 996 1
4394 1100 1
4394 2985 1
4395 304 1
4395 1050 1
4395 1889 1
4395 3148 1
4396 827 1
4396 1203 1
4396 4127 1
4396 4155 1
4396 4412 1
4397 109 1
4397 729 1
4397 1209 1
4397 1437 1
4398 6 1
4398 7 1
4398 1260 1
4398 2514 1
4399 6 1
4399 519 1
4399 1214 1
4399 2134 1
4400 76 1
4400 160 1
4400 1434 1
4400 3025 1
4401 157 1
4401 1334 1
4401 1568 1
4401 3198 1
4401 4913 1
4402 123 1
4402 1334 1
4402 2113 1
4402 2223 1
4402 4972 1
4403 10 1
4403 30 1
4403 2159 1
4403 4075 1
4403 4575 1
4404 24 1
4404 244 1
4404 3208 1
4404 3209 1
4405 24 1
4405 1540 1
4405 1631 1
4405 1995 1
4406 15 1
4406 43 1
4406 2090 1
4406 3957 1
4407 123 1
4407 643 1
4407 2500 1
4407 3829 1
4407 4949 1
4407 4964 1
4408 87 1
4408 109 1
4408 1769 1
4408 2515 1
4409 12 1
4409 253 1
4409 408 1
4409 1339 1
4409 4627 1
4410 36 1
4410 701 1
4410 2949 1
4410 3799 1
4411 12 1
4411 524 1
4411 2586 1
4411 3381 1
4411 4460 1
4412 423 1
4412 2311 1
4412 3353 1
4412 4396 1
4413 216 1
4413 285 1
4413 2024 1
4413 3384 1
4414 22 1
4414 32 1
4414 1577 1
4414 4066 1
4415 29 1
4415 236 1
4415 1276 1
4415 3126 1
4415 4424 1
4415 4902 1
4416 18 1
4416 399 1
4416 2948 1
4416 3783 1
4416 4549 1
4417 16 1
4417 492 1
4417 821 1
4417 1454 1
4418 2 1
4418 772 1
4418 785 1
4418 2654 1
4418 4632 1
4419 100 1
4419 1476 1
4419 2031 1
4419 4153 1
4420 31 1
4420 75 1
4420 1403 1
4420 3744 1
4421 1956 1
4421 3056 1
4421 3432 1
4421 4260 1
4422 34 1
4422 1027 1
4422 1189 1
4422 2832 1
4423 1083 1
4423 1166 1
4423 1445 1
4423 1760 1
4423 4614 1
4424 451 1
4424 1102 1
4424 3645 1
4424 4415 1
4425 109 1
4425 404 1
4425 827 1
4425 1661 1
4425 4970 1
4426 86 1
4426 159 1
4426 2040 1
4426 3012 1
4427 123 1
4427 187 1
4427 1722 1
4427 3368 1
4428 584 1
4428 1359 1
4428 1713 1
4428 4018 1
4429 6 1
4429 244 1
4429 1385 1
4429 2932 1
4430 85 1
4430 918 1
4430 2190 1
4430 2581 1
4430 4891 1
4431 16 1
4431 43 1
4431 3123 1
4431 3201 1
4432 32 1
4432 1273 1
4432 3003 1
4432 3740 1
4432 4496 1
4433 2 1
4433 521 1
4433 622 1
4433 1928 1
4434 255 1
4434 743 1
4434 1026 1
4434 3865 1
4435 46 1
4435 395 1
4435 3277 1
4435 4170 1
4436 1 1
4436 40 1
4436 3235 1
4436 3396 1
4437 30 1
4437 965 1
4437 2467 1
4437 3627 1
4438 120 1
4438 401 1
4438 1198 1
4438 3025 1
4439 22 1
4439 235 1
4439 673 1
4439 3101 1
4440 54 1
4440 269 1
4440 2404 1
4440 3703 1
4441 1012 1
4441 1543 1
4441 2028 1
4441 2040 1
4442 3 1
4442 42 1
4442 319 1
4442 2038 1
4443 102 1
4443 415 1
4443 1025 1
4443 3412 1
4443 4783 1
4444 1 1
4444 69 1
4444 444 1
4444 3893 1
4445 2266 1
4445 3773 1
4445 4067 1
4445 4291 1
4446 98 1
4446 618 1
4446 638 1
4446 3528 1
4446 4899 1
4447 218 1
4447 285 1
4447 485 1
4447 723 1
4448 17 1
4448 506 1
4448 592 1
4448 723 1
4449 66 1
4449 454 1
4449 1986 1
4449 2939 1
4449 4712 1
4450 45 1
4450 2771 1
4450 3025 1
4450 3629 1
4450 4747 1
4450 4876 1
4451 17 1
4451 40 1
4451 199 1
4451 309 1
4452 21 1
4452 1103 1
4452 2318 1
4452 2812 1
4453 1221 1
4453 1376 1
4453 3289 1
4453 4293 1
4454 1441 1
4454 1558 1
4454 3020 1
4454 3164 1
4455 27 1
4455 157 1
4455 254 1
4455 899 1
4455 4874 1
4456 82 1
4456 137 1
4456 353 1
4456 3629 1
4457 62 1
4457 2097 1
4457 4107 1
4457 4280 1
4458 53 1
4458 2116 1
4458 4020 1
4458 4191 1
4458 4679 1
4459 13 1
4459 88 1
4459 153 1
4459 3556 1
4460 432 1
4460 1329 1
4460 2112 1
4460 4411 1
4461 377 1
4461 669 1
4461 4235 1
4461 4359 1
4461 4572 1
4461 4907 1
4462 12 1
4462 79 1
4462 812 1
4462 2553 1
4462 4706 1
4463 511 1
4463 710 1
4463 1697 1
4463 3700 1
4464 114 1
4464 413 1
4464 749 1
4464 1023 1
4465 38 1
4465 1231 1
4465 2188 1
4465 3669 1
4466 110 1
4466 237 1
4466 643 1
4466 2959 1
4467 14 1
4467 99 1
4467 1933 1
4467 2845 1
4468 8 1
4468 354 1
4468 1393 1
4468 3904 1
4469 9 1
4469 123 1
4469 357 1
4469 2675 1
4470 894 1
4470 1213 1
4470 2553 1
4470 3232 1
4471 2114 1
4471 2141 1
4471 2169 1
4471 3895 1
4472 741 1
4472 1115 1
4472 1563 1
4472 3161 1
4473 34 1
4473 218 1
4473 2260 1
4473 2754 1
4473 4761 1
4474 506 1
4474 961 1
4474 1464 1
4474 3401 1
4475 1627 1
4475 2158 1
4475 2200 1
4475 3731 1
4475 4683 1
4476 123 1
4476 309 1
4476 313 1
4476 2934 1
4477 15 1
4477 745 1
4477 2032 1
4477 3717 1
4478 25 1
4478 108 1
4478 188 1
4478 2038 1
4478 4659 1
4479 38 1
4479 291 1
4479 859 1
4479 2758 1
4480 15 1
4480 1339 1
4480 1368 1
4480 2785 1
4481 38 1
4481 475 1
4481 511 1
4481 1003 1
4482 37 1
4482 85 1
4482 409 1
4482 3839 1
4482 4590 1
4482 4828 1
4483 205 1
4483 903 1
4483 1162 1
4483 1252 1
4484 18 1
4484 46 1
4484 1857 1
4484 2345 1
4485 157 1
4485 1022 1
4485 1304 1
4485 3837 1
4486 23 1
4486 141 1
4486 243 1
4486 1060 1
4487 248 1
4487 291 1
4487 584 1
4487 2747 1
4488 9 1
4488 749 1
4488 993 1
4488 3022 1
4488 4854 1
4489 291 1
4489 1309 1
4489 3578 1
4489 3583 1
4490 205 1
4490 224 1
4490 1429 1
4490 2804 1
4491 18 1
4491 95 1
4491 3048 1
4491 3659 1
4492 239 1
4492 503 1
4492 609 1
4492 3856 1
4493 581 1
4493 927 1
4493 1010 1
4493 2670 1
4494 1374 1
4494 1970 1
4494 3389 1
4494 3886 1
4495 604 1
4495 1571 1
4495 2470 1
4495 2629 1
4496 257 1
4496 1546 1
4496 3073 1
4496 4432 1
4497 697 1
4497 1356 1
4497 3042 1
4497 3456 1
4498 342 1
4498 415 1
4498 993 1
4498 2735 1
4499 322 1
4499 554 1
4499 1368 1
4499 3976 1
4500 23 1
4500 291 1
4500 461 1
4500 941 1
4501 115 1
4501 465 1
4501 619 1
4501 713 1
4502 285 1
4502 502 1
4502 807 1
4502 4306 1
4502 4886 1
4503 5 1
4503 217 1
4503 222 1
4503 481 1
4504 96 1
4504 376 1
4504 1322 1
4504 2105 1
4505 141 1
4505 234 1
4505 1156 1
4505 1316 1
4506 886 1
4506 1411 1
4506 2024 1
4506 4183 1
4507 318 1
4507 986 1
4507 1871 1
4507 3339 1
4507 4643 1
4508 1 1
4508 885 1
4508 2156 1
4508 4276 1
4508 4959 1
4509 107 1
4509 1126 1
4509 1931 1
4509 3398 1
4510 668 1
4510 821 1
4510 2722 1
4510 2812 1
4511 488 1
4511 819 1
4511 1391 1
4511 3686 1
4512 67 1
4512 1487 1
4512 1954 1
4512 2510 1
4513 725 1
4513 1888 1
4513 2347 1
4513 3234 1
4514 104 1
4514 885 1
4514 926 1
4514 3291 1
4514 4738 1
4515 6 1
4515 1830 1
4515 2201 1
4515 4038 1
4515 4888 1
4516 3 1
4516 27 1
4516 87 1
4516 503 1
4517 717 1
4517 2381 1
4517 3847 1
4517 4019 1
4518 128 1
4518 455 1
4518 884 1
4518 2050 1
4519 43 1
4519 960 1
4519 1363 1
4519 2363 1
4520 315 1
4520 1865 1
4520 3464 1
4520 3488 1
4520 4784 1
4521 182 1
4521 209 1
4521 401 1
4521 2411 1
4522 665 1
4522 1403 1
4522 1986 1
4522 4232 1
4523 3 1
4523 1186 1
4523 2089 1
4523 4000 1
4524 652 1
4524 842 1
4524 1216 1
4524 1359 1
4524 4606 1
4525 76 1
4525 1323 1
4525 1421 1
4525 3449 1
4526 2799 1
4526 3515 1
4526 3558 1
4526 3863 1
4527 335 1
4527 1516 1
4527 1985 1
4527 2661 1
4527 4728 1
4528 138 1
4528 175 1
4528 240 1
4528 500 1
4529 1701 1
4529 2343 1
4529 2610 1
4529 4377 1
4530 66 1
4530 610 1
4530 1115 1
4530 3663 1
4531 121 1
4531 341 1
4531 466 1
4531 653 1
4532 78 1
4532 2511 1
4532 2692 1
4532 4227 1
4533 39 1
4533 715 1
4533 2654 1
4533 3406 1
4534 38 1
4534 90 1
4534 233 1
4534 2351 1
4535 47 1
4535 145 1
4535 1605 1
4535 3247 1
4536 304 1
4536 307 1
4536 1259 1
4536 2566 1
4537 602 1
4537 1567 1
4537 2192 1
4537 3423 1
4538 34 1
4538 213 1
4538 2257 1
4538 3556 1
4539 724 1
4539 1762 1
4539 2497 1
4539 4065 1
4540 5 1
4540 354 1
4540 2423 1
4540 2680 1
4540 4749 1
4541 491 1
4541 1077 1
4541 1378 1
4541 2067 1
4542 25 1
4542 436 1
4542 1073 1
4542 3024 1
4543 419 1
4543 547 1
4543 918 1
4543 970 1
4544 131 1
4544 307 1
4544 1242 1
4544 2031 1
4545 147 1
4545 679 1
4545 1292 1
4545 1874 1
4546 422 1
4546 1324 1
4546 2101 1
4546 3088 1
4547 519 1
4547 1356 1
4547 1667 1
4547 3669 1
4548 312 1
4548 1684 1
4548 3620 1
4548 4214 1
4548 4735 1
4549 42 1
4549 407 1
4549 737 1
4549 4416 1
4550 74 1
4550 2215 1
4550 2256 1
4550 2633 1
4551 42 1
4551 1847 1
4551 2629 1
4551 2797 1
4552 421 1
4552 744 1
4552 1880 1
4552 2674 1
4553 7 1
4553 817 1
4553 1305 1
4553 3815 1
4554 30 1
4554 1531 1
4554 2465 1
4554 4308 1
4555 150 1
4555 783 1
4555 1554 1
4555 1616 1
4556 2141 1
4556 2527 1
4556 2948 1
4556 4058 1
4557 6 1
4557 586 1
4557 4069 1
4557 4191 1
4558 132 1
4558 1096 1
4558 1850 1
4558 3589 1
4559 109 1
4559 149 1
4559 300 1
4559 633 1
4560 188 1
4560 433 1
4560 1261 1
4560 2404 1
4561 188 1
4561 488 1
4561 560 1
4561 1988 1
4561 4927 1
4562 75 1
4562 1734 1
4562 3292 1
4562 3429 1
4563 44 1
4563 122 1
4563 1070 1
4563 1489 1
4564 6 1
4564 258 1
4564 290 1
4564 758 1
4564 4672 1
4565 137 1
4565 942 1
4565 976 1
4565 1391 1
4566 1866 1
4566 2913 1
4566 4029 1
4566 4391 1
4567 379 1
4567 488 1
4567 1922 1
4567 1950 1
4568 117 1
4568 175 1
4568 1007 1
4568 1506 1
4569 34 1
4569 238 1
4569 905 1
4569 2256 1
4570 1098 1
4570 1354 1
4570 1596 1
4570 2367 1
4571 299 1
4571 1122 1
4571 1125 1
4571 2811 1
4572 5 1
4572 403 1
4572 1240 1
4572 4461 1
4573 801 1
4573 1082 1
4573 1827 1
4573 3893 1
4574 8 1
4574 89 1
4574 195 1
4574 941 1
4575 628 1
4575 1219 1
4575 3483 1
4575 4403 1
4576 887 1
4576 966 1
4576 1573 1
4576 2448 1
4577 297 1
4577 612 1
4577 1122 1
4577 1703 1
4578 1704 1
4578 2074 1
4578 2361 1
4578 2939 1
4579 770 1
4579 1403 1
4579 3805 1
4579 4203 1
4580 60 1
4580 2133 1
4580 2497 1
4580 4144 1
4581 179 1
4581 417 1
4581 2820 1
4581 3444 1
4582 3 1
4582 352 1
4582 449 1
4582 1631 1
4583 1 1
4583 3 1
4583 865 1
4583 4348 1
4584 877 1
4584 1287 1
4584 1487 1
4584 1525 1
4585 105 1
4585 1649 1
4585 1823 1
4585 4263 1
4586 1507 1
4586 2782 1
4586 3124 1
4586 3796 1
4587 54 1
4587 361 1
4587 434 1
4587 3153 1
4588 637 1
4588 796 1
4588 876 1
4588 3203 1
4588 4881 1
4589 14 1
4589 125 1
4589 421 1
4589 4097 1
4590 189 1
4590 1406 1
4590 2753 1
4590 4482 1
4591 7 1
4591 186 1
4591 1909 1
4591 3274 1
4591 4776 1
4592 84 1
4592 209 1
4592 422 1
4592 3199 1
4593 155 1
4593 511 1
4593 2301 1
4593 2673 1
4594 495 1
4594 510 1
4594 1095 1
4594 1486 1
4595 333 1
4595 1813 1
4595 1834 1
4595 2830 1
4596 96 1
4596 432 1
4596 2492 1
4596 3248 1
4597 67 1
4597 131 1
4597 1145 1
4597 1738 1
4598 453 1
4598 2974 1
4598 3080 1
4598 4189 1
4599 1768 1
4599 2304 1
4599 2500 1
4599 3080 1
4600 789 1
4600 1617 1
4600 3822 1
4600 3961 1
4601 81 1
4601 1168 1
4601 1930 1
4601 3786 1
4601 4646 1
4602 446 1
4602 1116 1
4602 3147 1
4602 4156 1
4603 11 1
4603 1113 1
4603 2836 1
4603 3610 1
4604 121 1
4604 1958 1
4604 3277 1
4604 3583 1
4605 170 1
4605 281 1
4605 907 1
4605 1630 1
4606 389 1
4606 1573 1
4606 2994 1
4606 4524 1
4606 4728 1
4606 4786 1
4606 4876 1
4607 158 1
4607 384 1
4607 1534 1
4607 1902 1
4608 24 1
4608 213 1
4608 2561 1
4608 3876 1
4609 162 1
4609 292 1
4609 1362 1
4609 3723 1
4610 1 1
4610 6 1
4610 76 1
4610 2508 1
4611 26 1
4611 34 1
4611 599 1
4611 2310 1
4612 6 1
4612 29 1
4612 85 1
4612 2109 1
4613 53 1
4613 250 1
4613 524 1
4613 1372 1
4614 790 1
4614 1978 1
4614 2617 1
4614 4423 1
4615 30 1
4615 337 1
4615 864 1
4615 1301 1
4616 104 1
4616 217 1
4616 251 1
4616 338 1
4617 217 1
4617 1400 1
4617 2108 1
4617 3874 1
4618 6 1
4618 120 1
4618 396 1
4618 4095 1
4619 439 1
4619 1040 1
4619 1291 1
4619 1311 1
4620 671 1
4620 1624 1
4620 3914 1
4620 3932 1
4621 78 1
4621 269 1
4621 1031 1
4621 4025 1
4622 137 1
4622 452 1
4622 1550 1
4622 3073 1
4623 136 1
4623 872 1
4623 1668 1
4623 2161 1
4624 74 1
4624 698 1
4624 702 1
4624 2080 1
4624 4653 1
4625 8 1
4625 498 1
4625 1605 1
4625 2477 1
4626 476 1
4626 1025 1
4626 3276 1
4626 3352 1
4627 108 1
4627 552 1
4627 735 1
4627 4409 1
4628 498 1
4628 584 1
4628 1158 1
4628 1732 1
4629 34 1
4629 169 1
4629 550 1
4629 3344 1
4630 245 1
4630 345 1
4630 2274 1
4630 3011 1
4631 1 1
4631 1886 1
4631 2079 1
4631 3982 1
4632 1 1
4632 18 1
4632 3489 1
4632 4418 1
4633 9 1
4633 676 1
4633 1613 1
4633 3141 1
4634 27 1
4634 85 1
4634 741 1
4634 932 1
4635 174 1
4635 949 1
4635 1935 1
4635 3083 1
4636 85 1
4636 194 1
4636 466 1
4636 1986 1
4637 735 1
4637 1372 1
4637 3679 1
4637 4214 1
4638 3 1
4638 384 1
4638 1214 1
4638 2091 1
4639 142 1
4639 1342 1
4639 1556 1
4639 3408 1
4639 4972 1
4640 1234 1
4640 2221 1
4640 2929 1
4640 4309 1
4641 224 1
4641 764 1
4641 3440 1
4641 3575 1
4642 1061 1
4642 1261 1
4642 1441 1
4642 3134 1
4642 4915 1
4643 5 1
4643 1113 1
4643 4016 1
4643 4507 1
4644 6 1
4644 962 1
4644 1322 1
4644 3331 1
4645 100 1
4645 897 1
4645 2394 1
4645 3917 1
4646 110 1
4646 1840 1
4646 2573 1
4646 4601 1
4646 4747 1
4647 13 1
4647 285 1
4647 1231 1
4647 3089 1
4648 57 1
4648 149 1
4648 2310 1
4648 3520 1
4649 1753 1
4649 2341 1
4649 3950 1
4649 4056 1
4650 26 1
4650 66 1
4650 271 1
4650 430 1
4650 4950 1
4651 75 1
4651 532 1
4651 1749 1
4651 1783 1
4651 4726 1
4652 15 1
4652 59 1
4652 2091 1
4652 4000 1
4653 640 1
4653 2575 1
4653 3012 1
4653 4624 1
4654 243 1
4654 246 1
4654 539 1
4654 3273 1
4654 4798 1
4655 116 1
4655 635 1
4655 1813 1
4655 4173 1
4656 642 1
4656 1440 1
4656 1911 1
4656 3489 1
4657 7 1
4657 65 1
4657 966 1
4657 2172 1
4658 6 1
4658 51 1
4658 455 1
4658 1839 1
4659 205 1
4659 240 1
4659 1689 1
4659 4478 1
4660 74 1
4660 169 1
4660 2203 1
4660 4049 1
4661 18 1
4661 517 1
4661 2691 1
4661 4369 1
4662 48 1
4662 84 1
4662 239 1
4662 836 1
4663 40 1
4663 72 1
4663 1080 1
4663 1591 1
4664 16 1
4664 157 1
4664 1516 1
4664 3689 1
4665 32 1
4665 52 1
4665 292 1
4665 2512 1
4666 30 1
4666 94 1
4666 1115 1
4666 1243 1
4667 119 1
4667 207 1
4667 1724 1
4667 3446 1
4668 503 1
4668 1294 1
4668 2031 1
4668 3251 1
4669 864 1
4669 1032 1
4669 2081 1
4669 2798 1
4670 6 1
4670 415 1
4670 1109 1
4670 2422 1
4671 156 1
4671 668 1
4671 1396 1
4671 1542 1
4672 2 1
4672 411 1
4672 1253 1
4672 4564 1
4672 4922 1
4673 93 1
4673 126 1
4673 865 1
4673 1721 1
4674 18 1
4674 587 1
4674 3320 1
4674 3708 1
4675 37 1
4675 1046 1
4675 1160 1
4675 1602 1
4676 788 1
4676 978 1
4676 1614 1
4676 2965 1
4677 34 1
4677 437 1
4677 3152 1
4677 3717 1
4678 15 1
4678 817 1
4678 1858 1
4678 1901 1
4679 172 1
4679 2840 1
4679 3805 1
4679 4458 1
4680 43 1
4680 803 1
4680 2832 1
4680 3046 1
4681 439 1
4681 757 1
4681 1630 1
4681 3976 1
4682 186 1
4682 397 1
4682 1786 1
4682 2159 1
4683 36 1
4683 1235 1
4683 3101 1
4683 4475 1
4684 1249 1
4684 1528 1
4684 1969 1
4684 3596 1
4685 30 1
4685 34 1
4685 182 1
4685 2548 1
4686 46 1
4686 107 1
4686 239 1
4686 1546 1
4687 8 1
4687 1830 1
4687 1913 1
4687 2088 1
4687 4808 1
4688 39 1
4688 828 1
4688 1115 1
4688 2623 1
4689 154 1
4689 578 1
4689 752 1
4689 3808 1
4690 98 1
4690 576 1
4690 1287 1
4690 2341 1
4691 105 1
4691 1094 1
4691 2074 1
4691 3310 1
4692 95 1
4692 501 1
4692 1648 1
4692 2706 1
4692 4809 1
4693 95 1
4693 1914 1
4693 2742 1
4693 3289 1
4693 4779 1
4694 373 1
4694 497 1
4694 498 1
4694 2202 1
4695 20 1
4695 137 1
4695 387 1
4695 3838 1
4696 1109 1
4696 1160 1
4696 2451 1
4696 3075 1
4696 4911 1
4697 1 1
4697 1386 1
4697 2329 1
4697 2631 1
4698 5 1
4698 246 1
4698 1701 1
4698 3635 1
4699 32 1
4699 251 1
4699 1850 1
4699 2758 1
4700 713 1
4700 1301 1
4700 3000 1
4700 3163 1
4701 8 1
4701 108 1
4701 438 1
4701 3105 1
4701 4900 1
4702 216 1
4702 1352 1
4702 2878 1
4702 4229 1
4702 4990 1
4703 239 1
4703 2897 1
4703 3794 1
4703 4294 1
4704 768 1
4704 1019 1
4704 1240 1
4704 2605 1
4705 727 1
4705 2977 1
4705 3135 1
4705 4329 1
4706 157 1
4706 1595 1
4706 4230 1
4706 4462 1
4706 4951 1
4707 429 1
4707 1149 1
4707 1907 1
4707 1968 1
4708 815 1
4708 1742 1
4708 2099 1
4708 4175 1
4709 28 1
4709 292 1
4709 3165 1
4709 3585 1
4710 1 1
4710 376 1
4710 824 1
4710 3374 1
4710 4926 1
4711 36 1
4711 506 1
4711 1224 1
4711 2882 1
4712 702 1
4712 3675 1
4712 3922 1
4712 4449 1
4713 23 1
4713 149 1
4713 265 1
4713 394 1
4714 979 1
4714 1361 1
4714 1742 1
4714 4019 1
4715 319 1
4715 2307 1
4715 2754 1
4715 3842 1
4716 131 1
4716 286 1
4716 994 1
4716 2718 1
4717 13 1
4717 647 1
4717 1290 1
4717 1887 1
4718 491 1
4718 796 1
4718 2022 1
4718 3240 1
4719 43 1
4719 82 1
4719 978 1
4719 1609 1
4720 216 1
4720 2372 1
4720 3398 1
4720 4026 1
4721 170 1
4721 568 1
4721 662 1
4721 708 1
4722 344 1
4722 524 1
4722 2438 1
4722 2758 1
4723 65 1
4723 1025 1
4723 2009 1
4723 2884 1
4724 24 1
4724 426 1
4724 1012 1
4724 2951 1
4725 439 1
4725 802 1
4725 1198 1
4725 3663 1
4726 937 1
4726 1511 1
4726 2189 1
4726 4651 1
4727 14 1
4727 640 1
4727 3140 1
4727 3603 1
4728 465 1
4728 4114 1
4728 4527 1
4728 4606 1
4729 8 1
4729 717 1
4729 1874 1
4729 2368 1
4730 432 1
4730 735 1
4730 796 1
4730 2797 1
4731 177 1
4731 420 1
4731 783 1
4731 4045 1
4732 28 1
4732 1213 1
4732 1653 1
4732 2641 1
4733 574 1
4733 1379 1
4733 1753 1
4733 3062 1
4734 9 1
4734 545 1
4734 683 1
4734 961 1
4735 176 1
4735 684 1
4735 2537 1
4735 4548 1
4736 1520 1
4736 1903 1
4736 2537 1
4736 4065 1
4737 217 1
4737 697 1
4737 2133 1
4737 2267 1
4738 139 1
4738 2227 1
4738 2863 1
4738 4514 1
4739 18 1
4739 250 1
4739 917 1
4739 1923 1
4739 4830 1
4740 354 1
4740 361 1
4740 571 1
4740 579 1
4741 81 1
4741 87 1
4741 978 1
4741 3073 1
4742 18 1
4742 103 1
4742 217 1
4742 2731 1
4743 17 1
4743 38 1
4743 1480 1
4743 1491 1
4744 102 1
4744 962 1
4744 1814 1
4744 3656 1
4745 2033 1
4745 2366 1
4745 3355 1
4745 4288 1
4746 237 1
4746 607 1
4746 2324 1
4746 3862 1
4747 34 1
4747 2697 1
4747 4450 1
4747 4646 1
4748 6 1
4748 625 1
4748 710 1
4748 1234 1
4748 4905 1
4748 4979 1
4749 93 1
4749 208 1
4749 3059 1
4749 4540 1
4750 107 1
4750 187 1
4750 838 1
4750 4369 1
4750 4764 1
4751 387 1
4751 750 1
4751 1235 1
4751 2834 1
4752 442 1
4752 1235 1
4752 1643 1
4752 3536 1
4753 5 1
4753 152 1
4753 1625 1
4753 2922 1
4754 108 1
4754 241 1
4754 1218 1
4754 3221 1
4755 503 1
4755 994 1
4755 1978 1
4755 2513 1
4755 4760 1
4756 611 1
4756 645 1
4756 798 1
4756 2823 1
4757 6 1
4757 322 1
4757 1435 1
4757 2300 1
4758 436 1
4758 921 1
4758 1275 1
4758 2040 1
4759 45 1
4759 420 1
4759 1308 1
4759 3202 1
4760 3 1
4760 5 1
4760 3541 1
4760 4755 1
4761 458 1
4761 939 1
4761 1832 1
4761 4473 1
4761 4777 1
4762 36 1
4762 453 1
4762 1891 1
4762 4393 1
4763 726 1
4763 962 1
4763 1219 1
4763 2031 1
4764 353 1
4764 451 1
4764 2669 1
4764 4750 1
4765 231 1
4765 628 1
4765 1610 1
4765 2352 1
4766 30 1
4766 123 1
4766 1571 1
4766 2896 1
4767 166 1
4767 2378 1
4767 2493 1
4767 3436 1
4768 552 1
4768 761 1
4768 1436 1
4768 1594 1
4769 146 1
4769 267 1
4769 2563 1
4769 3634 1
4770 112 1
4770 304 1
4770 488 1
4770 2786 1
4771 625 1
4771 1304 1
4771 3177 1
4771 3180 1
4772 274 1
4772 373 1
4772 532 1
4772 2616 1
4773 123 1
4773 1204 1
4773 2416 1
4773 3751 1
4774 40 1
4774 3343 1
4774 3419 1
4774 3684 1
4774 4906 1
4775 247 1
4775 791 1
4775 839 1
4775 3084 1
4776 419 1
4776 3041 1
4776 3840 1
4776 4591 1
4776 4968 1
4777 6 1
4777 2067 1
4777 3343 1
4777 4761 1
4778 653 1
4778 2083 1
4778 3182 1
4778 3880 1
4779 3 1
4779 53 1
4779 242 1
4779 4693 1
4779 4933 1
4780 48 1
4780 54 1
4780 469 1
4780 490 1
4781 145 1
4781 249 1
4781 352 1
4781 1095 1
4782 276 1
4782 587 1
4782 3541 1
4782 3725 1
4783 36 1
4783 2011 1
4783 2337 1
4783 4443 1
4784 43 1
4784 337 1
4784 1310 1
4784 4520 1
4785 415 1
4785 438 1
4785 1174 1
4785 3875 1
4786 330 1
4786 1344 1
4786 2691 1
4786 4606 1
4787 126 1
4787 497 1
4787 2899 1
4787 4126 1
4788 178 1
4788 298 1
4788 3024 1
4788 4275 1
4789 108 1
4789 1484 1
4789 3772 1
4789 3934 1
4790 33 1
4790 160 1
4790 1209 1
4790 2801 1
4791 91 1
4791 147 1
4791 207 1
4791 341 1
4792 32 1
4792 123 1
4792 1526 1
4792 1645 1
4793 3 1
4793 1390 1
4793 1841 1
4793 2163 1
4793 4976 1
4794 1021 1
4794 1044 1
4794 2234 1
4794 3202 1
4795 65 1
4795 237 1
4795 3589 1
4795 3699 1
4796 96 1
4796 981 1
4796 1151 1
4796 1190 1
4796 4811 1
4797 3 1
4797 696 1
4797 1125 1
4797 1756 1
4798 220 1
4798 1223 1
4798 2229 1
4798 4654 1
4799 17 1
4799 365 1
4799 1774 1
4799 2145 1
4800 1 1
4800 1359 1
4800 3343 1
4800 3645 1
4801 1144 1
4801 1441 1
4801 2024 1
4801 2032 1
4802 1323 1
4802 1858 1
4802 1896 1
4802 2997 1
4803 1397 1
4803 1781 1
4803 2808 1
4803 3541 1
4804 45 1
4804 852 1
4804 1363 1
4804 3821 1
4805 32 1
4805 293 1
4805 1833 1
4805 3384 1
4806 1239 1
4806 1796 1
4806 2307 1
4806 4210 1
4807 6 1
4807 1491 1
4807 2365 1
4807 3141 1
4808 96 1
4808 123 1
4808 210 1
4808 4687 1
4809 609 1
4809 2056 1
4809 2087 1
4809 4692 1
4810 40 1
4810 1494 1
4810 2782 1
4810 4144 1
4811 843 1
4811 2439 1
4811 4235 1
4811 4796 1
4812 71 1
4812 240 1
4812 875 1
4812 4018 1
4812 4971 1
4813 90 1
4813 938 1
4813 1639 1
4813 3614 1
4813 4940 1
4814 31 1
4814 36 1
4814 1024 1
4814 2328 1
4815 468 1
4815 682 1
4815 1501 1
4815 3210 1
4816 21 1
4816 235 1
4816 295 1
4816 761 1
4817 265 1
4817 2053 1
4817 3283 1
4817 3598 1
4818 116 1
4818 1217 1
4818 2182 1
4818 4113 1
4818 4825 1
4819 5 1
4819 471 1
4819 671 1
4819 2331 1
4820 498 1
4820 726 1
4820 1142 1
4820 2667 1
4821 24 1
4821 351 1
4821 2889 1
4821 4294 1
4822 14 1
4822 22 1
4822 981 1
4822 1652 1
4823 355 1
4823 529 1
4823 552 1
4823 2101 1
4824 145 1
4824 302 1
4824 1457 1
4824 1467 1
4825 45 1
4825 167 1
4825 697 1
4825 4818 1
4826 1128 1
4826 1410 1
4826 1621 1
4826 2910 1
4827 52 1
4827 324 1
4827 1387 1
4827 3598 1
4828 16 1
4828 2141 1
4828 4052 1
4828 4482 1
4828 4831 1
4829 27 1
4829 339 1
4829 1820 1
4829 3867 1
4830 2117 1
4830 4203 1
4830 4271 1
4830 4739 1
4831 53 1
4831 455 1
4831 2119 1
4831 4828 1
4832 463 1
4832 472 1
4832 745 1
4832 4341 1
4833 655 1
4833 1341 1
4833 2996 1
4833 3577 1
4834 117 1
4834 1548 1
4834 2010 1
4834 3362 1
4835 1301 1
4835 2499 1
4835 2560 1
4835 3531 1
4836 310 1
4836 457 1
4836 976 1
4836 1901 1
4837 98 1
4837 1288 1
4837 1540 1
4837 2813 1
4838 826 1
4838 2235 1
4838 2554 1
4838 3026 1
4839 22 1
4839 42 1
4839 267 1
4839 1304 1
4840 15 1
4840 18 1
4840 117 1
4840 1378 1
4841 99 1
4841 436 1
4841 2824 1
4841 3999 1
4842 352 1
4842 1230 1
4842 2218 1
4842 3503 1
4843 221 1
4843 235 1
4843 1188 1
4843 2863 1
4844 94 1
4844 229 1
4844 1768 1
4844 1984 1
4845 396 1
4845 803 1
4845 1215 1
4845 2744 1
4846 105 1
4846 169 1
4846 554 1
4846 1020 1
4846 4920 1
4847 428 1
4847 498 1
4847 2410 1
4847 3625 1
4848 58 1
4848 665 1
4848 2329 1
4848 2758 1
4849 239 1
4849 1591 1
4849 3018 1
4849 3439 1
4850 2 1
4850 157 1
4850 2173 1
4850 2732 1
4851 368 1
4851 724 1
4851 921 1
4851 2032 1
4852 53 1
4852 661 1
4852 3234 1
4852 3623 1
4853 205 1
4853 2953 1
4853 3267 1
4853 4280 1
4853 4991 1
4854 226 1
4854 3345 1
4854 3487 1
4854 4488 1
4855 20 1
4855 362 1
4855 1097 1
4855 4139 1
4856 456 1
4856 729 1
4856 3069 1
4856 4122 1
4857 326 1
4857 1466 1
4857 2404 1
4857 3566 1
4858 24 1
4858 26 1
4858 395 1
4858 1576 1
4859 337 1
4859 2441 1
4859 3966 1
4859 4204 1
4859 4957 1
4860 45 1
4860 132 1
4860 1122 1
4860 1176 1
4861 3 1
4861 1430 1
4861 2680 1
4861 3839 1
4862 258 1
4862 338 1
4862 1937 1
4862 2471 1
4863 9 1
4863 12 1
4863 191 1
4863 2234 1
4864 45 1
4864 218 1
4864 482 1
4864 3369 1
4865 16 1
4865 159 1
4865 355 1
4865 1904 1
4866 56 1
4866 309 1
4866 962 1
4866 4235 1
4867 963 1
4867 2137 1
4867 2343 1
4867 3139 1
4868 175 1
4868 1260 1
4868 1694 1
4868 2179 1
4869 24 1
4869 519 1
4869 1027 1
4869 1954 1
4870 61 1
4870 291 1
4870 396 1
4870 1609 1
4871 157 1
4871 298 1
4871 872 1
4871 3623 1
4872 1579 1
4872 2010 1
4872 2680 1
4872 3219 1
4873 87 1
4873 530 1
4873 1291 1
4873 3536 1
4874 2553 1
4874 3161 1
4874 3516 1
4874 4455 1
4875 18 1
4875 273 1
4875 1232 1
4875 1457 1
4876 23 1
4876 2864 1
4876 4450 1
4876 4606 1
4877 241 1
4877 1476 1
4877 1848 1
4877 2664 1
4878 652 1
4878 1930 1
4878 2146 1
4878 3002 1
4879 1109 1
4879 1813 1
4879 3971 1
4879 4094 1
4880 27 1
4880 147 1
4880 1204 1
4880 2318 1
4881 47 1
4881 305 1
4881 3846 1
4881 4588 1
4882 350 1
4882 378 1
4882 1383 1
4882 4287 1
4883 17 1
4883 54 1
4883 1059 1
4883 1601 1
4884 6 1
4884 11 1
4884 2328 1
4884 4183 1
4885 99 1
4885 107 1
4885 978 1
4885 2163 1
4886 102 1
4886 1143 1
4886 3005 1
4886 4502 1
4887 21 1
4887 1567 1
4887 2087 1
4887 3065 1
4888 119 1
4888 2936 1
4888 3567 1
4888 4515 1
4889 3 1
4889 587 1
4889 1043 1
4889 1707 1
4890 10 1
4890 55 1
4890 481 1
4890 860 1
4891 180 1
4891 566 1
4891 3103 1
4891 4430 1
4892 292 1
4892 908 1
4892 1504 1
4892 1762 1
4893 934 1
4893 1280 1
4893 3943 1
4893 4010 1
4894 230 1
4894 2329 1
4894 3579 1
4894 4251 1
4895 851 1
4895 2279 1
4895 3489 1
4895 4035 1
4895 4992 1
4896 100 1
4896 154 1
4896 1426 1
4896 1810 1
4897 6 1
4897 10 1
4897 12 1
4897 3307 1
4898 21 1
4898 1705 1
4898 2138 1
4898 3294 1
4899 14 1
4899 423 1
4899 596 1
4899 4446 1
4900 25 1
4900 743 1
4900 3742 1
4900 4701 1
4901 16 1
4901 1169 1
4901 1771 1
4901 2042 1
4902 50 1
4902 746 1
4902 769 1
4902 4415 1
4903 872 1
4903 1201 1
4903 2160 1
4903 2427 1
4904 6 1
4904 14 1
4904 91 1
4904 2570 1
4905 24 1
4905 2491 1
4905 3470 1
4905 4748 1
4906 1 1
4906 178 1
4906 923 1
4906 4774 1
4907 175 1
4907 685 1
4907 1233 1
4907 4461 1
4908 131 1
4908 652 1
4908 687 1
4908 2042 1
4909 187 1
4909 610 1
4909 1493 1
4909 2562 1
4910 1 1
4910 77 1
4910 1086 1
4910 2763 1
4911 117 1
4911 665 1
4911 1370 1
4911 4696 1
4912 1 1
4912 697 1
4912 1229 1
4912 3137 1
4913 271 1
4913 1452 1
4913 1937 1
4913 4401 1
4914 472 1
4914 1041 1
4914 1276 1
4914 1620 1
4915 6 1
4915 57 1
4915 2758 1
4915 4642 1
4916 1 1
4916 1242 1
4916 1657 1
4916 3577 1
4917 827 1
4917 1135 1
4917 1462 1
4917 3435 1
4918 36 1
4918 1148 1
4918 1502 1
4918 2309 1
4919 187 1
4919 546 1
4919 1350 1
4919 2272 1
4920 1180 1
4920 1742 1
4920 2596 1
4920 4846 1
4921 1 1
4921 938 1
4921 1343 1
4921 4194 1
4922 13 1
4922 2157 1
4922 3623 1
4922 4672 1
4923 37 1
4923 39 1
4923 56 1
4923 1001 1
4924 283 1
4924 295 1
4924 2688 1
4924 3191 1
4925 2 1
4925 890 1
4925 1285 1
4925 3968 1
4926 894 1
4926 2257 1
4926 2732 1
4926 4710 1
4927 66 1
4927 2071 1
4927 3422 1
4927 4561 1
4928 933 1
4928 2391 1
4928 3051 1
4928 3842 1
4929 94 1
4929 1885 1
4929 2978 1
4929 3784 1
4930 1023 1
4930 1221 1
4930 1505 1
4930 4039 1
4931 32 1
4931 418 1
4931 988 1
4931 2205 1
4932 29 1
4932 2495 1
4932 3545 1
4932 4298 1
4933 7 1
4933 1548 1
4933 3300 1
4933 4779 1
4934 574 1
4934 760 1
4934 3008 1
4934 3677 1
4935 2 1
4935 1522 1
4935 2283 1
4935 4089 1
4936 78 1
4936 185 1
4936 1981 1
4936 3181 1
4937 50 1
4937 166 1
4937 2518 1
4937 3317 1
4938 90 1
4938 598 1
4938 1075 1
4938 1411 1
4939 58 1
4939 163 1
4939 741 1
4939 1550 1
4940 85 1
4940 237 1
4940 2335 1
4940 4813 1
4941 1 1
4941 90 1
4941 1479 1
4941 1614 1
4942 535 1
4942 1121 1
4942 1983 1
4942 3307 1
4943 904 1
4943 906 1
4943 1452 1
4943 2350 1
4944 34 1
4944 72 1
4944 196 1
4944 1181 1
4945 6 1
4945 482 1
4945 1195 1
4945 1758 1
4946 227 1
4946 808 1
4946 3474 1
4946 4301 1
4947 387 1
4947 1483 1
4947 1613 1
4947 2306 1
4948 1400 1
4948 1483 1
4948 2424 1
4948 2716 1
4949 23 1
4949 34 1
4949 4094 1
4949 4407 1
4950 117 1
4950 1604 1
4950 4375 1
4950 4650 1
4951 8 1
4951 1657 1
4951 4046 1
4951 4706 1
4952 623 1
4952 802 1
4952 1388 1
4952 2935 1
4953 1904 1
4953 2368 1
4953 3883 1
4953 3980 1
4954 262 1
4954 763 1
4954 878 1
4954 1480 1
4955 280 1
4955 684 1
4955 2939 1
4955 3384 1
4956 481 1
4956 698 1
4956 1549 1
4956 4000 1
4957 45 1
4957 355 1
4957 1595 1
4957 4859 1
4958 227 1
4958 1753 1
4958 2824 1
4958 3153 1
4959 6 1
4959 34 1
4959 633 1
4959 4508 1
4960 706 1
4960 1202 1
4960 3075 1
4960 3577 1
4961 426 1
4961 1313 1
4961 1806 1
4961 3614 1
4962 1330 1
4962 2127 1
4962 3199 1
4962 4160 1
4963 244 1
4963 1612 1
4963 3601 1
4963 3887 1
4964 53 1
4964 1794 1
4964 2354 1
4964 4407 1
4965 117 1
4965 167 1
4965 2834 1
4965 3887 1
4966 131 1
4966 494 1
4966 511 1
4966 563 1
4967 413 1
4967 458 1
4967 461 1
4967 3278 1
4968 446 1
4968 726 1
4968 1521 1
4968 4776 1
4969 683 1
4969 1316 1
4969 1457 1
4969 4158 1
4970 92 1
4970 1476 1
4970 3275 1
4970 4425 1
4971 8 1
4971 920 1
4971 2439 1
4971 4812 1
4972 1135 1
4972 2857 1
4972 4402 1
4972 4639 1
4973 56 1
4973 153 1
4973 946 1
4973 1309 1
4974 181 1
4974 1253 1
4974 2313 1
4974 2869 1
4975 1 1
4975 741 1
4975 1100 1
4975 1185 1
4976 621 1
4976 753 1
4976 3783 1
4976 4793 1
4977 123 1
4977 843 1
4977 1059 1
4977 2194 1
4978 2737 1
4978 3629 1
4978 3989 1
4978 4179 1
4979 890 1
4979 1252 1
4979 3343 1
4979 4748 1
4980 435 1
4980 611 1
4980 791 1
4980 844 1
4981 11 1
4981 1303 1
4981 2567 1
4981 4313 1
4982 423 1
4982 464 1
4982 1835 1
4982 2234 1
4983 47 1
4983 66 1
4983 148 1
4983 431 1
4984 10 1
4984 1115 1
4984 2041 1
4984 2169 1
4985 21 1
4985 54 1
4985 74 1
4985 3400 1
4986 6 1
4986 1729 1
4986 2106 1
4986 2882 1
4987 389 1
4987 806 1
4987 811 1
4987 3276 1
4988 113 1
4988 1787 1
4988 2782 1
4988 3156 1
4989 53 1
4989 1459 1
4989 2651 1
4989 3448 1
4990 261 1
4990 459 1
4990 675 1
4990 4702 1
4991 254 1
4991 1641 1
4991 2990 1
4991 4853 1
4992 6 1
4992 1039 1
4992 2063 1
4992 4895 1
4992 4993 1
4993 3 1
4993 2491 1
4993 2973 1
4993 4992 1
4994 34 1
4994 103 1
4994 198 1
4994 392 1
4995 239 1
4995 241 1
4995 1198 1
4995 1281 1
4996 1403 1
4996 2442 1
4996 2832 1
4996 3990 1
4997 14 1
4997 36 1
4997 2829 1
4997 3028 1
4998 18 1
4998 1480 1
4998 1853 1
4998 4009 1
4999 1 1
4999 550 1
4999 620 1
4999 1320 1
5000 3 1
5000 706 1
5000 728 1
5000 1202 1
